<?xml version="1.0"?>
<VTKFile type="UnstructuredGrid" version="0.1" byte_order="LittleEndian">
<UnstructuredGrid>
<Piece NumberOfPoints="2160" NumberOfCells="540">
<Points>
<DataArray type="Float64" NumberOfComponents="3" format="ascii">
-4.3301270160527148 -2.500000004970083 -12 -2.9547160992544761 -1.820741508163664 -15 -2.9547160992544761 -1.820741508163664 -12 -5 -1.397247784140632e-08 -12 -4.3301270160527148 -2.500000004970083 -12 -2.9547160992544761 -1.820741508163664 -15 -2.9547160992544761 -1.820741508163664 -12 -2.5000000000000022 -4.3301270189221919 -12 -4.3301270160527148 -2.500000004970083 -12 -4.3301270160527148 -2.500000004970083 -15 -2.9547160992544761 -1.820741508163664 -15 -2.5000000000000022 -4.3301270189221919 -12 -4.3301270160527148 -2.500000004970083 -12 -4.3301270160527148 -2.500000004970083 -15 -2.9547160992544761 -1.820741508163664 -15 -5 -1.397247784140632e-08 -15 -2.9547160992544761 -1.820741508163664 -15 -0.66987297914647026 -2.499999999706382 -15 -0.66987297914647026 -2.499999999706382 -12 -2.2735805010731909 0.22641949675281539 -12 -2.9547160992544761 -1.820741508163664 -15 -2.5000000000000022 -4.3301270189221919 -12 -0.66987297914647026 -2.499999999706382 -15 -0.66987297914647026 -2.499999999706382 -12 -2.9547160992544761 -1.820741508163664 -15 -2.9547160992544761 -1.820741508163664 -12 -0.66987297914647026 -2.499999999706382 -12 -2.2735805010731909 0.22641949675281539 -12 -2.9547160992544761 -1.820741508163664 -15 -2.9547160992544761 -1.820741508163664 -12 -2.5000000000000022 -4.3301270189221919 -12 -0.66987297914647026 -2.499999999706382 -12 -2.5000000000000022 -4.3301270189221919 -12 -2.5000000000000022 -4.3301270189221919 -15 -0.66987297914647026 -2.499999999706382 -15 6.9142305214597846e-09 -5 -12 -2.9547160992544761 -1.820741508163664 -15 -2.5000000000000022 -4.3301270189221919 -12 -2.5000000000000022 -4.3301270189221919 -15 -0.66987297914647026 -2.499999999706382 -15 -4.3301270160527148 -2.500000004970083 -15 -2.9547160992544761 -1.820741508163664 -15 -2.5000000000000022 -4.3301270189221919 -12 -2.5000000000000022 -4.3301270189221919 -15 -2.5000000000000022 -4.3301270189221919 -15 6.9142305214597846e-09 -5 -15 -0.66987297914647026 -2.499999999706382 -15 6.9142305214597846e-09 -5 -12 6.9142305214597846e-09 -5 -15 -0.66987297914647026 -2.499999999706382 -15 0.91506351643986317 -3.4150635091400758 -15 6.9142305214597846e-09 -5 -12 -0.66987297914647026 -2.499999999706382 -15 0.91506351643986317 -3.4150635091400758 -15 -0.66987297914647026 -2.499999999706382 -12 6.9142305214597846e-09 -5 -12 -0.66987297914647026 -2.499999999706382 -15 0.95458002071209891 -1.657898275923388 -15 -0.66987297914647026 -2.499999999706382 -12 0.20080558631870429 0.033909897404034287 -15 -0.66987297914647026 -2.499999999706382 -15 0.95458002071209891 -1.657898275923388 -15 0.91506351643986317 -3.4150635091400758 -15 -0.66987297914647026 -2.499999999706382 -12 0.95458002071209891 -1.657898275923388 -15 0.91506351643986317 -3.4150635091400758 -15 0.91506351643986317 -3.4150635091400758 -12 -0.66987297914647026 -2.499999999706382 -12 0.95458002071209891 -1.657898275923388 -15 2.217625015551433 -2.5696135239339939 -15 0.95458002071209891 -1.657898275923388 -12 2.3883545080289421 -0.94497882694672608 -12 0.95458002071209891 -1.657898275923388 -15 2.217625015551433 -2.5696135239339939 -15 2.3883545080289421 -0.94497882694672608 -12 2.3883545080289421 -0.94497882694672608 -15 0.95458002071209891 -1.657898275923388 -15 2.217625015551433 -2.5696135239339939 -15 0.91506351643986317 -3.4150635091400758 -12 0.95458002071209891 -1.657898275923388 -12 0.95458002071209891 -1.657898275923388 -15 2.217625015551433 -2.5696135239339939 -15 0.91506351643986317 -3.4150635091400758 -15 0.91506351643986317 -3.4150635091400758 -12 2.217625015551433 -2.5696135239339939 -15 0.91506351643986317 -3.4150635091400758 -15 2.500000010727558 -4.3301270127286351 -15 2.500000010727558 -4.3301270127286351 -12 6.9142305214597846e-09 -5 -15 0.91506351643986317 -3.4150635091400758 -15 6.9142305214597846e-09 -5 -12 2.500000010727558 -4.3301270127286351 -12 6.9142305214597846e-09 -5 -15 0.91506351643986317 -3.4150635091400758 -15 2.500000010727558 -4.3301270127286351 -15 2.500000010727558 -4.3301270127286351 -12 2.217625015551433 -2.5696135239339939 -15 0.91506351643986317 -3.4150635091400758 -15 0.91506351643986317 -3.4150635091400758 -12 2.500000010727558 -4.3301270127286351 -12 0.91506351643986317 -3.4150635091400758 -15 0.91506351643986317 -3.4150635091400758 -12 6.9142305214597846e-09 -5 -12 2.500000010727558 -4.3301270127286351 -12 2.217625015551433 -2.5696135239339939 -15 0.91506351643986317 -3.4150635091400758 -12 2.217625015551433 -2.5696135239339939 -12 2.500000010727558 -4.3301270127286351 -12 2.217625015551433 -2.5696135239339939 -15 2.217625015551433 -2.5696135239339939 -12 0.95458002071209891 -1.657898275923388 -12 2.3883545080289421 -0.94497882694672608 -12 2.217625015551433 -2.5696135239339939 -15 0.91506351643986317 -3.4150635091400758 -12 2.217625015551433 -2.5696135239339939 -12 0.95458002071209891 -1.657898275923388 -12 0.95458002071209891 -1.657898275923388 -15 0.91506351643986317 -3.4150635091400758 -12 0.95458002071209891 -1.657898275923388 -12 -0.66987297914647026 -2.499999999706382 -12 0.95458002071209891 -1.657898275923388 -15 0.95458002071209891 -1.657898275923388 -12 -0.66987297914647026 -2.499999999706382 -12 0.20080558631870429 0.033909897404034287 -12 0.91506351643986317 -3.4150635091400758 -15 0.91506351643986317 -3.4150635091400758 -12 -0.66987297914647026 -2.499999999706382 -12 6.9142305214597846e-09 -5 -12 -2.5000000000000022 -4.3301270189221919 -12 -0.66987297914647026 -2.499999999706382 -15 -0.66987297914647026 -2.499999999706382 -12 6.9142305214597846e-09 -5 -12 0.91506351643986317 -3.4150635091400758 -12 -0.66987297914647026 -2.499999999706382 -12 6.9142305214597846e-09 -5 -12 6.9142305214597846e-09 -5 -9 0.91506351643986317 -3.4150635091400758 -12 0.91506351643986317 -3.4150635091400758 -9 -0.66987297914647026 -2.499999999706382 -9 6.9142305214597846e-09 -5 -9 0.91506351643986317 -3.4150635091400758 -12 -0.66987297914647026 -2.499999999706382 -12 -0.66987297914647026 -2.499999999706382 -9 6.9142305214597846e-09 -5 -9 -0.66987297914647026 -2.499999999706382 -12 -0.66987297914647026 -2.499999999706382 -9 6.9142305214597846e-09 -5 -9 -2.5000000000000022 -4.3301270189221919 -9 -2.5000000000000022 -4.3301270189221919 -12 -0.66987297914647026 -2.499999999706382 -12 6.9142305214597846e-09 -5 -12 6.9142305214597846e-09 -5 -9 0.95458002071209891 -1.657898275923388 -12 -0.66987297914647026 -2.499999999706382 -12 -0.66987297914647026 -2.499999999706382 -9 0.20080558631870429 0.033909897404034287 -12 0.91506351643986317 -3.4150635091400758 -12 0.95458002071209891 -1.657898275923388 -12 0.91506351643986317 -3.4150635091400758 -9 -0.66987297914647026 -2.499999999706382 -9 0.95458002071209891 -1.657898275923388 -12 0.95458002071209891 -1.657898275923388 -9 -0.66987297914647026 -2.499999999706382 -9 0.20080558631870429 0.033909897404034287 -9 0.91506351643986317 -3.4150635091400758 -12 0.95458002071209891 -1.657898275923388 -12 -0.66987297914647026 -2.499999999706382 -12 -0.66987297914647026 -2.499999999706382 -9 0.95458002071209891 -1.657898275923388 -12 0.91506351643986317 -3.4150635091400758 -9 0.95458002071209891 -1.657898275923388 -9 -0.66987297914647026 -2.499999999706382 -9 2.217625015551433 -2.5696135239339939 -12 0.95458002071209891 -1.657898275923388 -9 2.217625015551433 -2.5696135239339939 -9 2.3883545080289421 -0.94497882694672608 -9 2.217625015551433 -2.5696135239339939 -12 0.95458002071209891 -1.657898275923388 -12 2.3883545080289421 -0.94497882694672608 -9 2.3883545080289421 -0.94497882694672608 -12 2.217625015551433 -2.5696135239339939 -12 0.95458002071209891 -1.657898275923388 -12 0.95458002071209891 -1.657898275923388 -9 2.3883545080289421 -0.94497882694672608 -9 2.217625015551433 -2.5696135239339939 -12 0.95458002071209891 -1.657898275923388 -12 0.91506351643986317 -3.4150635091400758 -9 0.95458002071209891 -1.657898275923388 -9 0.91506351643986317 -3.4150635091400758 -12 2.217625015551433 -2.5696135239339939 -12 0.95458002071209891 -1.657898275923388 -12 0.91506351643986317 -3.4150635091400758 -9 2.217625015551433 -2.5696135239339939 -12 0.91506351643986317 -3.4150635091400758 -9 0.95458002071209891 -1.657898275923388 -9 2.217625015551433 -2.5696135239339939 -9 0.91506351643986317 -3.4150635091400758 -12 6.9142305214597846e-09 -5 -12 2.500000010727558 -4.3301270127286351 -12 2.500000010727558 -4.3301270127286351 -9 0.91506351643986317 -3.4150635091400758 -12 0.91506351643986317 -3.4150635091400758 -9 6.9142305214597846e-09 -5 -9 2.500000010727558 -4.3301270127286351 -9 0.91506351643986317 -3.4150635091400758 -12 6.9142305214597846e-09 -5 -12 6.9142305214597846e-09 -5 -9 2.500000010727558 -4.3301270127286351 -9 0.91506351643986317 -3.4150635091400758 -12 2.217625015551433 -2.5696135239339939 -12 0.91506351643986317 -3.4150635091400758 -9 2.500000010727558 -4.3301270127286351 -9 0.91506351643986317 -3.4150635091400758 -12 2.217625015551433 -2.5696135239339939 -12 2.500000010727558 -4.3301270127286351 -12 2.500000010727558 -4.3301270127286351 -9 2.217625015551433 -2.5696135239339939 -12 0.91506351643986317 -3.4150635091400758 -9 2.217625015551433 -2.5696135239339939 -9 2.500000010727558 -4.3301270127286351 -9 0.91506351643986317 -3.4150635091400758 -9 6.9142305214597846e-09 -5 -9 2.500000010727558 -4.3301270127286351 -9 2.500000010727558 -4.3301270127286351 -6 0.91506351643986317 -3.4150635091400758 -9 2.217625015551433 -2.5696135239339939 -9 2.500000010727558 -4.3301270127286351 -9 2.500000010727558 -4.3301270127286351 -6 0.91506351643986317 -3.4150635091400758 -9 0.95458002071209891 -1.657898275923388 -9 2.217625015551433 -2.5696135239339939 -9 0.91506351643986317 -3.4150635091400758 -6 0.95458002071209891 -1.657898275923388 -9 2.217625015551433 -2.5696135239339939 -9 2.3883545080289421 -0.94497882694672608 -9 2.3883545080289421 -0.94497882694672608 -6 0.91506351643986317 -3.4150635091400758 -9 0.95458002071209891 -1.657898275923388 -9 -0.66987297914647026 -2.499999999706382 -9 -0.66987297914647026 -2.499999999706382 -6 0.95458002071209891 -1.657898275923388 -9 -0.66987297914647026 -2.499999999706382 -9 0.20080558631870429 0.033909897404034287 -9 -0.66987297914647026 -2.499999999706382 -6 -0.66987297914647026 -2.499999999706382 -9 6.9142305214597846e-09 -5 -9 -2.5000000000000022 -4.3301270189221919 -9 6.9142305214597846e-09 -5 -6 0.91506351643986317 -3.4150635091400758 -9 -0.66987297914647026 -2.499999999706382 -9 6.9142305214597846e-09 -5 -9 6.9142305214597846e-09 -5 -6 -0.66987297914647026 -2.499999999706382 -9 -2.5000000000000022 -4.3301270189221919 -9 -2.9547160992544761 -1.820741508163664 -9 -2.5000000000000022 -4.3301270189221919 -6 -2.5000000000000022 -4.3301270189221919 -9 -4.3301270160527148 -2.500000004970083 -9 -2.9547160992544761 -1.820741508163664 -9 -2.5000000000000022 -4.3301270189221919 -6 -2.5000000000000022 -4.3301270189221919 -12 -0.66987297914647026 -2.499999999706382 -12 6.9142305214597846e-09 -5 -9 -2.5000000000000022 -4.3301270189221919 -9 -2.9547160992544761 -1.820741508163664 -12 -2.5000000000000022 -4.3301270189221919 -12 -0.66987297914647026 -2.499999999706382 -12 -2.5000000000000022 -4.3301270189221919 -9 -4.3301270160527148 -2.500000004970083 -12 -2.9547160992544761 -1.820741508163664 -12 -2.5000000000000022 -4.3301270189221919 -12 -2.5000000000000022 -4.3301270189221919 -9 -2.9547160992544761 -1.820741508163664 -12 -0.66987297914647026 -2.499999999706382 -9 -2.9547160992544761 -1.820741508163664 -9 -2.2735805010731909 0.22641949675281539 -9 -2.9547160992544761 -1.820741508163664 -12 -0.66987297914647026 -2.499999999706382 -9 -2.5000000000000022 -4.3301270189221919 -9 -2.9547160992544761 -1.820741508163664 -9 -2.9547160992544761 -1.820741508163664 -12 -0.66987297914647026 -2.499999999706382 -12 -0.66987297914647026 -2.499999999706382 -9 -2.5000000000000022 -4.3301270189221919 -9 -2.9547160992544761 -1.820741508163664 -12 -0.66987297914647026 -2.499999999706382 -12 -0.66987297914647026 -2.499999999706382 -9 -2.2735805010731909 0.22641949675281539 -9 -2.9547160992544761 -1.820741508163664 -12 -2.5000000000000022 -4.3301270189221919 -9 -4.3301270160527148 -2.500000004970083 -9 -2.9547160992544761 -1.820741508163664 -9 -4.3301270160527148 -2.500000004970083 -12 -2.9547160992544761 -1.820741508163664 -12 -2.5000000000000022 -4.3301270189221919 -9 -4.3301270160527148 -2.500000004970083 -9 -2.9547160992544761 -1.820741508163664 -12 -4.3301270160527148 -2.500000004970083 -9 -2.9547160992544761 -1.820741508163664 -9 -5 -1.397247784140632e-08 -9 -4.3301270160527148 -2.500000004970083 -12 -2.9547160992544761 -1.820741508163664 -12 -4.3301270160527148 -2.500000004970083 -9 -5 -1.397247784140632e-08 -12 -4.3301270160527148 -2.500000004970083 -9 -2.9547160992544761 -1.820741508163664 -9 -5 -1.397247784140632e-08 -9 -4.3301270160527148 -2.500000004970083 -6 -0.66987297914647026 -2.499999999706382 -9 -2.2735805010731909 0.22641949675281539 -9 0.20080558631870429 0.033909897404034287 -9 -2.2735805010731909 0.22641949675281539 -6 -0.66987297914647026 -2.499999999706382 -9 -2.9547160992544761 -1.820741508163664 -9 -2.2735805010731909 0.22641949675281539 -9 -2.2735805010731909 0.22641949675281539 -6 -2.2735805010731909 0.22641949675281539 -9 -0.91506351183037493 1.5849364925866429 -9 0.20080558631870429 0.033909897404034287 -9 -2.2735805010731909 0.22641949675281539 -6 -2.9547160992544761 -1.820741508163664 -9 -2.2735805010731909 0.22641949675281539 -9 -5 -1.397247784140632e-08 -9 -5 -1.397247784140632e-08 -6 -2.9547160992544761 -1.820741508163664 -12 -2.9547160992544761 -1.820741508163664 -9 -2.2735805010731909 0.22641949675281539 -9 -5 -1.397247784140632e-08 -9 -2.9547160992544761 -1.820741508163664 -12 -5 -1.397247784140632e-08 -9 -2.2735805010731909 0.22641949675281539 -12 -5 -1.397247784140632e-08 -12 -2.9547160992544761 -1.820741508163664 -12 -2.2735805010731909 0.22641949675281539 -9 -5 -1.397247784140632e-08 -9 -2.2735805010731909 0.22641949675281539 -12 -2.9547160992544761 -1.820741508163664 -12 -4.3301270160527148 -2.500000004970083 -9 -5 -1.397247784140632e-08 -9 -5 -1.397247784140632e-08 -12 -2.9547160992544761 -1.820741508163664 -12 -0.66987297914647026 -2.499999999706382 -12 -2.2735805010731909 0.22641949675281539 -9 -2.2735805010731909 0.22641949675281539 -12 -2.2735805010731909 0.22641949675281539 -9 -0.91506351183037493 1.5849364925866429 -12 0.20080558631870429 0.033909897404034287 -12 -2.2735805010731909 0.22641949675281539 -12 -0.66987297914647026 -2.499999999706382 -12 -2.2735805010731909 0.22641949675281539 -9 0.20080558631870429 0.033909897404034287 -12 -2.2735805010731909 0.22641949675281539 -12 -2.2253246846922492 2.366533744740174 -9 -0.91506351183037493 1.5849364925866429 -9 -2.2253246846922492 2.366533744740174 -12 -1.107852388446384 3.1911857209629071 -9 -2.2735805010731909 0.22641949675281539 -9 -0.91506351183037493 1.5849364925866429 -12 -2.2253246846922492 2.366533744740174 -12 -2.2735805010731909 0.22641949675281539 -12 -0.91506351183037493 1.5849364925866429 -9 -0.91506351183037493 1.5849364925866429 -12 -2.2253246846922492 2.366533744740174 -12 -1.107852388446384 3.1911857209629071 -12 -2.2735805010731909 0.22641949675281539 -9 -2.2253246846922492 2.366533744740174 -9 -0.91506351183037493 1.5849364925866429 -9 -2.2253246846922492 2.366533744740174 -12 -2.2735805010731909 0.22641949675281539 -9 -0.91506351183037493 1.5849364925866429 -9 -0.91506351183037493 1.5849364925866429 -12 -2.2253246846922492 2.366533744740174 -12 -2.2735805010731909 0.22641949675281539 -9 -4.3301270221112951 2.4999999944763132 -9 -2.2253246846922492 2.366533744740174 -9 -2.2253246846922492 2.366533744740174 -12 -2.2735805010731909 0.22641949675281539 -9 -4.3301270221112951 2.4999999944763132 -9 -2.2253246846922492 2.366533744740174 -12 -2.2735805010731909 0.22641949675281539 -12 -5 -1.397247784140632e-08 -9 -4.3301270221112951 2.4999999944763132 -9 -2.2735805010731909 0.22641949675281539 -12 -4.3301270221112951 2.4999999944763132 -12 -5 -1.397247784140632e-08 -9 -2.2735805010731909 0.22641949675281539 -12 -5 -1.397247784140632e-08 -12 -4.3301270221112951 2.4999999944763132 -12 -2.2735805010731909 0.22641949675281539 -9 -5 -1.397247784140632e-08 -9 -4.3301270221112951 2.4999999944763132 -9 -2.2735805010731909 0.22641949675281539 -12 -4.3301270221112951 2.4999999944763132 -9 -2.2253246846922492 2.366533744740174 -12 -2.2735805010731909 0.22641949675281539 -12 -4.3301270221112951 2.4999999944763132 -12 -2.2735805010731909 0.22641949675281539 -9 -5 -1.397247784140632e-08 -9 -4.3301270221112951 2.4999999944763132 -9 -5 -1.397247784140632e-08 -6 -2.2735805010731909 0.22641949675281539 -9 -4.3301270221112951 2.4999999944763132 -9 -2.2253246846922492 2.366533744740174 -9 -4.3301270221112951 2.4999999944763132 -6 -2.2253246846922492 2.366533744740174 -9 -0.91506351183037493 1.5849364925866429 -9 -1.107852388446384 3.1911857209629071 -9 -0.91506351183037493 1.5849364925866429 -6 -2.2735805010731909 0.22641949675281539 -9 -2.2253246846922492 2.366533744740174 -9 -0.91506351183037493 1.5849364925866429 -9 -2.2735805010731909 0.22641949675281539 -6 -0.91506351183037493 1.5849364925866429 -9 0.20080558631870429 0.033909897404034287 -9 0.37580157663508379 2.5408650916807378 -9 0.20080558631870429 0.033909897404034287 -6 -0.91506351183037493 1.5849364925866429 -9 0.37580157663508379 2.5408650916807378 -9 -1.107852388446384 3.1911857209629071 -9 0.37580157663508379 2.5408650916807378 -6 0.20080558631870429 0.033909897404034287 -9 2.3883545080289421 -0.94497882694672608 -9 2.465848112410058 1.4099871989758821 -9 2.3883545080289421 -0.94497882694672608 -6 0.95458002071209891 -1.657898275923388 -9 0.20080558631870429 0.033909897404034287 -9 2.3883545080289421 -0.94497882694672608 -9 2.3883545080289421 -0.94497882694672608 -6 0.20080558631870429 0.033909897404034287 -9 2.465848112410058 1.4099871989758821 -9 0.37580157663508379 2.5408650916807378 -9 0.20080558631870429 0.033909897404034287 -6 0.20080558631870429 0.033909897404034287 -9 2.465848112410058 1.4099871989758821 -12 0.37580157663508379 2.5408650916807378 -9 0.37580157663508379 2.5408650916807378 -12 2.465848112410058 1.4099871989758821 -9 2.465848112410058 1.4099871989758821 -12 2.4999999879139869 4.3301270259000564 -9 0.37580157663508379 2.5408650916807378 -9 0.20080558631870429 0.033909897404034287 -9 2.465848112410058 1.4099871989758821 -9 2.465848112410058 1.4099871989758821 -12 0.37580157663508379 2.5408650916807378 -9 0.20080558631870429 0.033909897404034287 -9 0.20080558631870429 0.033909897404034287 -12 2.465848112410058 1.4099871989758821 -12 0.37580157663508379 2.5408650916807378 -12 0.95458002071209891 -1.657898275923388 -12 2.3883545080289421 -0.94497882694672608 -9 0.20080558631870429 0.033909897404034287 -12 2.3883545080289421 -0.94497882694672608 -12 0.95458002071209891 -1.657898275923388 -12 0.20080558631870429 0.033909897404034287 -9 2.3883545080289421 -0.94497882694672608 -9 0.20080558631870429 0.033909897404034287 -12 0.20080558631870429 0.033909897404034287 -9 2.3883545080289421 -0.94497882694672608 -9 2.465848112410058 1.4099871989758821 -9 2.465848112410058 1.4099871989758821 -12 2.3883545080289421 -0.94497882694672608 -9 0.20080558631870429 0.033909897404034287 -12 2.3883545080289421 -0.94497882694672608 -12 2.465848112410058 1.4099871989758821 -12 0.20080558631870429 0.033909897404034287 -9 2.3883545080289421 -0.94497882694672608 -9 0.20080558631870429 0.033909897404034287 -12 2.465848112410058 1.4099871989758821 -12 0.95458002071209891 -1.657898275923388 -12 0.95458002071209891 -1.657898275923388 -9 0.20080558631870429 0.033909897404034287 -9 2.3883545080289421 -0.94497882694672608 -9 -2.2735805010731909 0.22641949675281539 -9 0.20080558631870429 0.033909897404034287 -9 -0.91506351183037493 1.5849364925866429 -12 0.20080558631870429 0.033909897404034287 -12 -0.66987297914647026 -2.499999999706382 -12 -0.66987297914647026 -2.499999999706382 -9 -2.2735805010731909 0.22641949675281539 -9 0.20080558631870429 0.033909897404034287 -12 0.95458002071209891 -1.657898275923388 -12 -0.66987297914647026 -2.499999999706382 -9 0.20080558631870429 0.033909897404034287 -9 0.20080558631870429 0.033909897404034287 -12 -0.66987297914647026 -2.499999999706382 -9 -2.2735805010731909 0.22641949675281539 -9 0.20080558631870429 0.033909897404034287 -9 0.20080558631870429 0.033909897404034287 -12 -2.2735805010731909 0.22641949675281539 -9 -0.91506351183037493 1.5849364925866429 -9 0.20080558631870429 0.033909897404034287 -9 -0.91506351183037493 1.5849364925866429 -12 -0.91506351183037493 1.5849364925866429 -9 0.20080558631870429 0.033909897404034287 -9 -0.91506351183037493 1.5849364925866429 -12 0.37580157663508379 2.5408650916807378 -9 0.20080558631870429 0.033909897404034287 -9 -0.91506351183037493 1.5849364925866429 -12 0.20080558631870429 0.033909897404034287 -12 0.37580157663508379 2.5408650916807378 -12 0.20080558631870429 0.033909897404034287 -9 -0.91506351183037493 1.5849364925866429 -12 0.37580157663508379 2.5408650916807378 -9 0.37580157663508379 2.5408650916807378 -12 -0.91506351183037493 1.5849364925866429 -9 -0.91506351183037493 1.5849364925866429 -12 0.37580157663508379 2.5408650916807378 -9 -1.107852388446384 3.1911857209629071 -12 -0.91506351183037493 1.5849364925866429 -12 0.37580157663508379 2.5408650916807378 -9 0.37580157663508379 2.5408650916807378 -12 -1.107852388446384 3.1911857209629071 -12 -0.91506351183037493 1.5849364925866429 -12 0.20080558631870429 0.033909897404034287 -12 -0.91506351183037493 1.5849364925866429 -15 -2.2735805010731909 0.22641949675281539 -12 -0.91506351183037493 1.5849364925866429 -12 0.20080558631870429 0.033909897404034287 -12 -0.91506351183037493 1.5849364925866429 -15 0.37580157663508379 2.5408650916807378 -12 -0.66987297914647026 -2.499999999706382 -12 0.20080558631870429 0.033909897404034287 -12 0.20080558631870429 0.033909897404034287 -15 -2.2735805010731909 0.22641949675281539 -12 0.20080558631870429 0.033909897404034287 -12 2.3883545080289421 -0.94497882694672608 -12 2.465848112410058 1.4099871989758821 -12 2.465848112410058 1.4099871989758821 -15 0.95458002071209891 -1.657898275923388 -15 0.95458002071209891 -1.657898275923388 -12 0.20080558631870429 0.033909897404034287 -12 2.3883545080289421 -0.94497882694672608 -12 2.465848112410058 1.4099871989758821 -12 2.465848112410058 1.4099871989758821 -15 2.4999999879139869 4.3301270259000564 -12 0.37580157663508379 2.5408650916807378 -12 0.20080558631870429 0.033909897404034287 -12 2.465848112410058 1.4099871989758821 -12 2.465848112410058 1.4099871989758821 -15 0.37580157663508379 2.5408650916807378 -12 0.20080558631870429 0.033909897404034287 -12 2.465848112410058 1.4099871989758821 -15 0.37580157663508379 2.5408650916807378 -12 0.37580157663508379 2.5408650916807378 -15 0.20080558631870429 0.033909897404034287 -12 2.465848112410058 1.4099871989758821 -15 0.20080558631870429 0.033909897404034287 -15 0.37580157663508379 2.5408650916807378 -15 2.3883545080289421 -0.94497882694672608 -12 2.465848112410058 1.4099871989758821 -15 2.3883545080289421 -0.94497882694672608 -15 0.20080558631870429 0.033909897404034287 -15 0.95458002071209891 -1.657898275923388 -15 0.20080558631870429 0.033909897404034287 -12 2.3883545080289421 -0.94497882694672608 -12 0.20080558631870429 0.033909897404034287 -15 0.20080558631870429 0.033909897404034287 -12 2.3883545080289421 -0.94497882694672608 -12 2.465848112410058 1.4099871989758821 -15 0.20080558631870429 0.033909897404034287 -15 0.95458002071209891 -1.657898275923388 -15 2.3883545080289421 -0.94497882694672608 -12 2.3883545080289421 -0.94497882694672608 -15 0.20080558631870429 0.033909897404034287 -15 -0.66987297914647026 -2.499999999706382 -15 -0.66987297914647026 -2.499999999706382 -12 0.20080558631870429 0.033909897404034287 -15 -2.2735805010731909 0.22641949675281539 -12 0.20080558631870429 0.033909897404034287 -12 0.20080558631870429 0.033909897404034287 -15 -0.91506351183037493 1.5849364925866429 -15 -2.2735805010731909 0.22641949675281539 -12 0.95458002071209891 -1.657898275923388 -15 -0.66987297914647026 -2.499999999706382 -12 0.20080558631870429 0.033909897404034287 -12 0.20080558631870429 0.033909897404034287 -15 0.20080558631870429 0.033909897404034287 -12 -0.91506351183037493 1.5849364925866429 -15 0.37580157663508379 2.5408650916807378 -12 0.37580157663508379 2.5408650916807378 -15 -0.91506351183037493 1.5849364925866429 -15 0.37580157663508379 2.5408650916807378 -12 -1.107852388446384 3.1911857209629071 -15 0.37580157663508379 2.5408650916807378 -15 -0.91506351183037493 1.5849364925866429 -12 -0.91506351183037493 1.5849364925866429 -15 0.37580157663508379 2.5408650916807378 -12 -1.107852388446384 3.1911857209629071 -15 0.20080558631870429 0.033909897404034287 -12 0.20080558631870429 0.033909897404034287 -15 -0.91506351183037493 1.5849364925866429 -15 0.37580157663508379 2.5408650916807378 -15 -0.91506351183037493 1.5849364925866429 -12 -0.91506351183037493 1.5849364925866429 -15 -2.2253246846922492 2.366533744740174 -15 -2.2735805010731909 0.22641949675281539 -12 -0.91506351183037493 1.5849364925866429 -15 -2.2253246846922492 2.366533744740174 -15 -2.2735805010731909 0.22641949675281539 -12 -2.2735805010731909 0.22641949675281539 -15 -2.2253246846922492 2.366533744740174 -15 -2.2735805010731909 0.22641949675281539 -12 -2.2735805010731909 0.22641949675281539 -15 -4.3301270221112951 2.4999999944763132 -12 -0.91506351183037493 1.5849364925866429 -12 -0.91506351183037493 1.5849364925866429 -15 -2.2253246846922492 2.366533744740174 -15 -1.107852388446384 3.1911857209629071 -15 -0.91506351183037493 1.5849364925866429 -12 -2.2253246846922492 2.366533744740174 -15 -2.2253246846922492 2.366533744740174 -12 -2.2735805010731909 0.22641949675281539 -12 -2.2253246846922492 2.366533744740174 -15 -2.2253246846922492 2.366533744740174 -12 -2.2735805010731909 0.22641949675281539 -12 -4.3301270221112951 2.4999999944763132 -12 -0.91506351183037493 1.5849364925866429 -12 -2.2253246846922492 2.366533744740174 -15 -2.2253246846922492 2.366533744740174 -12 -1.107852388446384 3.1911857209629071 -12 -2.9547160992544761 -1.820741508163664 -15 -0.66987297914647026 -2.499999999706382 -15 -2.2735805010731909 0.22641949675281539 -12 -2.2735805010731909 0.22641949675281539 -15 0.20080558631870429 0.033909897404034287 -15 -0.91506351183037493 1.5849364925866429 -15 -2.2735805010731909 0.22641949675281539 -12 -2.2735805010731909 0.22641949675281539 -15 -0.66987297914647026 -2.499999999706382 -15 0.20080558631870429 0.033909897404034287 -15 -2.2735805010731909 0.22641949675281539 -12 -2.2735805010731909 0.22641949675281539 -15 -4.3301270160527148 -2.500000004970083 -12 -2.9547160992544761 -1.820741508163664 -15 -5 -1.397247784140632e-08 -15 -5 -1.397247784140632e-08 -12 -2.9547160992544761 -1.820741508163664 -15 -2.2735805010731909 0.22641949675281539 -12 -2.2735805010731909 0.22641949675281539 -15 -5 -1.397247784140632e-08 -12 -2.9547160992544761 -1.820741508163664 -15 -2.2735805010731909 0.22641949675281539 -15 -5 -1.397247784140632e-08 -15 -5 -1.397247784140632e-08 -12 -2.9547160992544761 -1.820741508163664 -15 -2.9547160992544761 -1.820741508163664 -12 -2.2735805010731909 0.22641949675281539 -12 -5 -1.397247784140632e-08 -12 -2.2735805010731909 0.22641949675281539 -12 -2.2735805010731909 0.22641949675281539 -15 -5 -1.397247784140632e-08 -12 -4.3301270221112951 2.4999999944763132 -12 -2.2735805010731909 0.22641949675281539 -15 -5 -1.397247784140632e-08 -15 -5 -1.397247784140632e-08 -12 -4.3301270221112951 2.4999999944763132 -15 -2.2735805010731909 0.22641949675281539 -15 -5 -1.397247784140632e-08 -12 -4.3301270221112951 2.4999999944763132 -12 -4.3301270221112951 2.4999999944763132 -15 -2.2253246846922492 2.366533744740174 -15 -2.2735805010731909 0.22641949675281539 -15 -4.3301270221112951 2.4999999944763132 -12 -4.3301270221112951 2.4999999944763132 -15 -2.2253246846922492 2.366533744740174 -15 -4.3301270221112951 2.4999999944763132 -12 -4.3301270221112951 2.4999999944763132 -15 -2.4999999999999991 4.3301270189221936 -15 -0.91506351183037493 1.5849364925866429 -12 -2.2253246846922492 2.366533744740174 -15 -1.107852388446384 3.1911857209629071 -12 -1.107852388446384 3.1911857209629071 -15 -2.2253246846922492 2.366533744740174 -15 -4.3301270221112951 2.4999999944763132 -12 -2.4999999999999991 4.3301270189221936 -15 -2.4999999999999991 4.3301270189221936 -12 -2.2253246846922492 2.366533744740174 -15 -2.4999999999999991 4.3301270189221936 -15 -2.4999999999999991 4.3301270189221936 -12 -1.107852388446384 3.1911857209629071 -15 -2.2253246846922492 2.366533744740174 -15 -2.4999999999999991 4.3301270189221936 -12 -1.107852388446384 3.1911857209629071 -12 -1.107852388446384 3.1911857209629071 -15 -2.4999999999999991 4.3301270189221936 -15 -2.4999999999999991 4.3301270189221936 -12 -1.107852388446384 3.1911857209629071 -15 -6.2995949836986492e-09 5 -15 -2.2253246846922492 2.366533744740174 -15 -2.2253246846922492 2.366533744740174 -12 -2.4999999999999991 4.3301270189221936 -12 -1.107852388446384 3.1911857209629071 -12 -2.2253246846922492 2.366533744740174 -15 -2.2253246846922492 2.366533744740174 -12 -4.3301270221112951 2.4999999944763132 -12 -2.4999999999999991 4.3301270189221936 -12 -4.3301270221112951 2.4999999944763132 -9 -2.2253246846922492 2.366533744740174 -12 -4.3301270221112951 2.4999999944763132 -12 -2.4999999999999991 4.3301270189221936 -12 -2.4999999999999991 4.3301270189221936 -12 -2.4999999999999991 4.3301270189221936 -9 -6.2995949836986492e-09 5 -12 -1.107852388446384 3.1911857209629071 -12 -0.91506351183037493 1.5849364925866429 -9 -2.2253246846922492 2.366533744740174 -12 -1.107852388446384 3.1911857209629071 -9 -1.107852388446384 3.1911857209629071 -12 -4.3301270221112951 2.4999999944763132 -9 -2.2253246846922492 2.366533744740174 -12 -2.4999999999999991 4.3301270189221936 -12 -2.4999999999999991 4.3301270189221936 -9 -4.3301270221112951 2.4999999944763132 -9 -2.2253246846922492 2.366533744740174 -9 -2.2253246846922492 2.366533744740174 -12 -2.4999999999999991 4.3301270189221936 -9 -2.2253246846922492 2.366533744740174 -9 -2.2253246846922492 2.366533744740174 -12 -2.4999999999999991 4.3301270189221936 -9 -1.107852388446384 3.1911857209629071 -9 -2.2253246846922492 2.366533744740174 -12 -2.4999999999999991 4.3301270189221936 -12 -2.4999999999999991 4.3301270189221936 -9 -1.107852388446384 3.1911857209629071 -12 -2.2253246846922492 2.366533744740174 -12 -2.4999999999999991 4.3301270189221936 -9 -1.107852388446384 3.1911857209629071 -9 -1.107852388446384 3.1911857209629071 -12 -2.4999999999999991 4.3301270189221936 -9 -6.2995949836986492e-09 5 -9 -1.107852388446384 3.1911857209629071 -9 -2.4999999999999991 4.3301270189221936 -6 -2.2253246846922492 2.366533744740174 -9 -2.4999999999999991 4.3301270189221936 -9 -1.107852388446384 3.1911857209629071 -9 -2.4999999999999991 4.3301270189221936 -6 -4.3301270221112951 2.4999999944763132 -9 -2.2253246846922492 2.366533744740174 -9 -2.4999999999999991 4.3301270189221936 -9 -4.3301270221112951 2.4999999944763132 -6 -2.4999999999999991 4.3301270189221936 -9 -6.2995949836986492e-09 5 -9 -6.2995949836986492e-09 5 -12 -1.107852388446384 3.1911857209629071 -12 -6.2995949836986492e-09 5 -9 2.4999999879139869 4.3301270259000564 -9 0.37580157663508379 2.5408650916807378 -9 -6.2995949836986492e-09 5 -6 2.465848112410058 1.4099871989758821 -9 2.4999999879139869 4.3301270259000564 -9 0.37580157663508379 2.5408650916807378 -9 2.4999999879139869 4.3301270259000564 -6 -6.2995949836986492e-09 5 -9 0.37580157663508379 2.5408650916807378 -9 -1.107852388446384 3.1911857209629071 -9 -6.2995949836986492e-09 5 -6 -0.91506351183037493 1.5849364925866429 -9 0.37580157663508379 2.5408650916807378 -9 -1.107852388446384 3.1911857209629071 -9 -1.107852388446384 3.1911857209629071 -12 -6.2995949836986492e-09 5 -9 0.37580157663508379 2.5408650916807378 -9 0.37580157663508379 2.5408650916807378 -12 -1.107852388446384 3.1911857209629071 -12 -6.2995949836986492e-09 5 -9 -6.2995949836986492e-09 5 -12 0.37580157663508379 2.5408650916807378 -12 -1.107852388446384 3.1911857209629071 -12 -2.4999999999999991 4.3301270189221936 -9 -6.2995949836986492e-09 5 -9 -1.107852388446384 3.1911857209629071 -9 -1.107852388446384 3.1911857209629071 -12 -6.2995949836986492e-09 5 -9 0.37580157663508379 2.5408650916807378 -9 -1.107852388446384 3.1911857209629071 -9 -1.107852388446384 3.1911857209629071 -12 2.465848112410058 1.4099871989758821 -12 2.4999999879139869 4.3301270259000564 -9 2.4999999879139869 4.3301270259000564 -12 0.37580157663508379 2.5408650916807378 -12 -6.2995949836986492e-09 5 -9 2.4999999879139869 4.3301270259000564 -9 0.37580157663508379 2.5408650916807378 -9 0.37580157663508379 2.5408650916807378 -12 -6.2995949836986492e-09 5 -9 2.4999999879139869 4.3301270259000564 -12 -6.2995949836986492e-09 5 -12 0.37580157663508379 2.5408650916807378 -12 -6.2995949836986492e-09 5 -9 2.4999999879139869 4.3301270259000564 -9 2.4999999879139869 4.3301270259000564 -12 0.37580157663508379 2.5408650916807378 -12 2.465848112410058 1.4099871989758821 -12 2.4999999879139869 4.3301270259000564 -9 0.37580157663508379 2.5408650916807378 -9 0.37580157663508379 2.5408650916807378 -12 2.4999999879139869 4.3301270259000564 -12 -6.2995949836986492e-09 5 -12 0.37580157663508379 2.5408650916807378 -12 0.37580157663508379 2.5408650916807378 -15 -2.4999999999999991 4.3301270189221936 -12 -6.2995949836986492e-09 5 -12 -1.107852388446384 3.1911857209629071 -12 -1.107852388446384 3.1911857209629071 -15 -0.91506351183037493 1.5849364925866429 -12 0.37580157663508379 2.5408650916807378 -12 -1.107852388446384 3.1911857209629071 -12 -1.107852388446384 3.1911857209629071 -15 -6.2995949836986492e-09 5 -12 0.37580157663508379 2.5408650916807378 -12 -1.107852388446384 3.1911857209629071 -12 -1.107852388446384 3.1911857209629071 -15 -6.2995949836986492e-09 5 -12 0.37580157663508379 2.5408650916807378 -12 -1.107852388446384 3.1911857209629071 -15 0.37580157663508379 2.5408650916807378 -15 -6.2995949836986492e-09 5 -12 -1.107852388446384 3.1911857209629071 -15 0.37580157663508379 2.5408650916807378 -15 -6.2995949836986492e-09 5 -15 -2.4999999999999991 4.3301270189221936 -12 -6.2995949836986492e-09 5 -12 -1.107852388446384 3.1911857209629071 -15 -6.2995949836986492e-09 5 -15 2.4999999879139869 4.3301270259000564 -12 -6.2995949836986492e-09 5 -12 0.37580157663508379 2.5408650916807378 -15 2.4999999879139869 4.3301270259000564 -15 2.465848112410058 1.4099871989758821 -15 2.4999999879139869 4.3301270259000564 -12 0.37580157663508379 2.5408650916807378 -12 0.37580157663508379 2.5408650916807378 -15 2.465848112410058 1.4099871989758821 -15 2.4999999879139869 4.3301270259000564 -12 0.37580157663508379 2.5408650916807378 -15 2.4999999879139869 4.3301270259000564 -15 -6.2995949836986492e-09 5 -12 0.37580157663508379 2.5408650916807378 -15 -6.2995949836986492e-09 5 -15 2.4999999879139869 4.3301270259000564 -15 2.465848112410058 1.4099871989758821 -15 2.4999999879139869 4.3301270259000564 -12 4.3301270155636349 2.5000000058171929 -15 4.3301270155636349 2.5000000058171929 -12 2.465848112410058 1.4099871989758821 -15 2.4999999879139869 4.3301270259000564 -12 2.4999999879139869 4.3301270259000564 -15 4.3301270155636349 2.5000000058171929 -15 2.465848112410058 1.4099871989758821 -12 2.4999999879139869 4.3301270259000564 -9 4.3301270155636349 2.5000000058171929 -12 4.3301270155636349 2.5000000058171929 -9 2.465848112410058 1.4099871989758821 -12 2.4999999879139869 4.3301270259000564 -9 2.4999999879139869 4.3301270259000564 -12 4.3301270155636349 2.5000000058171929 -12 2.465848112410058 1.4099871989758821 -9 2.4999999879139869 4.3301270259000564 -9 4.3301270155636349 2.5000000058171929 -9 2.4999999879139869 4.3301270259000564 -6 2.217625015551433 -2.5696135239339939 -15 2.500000010727558 -4.3301270127286351 -15 2.500000010727558 -4.3301270127286351 -12 4.3301270218486989 -2.4999999949311431 -12 2.217625015551433 -2.5696135239339939 -15 2.217625015551433 -2.5696135239339939 -12 2.500000010727558 -4.3301270127286351 -12 4.3301270218486989 -2.4999999949311431 -12 2.217625015551433 -2.5696135239339939 -15 2.217625015551433 -2.5696135239339939 -12 2.3883545080289421 -0.94497882694672608 -12 4.3301270218486989 -2.4999999949311431 -12 2.217625015551433 -2.5696135239339939 -15 2.500000010727558 -4.3301270127286351 -15 4.3301270218486989 -2.4999999949311431 -12 4.3301270218486989 -2.4999999949311431 -15 2.217625015551433 -2.5696135239339939 -15 2.3883545080289421 -0.94497882694672608 -12 2.3883545080289421 -0.94497882694672608 -15 4.3301270218486989 -2.4999999949311431 -12 2.217625015551433 -2.5696135239339939 -15 2.3883545080289421 -0.94497882694672608 -15 4.3301270218486989 -2.4999999949311431 -12 4.3301270218486989 -2.4999999949311431 -15 2.3883545080289421 -0.94497882694672608 -15 4.3301270218486989 -2.4999999949311431 -12 4.3301270218486989 -2.4999999949311431 -15 5 0 -12 2.3883545080289421 -0.94497882694672608 -15 4.3301270218486989 -2.4999999949311431 -15 5 0 -15 5 0 -12 2.465848112410058 1.4099871989758821 -15 2.3883545080289421 -0.94497882694672608 -15 5 0 -15 5 0 -12 2.3883545080289421 -0.94497882694672608 -12 2.465848112410058 1.4099871989758821 -15 2.3883545080289421 -0.94497882694672608 -15 5 0 -12 2.465848112410058 1.4099871989758821 -15 4.3301270155636349 2.5000000058171929 -15 4.3301270155636349 2.5000000058171929 -12 5 0 -15 2.465848112410058 1.4099871989758821 -15 4.3301270155636349 2.5000000058171929 -12 5 0 -15 5 0 -12 2.465848112410058 1.4099871989758821 -12 2.465848112410058 1.4099871989758821 -15 2.4999999879139869 4.3301270259000564 -12 4.3301270155636349 2.5000000058171929 -12 2.465848112410058 1.4099871989758821 -12 2.465848112410058 1.4099871989758821 -15 4.3301270155636349 2.5000000058171929 -12 5 0 -12 2.3883545080289421 -0.94497882694672608 -12 2.3883545080289421 -0.94497882694672608 -15 4.3301270218486989 -2.4999999949311431 -12 5 0 -12 2.3883545080289421 -0.94497882694672608 -12 2.465848112410058 1.4099871989758821 -12 2.465848112410058 1.4099871989758821 -15 5 0 -12 2.3883545080289421 -0.94497882694672608 -9 2.3883545080289421 -0.94497882694672608 -12 5 0 -9 4.3301270218486989 -2.4999999949311431 -9 2.3883545080289421 -0.94497882694672608 -12 4.3301270218486989 -2.4999999949311431 -12 5 0 -12 5 0 -9 2.3883545080289421 -0.94497882694672608 -9 2.3883545080289421 -0.94497882694672608 -12 2.465848112410058 1.4099871989758821 -12 5 0 -9 2.3883545080289421 -0.94497882694672608 -9 2.465848112410058 1.4099871989758821 -9 2.465848112410058 1.4099871989758821 -12 5 0 -9 2.3883545080289421 -0.94497882694672608 -12 2.465848112410058 1.4099871989758821 -12 5 0 -12 5 0 -9 2.465848112410058 1.4099871989758821 -9 2.465848112410058 1.4099871989758821 -12 2.4999999879139869 4.3301270259000564 -9 4.3301270155636349 2.5000000058171929 -9 2.465848112410058 1.4099871989758821 -12 4.3301270155636349 2.5000000058171929 -9 5 0 -12 5 0 -9 2.465848112410058 1.4099871989758821 -12 4.3301270155636349 2.5000000058171929 -12 4.3301270155636349 2.5000000058171929 -9 5 0 -12 2.465848112410058 1.4099871989758821 -9 2.465848112410058 1.4099871989758821 -12 4.3301270155636349 2.5000000058171929 -9 5 0 -9 2.465848112410058 1.4099871989758821 -9 4.3301270155636349 2.5000000058171929 -9 5 0 -9 4.3301270155636349 2.5000000058171929 -6 2.3883545080289421 -0.94497882694672608 -9 5 0 -9 4.3301270218486989 -2.4999999949311431 -9 5 0 -6 2.3883545080289421 -0.94497882694672608 -9 2.465848112410058 1.4099871989758821 -9 5 0 -9 5 0 -6 2.217625015551433 -2.5696135239339939 -9 2.3883545080289421 -0.94497882694672608 -9 4.3301270218486989 -2.4999999949311431 -9 4.3301270218486989 -2.4999999949311431 -6 2.217625015551433 -2.5696135239339939 -9 4.3301270218486989 -2.4999999949311431 -9 2.500000010727558 -4.3301270127286351 -9 4.3301270218486989 -2.4999999949311431 -6 2.217625015551433 -2.5696135239339939 -12 2.3883545080289421 -0.94497882694672608 -12 4.3301270218486989 -2.4999999949311431 -12 4.3301270218486989 -2.4999999949311431 -9 2.217625015551433 -2.5696135239339939 -12 2.217625015551433 -2.5696135239339939 -9 2.3883545080289421 -0.94497882694672608 -9 4.3301270218486989 -2.4999999949311431 -9 2.3883545080289421 -0.94497882694672608 -12 4.3301270218486989 -2.4999999949311431 -12 5 0 -9 4.3301270218486989 -2.4999999949311431 -9 2.217625015551433 -2.5696135239339939 -12 2.3883545080289421 -0.94497882694672608 -9 2.3883545080289421 -0.94497882694672608 -12 4.3301270218486989 -2.4999999949311431 -9 2.217625015551433 -2.5696135239339939 -12 2.217625015551433 -2.5696135239339939 -9 4.3301270218486989 -2.4999999949311431 -9 2.500000010727558 -4.3301270127286351 -9 2.217625015551433 -2.5696135239339939 -12 2.500000010727558 -4.3301270127286351 -12 4.3301270218486989 -2.4999999949311431 -12 4.3301270218486989 -2.4999999949311431 -9 2.217625015551433 -2.5696135239339939 -12 2.500000010727558 -4.3301270127286351 -12 4.3301270218486989 -2.4999999949311431 -9 2.500000010727558 -4.3301270127286351 -9 2.217625015551433 -2.5696135239339939 -9 2.500000010727558 -4.3301270127286351 -9 2.500000010727558 -4.3301270127286351 -6 4.3301270218486989 -2.4999999949311431 -6 2.500000010727558 -4.3301270127286351 -6 4.3301270218486989 -2.4999999949311431 -3 2.500000010727558 -4.3301270127286351 -3 2.217625015551433 -2.5696135239339939 -6 4.3301270218486989 -2.4999999949311431 -3 2.3883545080289421 -0.94497882694672608 -3 2.3883545080289421 -0.94497882694672608 -6 2.217625015551433 -2.5696135239339939 -6 4.3301270218486989 -2.4999999949311431 -6 4.3301270218486989 -2.4999999949311431 -3 2.3883545080289421 -0.94497882694672608 -6 2.217625015551433 -2.5696135239339939 -6 4.3301270218486989 -2.4999999949311431 -6 5 0 -3 4.3301270218486989 -2.4999999949311431 -3 2.3883545080289421 -0.94497882694672608 -6 2.500000010727558 -4.3301270127286351 -6 4.3301270218486989 -2.4999999949311431 -6 4.3301270218486989 -2.4999999949311431 -3 2.217625015551433 -2.5696135239339939 -6 2.217625015551433 -2.5696135239339939 -9 2.500000010727558 -4.3301270127286351 -6 4.3301270218486989 -2.4999999949311431 -6 2.217625015551433 -2.5696135239339939 -6 2.217625015551433 -2.5696135239339939 -9 4.3301270218486989 -2.4999999949311431 -6 2.3883545080289421 -0.94497882694672608 -6 2.217625015551433 -2.5696135239339939 -6 2.3883545080289421 -0.94497882694672608 -9 4.3301270218486989 -2.4999999949311431 -9 4.3301270218486989 -2.4999999949311431 -6 5 0 -6 2.217625015551433 -2.5696135239339939 -9 2.3883545080289421 -0.94497882694672608 -9 4.3301270218486989 -2.4999999949311431 -6 2.3883545080289421 -0.94497882694672608 -6 2.3883545080289421 -0.94497882694672608 -9 2.465848112410058 1.4099871989758821 -9 5 0 -6 2.3883545080289421 -0.94497882694672608 -6 2.3883545080289421 -0.94497882694672608 -9 4.3301270218486989 -2.4999999949311431 -6 5 0 -6 2.3883545080289421 -0.94497882694672608 -6 2.465848112410058 1.4099871989758821 -9 5 0 -6 2.465848112410058 1.4099871989758821 -6 2.3883545080289421 -0.94497882694672608 -6 2.465848112410058 1.4099871989758821 -9 5 0 -9 5 0 -6 4.3301270155636349 2.5000000058171929 -6 2.465848112410058 1.4099871989758821 -9 5 0 -6 4.3301270155636349 2.5000000058171929 -6 2.465848112410058 1.4099871989758821 -6 2.465848112410058 1.4099871989758821 -9 4.3301270155636349 2.5000000058171929 -6 2.4999999879139869 4.3301270259000564 -6 2.465848112410058 1.4099871989758821 -6 5 0 -6 5 0 -3 4.3301270155636349 2.5000000058171929 -3 2.465848112410058 1.4099871989758821 -6 5 0 -6 4.3301270155636349 2.5000000058171929 -6 4.3301270155636349 2.5000000058171929 -3 2.465848112410058 1.4099871989758821 -6 5 0 -6 5 0 -3 2.465848112410058 1.4099871989758821 -6 2.3883545080289421 -0.94497882694672608 -6 5 0 -3 2.3883545080289421 -0.94497882694672608 -3 2.465848112410058 1.4099871989758821 -6 2.3883545080289421 -0.94497882694672608 -6 4.3301270218486989 -2.4999999949311431 -6 5 0 -6 5 0 -3 2.3883545080289421 -0.94497882694672608 -6 5 0 -3 2.465848112410058 1.4099871989758821 -3 2.3883545080289421 -0.94497882694672608 -3 2.465848112410058 1.4099871989758821 -6 5 0 -3 5 0 0 2.465848112410058 1.4099871989758821 -3 2.3883545080289421 -0.94497882694672608 -3 5 0 -3 5 0 0 4.3301270218486989 -2.4999999949311431 -3 2.3883545080289421 -0.94497882694672608 -3 5 0 -3 4.3301270218486989 -2.4999999949311431 -3 2.3883545080289421 -0.94497882694672608 -3 2.3883545080289421 -0.94497882694672608 -6 5 0 -3 4.3301270155636349 2.5000000058171929 -3 4.3301270155636349 2.5000000058171929 0 2.465848112410058 1.4099871989758821 -3 5 0 -3 4.3301270155636349 2.5000000058171929 -3 2.465848112410058 1.4099871989758821 -3 2.465848112410058 1.4099871989758821 -6 4.3301270155636349 2.5000000058171929 -3 2.4999999879139869 4.3301270259000564 -3 2.465848112410058 1.4099871989758821 -3 2.465848112410058 1.4099871989758821 -6 4.3301270155636349 2.5000000058171929 0 2.4999999879139869 4.3301270259000564 0 2.465848112410058 1.4099871989758821 0 2.465848112410058 1.4099871989758821 -3 5 0 -3 5 0 0 4.3301270155636349 2.5000000058171929 0 2.465848112410058 1.4099871989758821 -3 5 0 0 4.3301270155636349 2.5000000058171929 0 2.465848112410058 1.4099871989758821 0 2.465848112410058 1.4099871989758821 -3 5 0 0 4.3301270218486989 -2.4999999949311431 0 2.3883545080289421 -0.94497882694672608 0 2.3883545080289421 -0.94497882694672608 -3 5 0 0 2.3883545080289421 -0.94497882694672608 0 2.465848112410058 1.4099871989758821 0 2.465848112410058 1.4099871989758821 -3 5 0 0 2.3883545080289421 -0.94497882694672608 0 2.465848112410058 1.4099871989758821 -3 2.3883545080289421 -0.94497882694672608 -3 4.3301270218486989 -2.4999999949311431 0 2.500000010727558 -4.3301270127286351 0 2.217625015551433 -2.5696135239339939 -3 2.217625015551433 -2.5696135239339939 0 4.3301270218486989 -2.4999999949311431 0 2.3883545080289421 -0.94497882694672608 0 2.217625015551433 -2.5696135239339939 -3 2.217625015551433 -2.5696135239339939 0 4.3301270218486989 -2.4999999949311431 0 2.3883545080289421 -0.94497882694672608 0 2.3883545080289421 -0.94497882694672608 -3 2.217625015551433 -2.5696135239339939 -3 5 0 0 4.3301270218486989 -2.4999999949311431 0 4.3301270218486989 -2.4999999949311431 -3 2.3883545080289421 -0.94497882694672608 -3 4.3301270218486989 -2.4999999949311431 -3 2.500000010727558 -4.3301270127286351 -3 2.217625015551433 -2.5696135239339939 -6 2.217625015551433 -2.5696135239339939 -3 4.3301270218486989 -2.4999999949311431 0 4.3301270218486989 -2.4999999949311431 -3 2.3883545080289421 -0.94497882694672608 -3 2.217625015551433 -2.5696135239339939 -3 4.3301270218486989 -2.4999999949311431 -3 2.3883545080289421 -0.94497882694672608 -3 2.217625015551433 -2.5696135239339939 -6 2.217625015551433 -2.5696135239339939 -3 4.3301270218486989 -2.4999999949311431 0 4.3301270218486989 -2.4999999949311431 -3 2.500000010727558 -4.3301270127286351 -3 2.217625015551433 -2.5696135239339939 -3 4.3301270218486989 -2.4999999949311431 0 2.500000010727558 -4.3301270127286351 -3 2.500000010727558 -4.3301270127286351 0 2.217625015551433 -2.5696135239339939 -3 2.465848112410058 1.4099871989758821 -9 4.3301270155636349 2.5000000058171929 -9 4.3301270155636349 2.5000000058171929 -6 2.4999999879139869 4.3301270259000564 -6 4.3301270155636349 2.5000000058171929 -6 2.4999999879139869 4.3301270259000564 -3 2.4999999879139869 4.3301270259000564 -6 2.465848112410058 1.4099871989758821 -6 4.3301270155636349 2.5000000058171929 -6 4.3301270155636349 2.5000000058171929 -3 2.4999999879139869 4.3301270259000564 -3 2.465848112410058 1.4099871989758821 -6 4.3301270155636349 2.5000000058171929 -3 2.4999999879139869 4.3301270259000564 0 2.4999999879139869 4.3301270259000564 -3 2.465848112410058 1.4099871989758821 -3 4.3301270155636349 2.5000000058171929 -3 4.3301270155636349 2.5000000058171929 0 2.4999999879139869 4.3301270259000564 0 2.465848112410058 1.4099871989758821 -3 2.4999999879139869 4.3301270259000564 0 -6.2995949836986492e-09 5 0 0.37580157663508379 2.5408650916807378 0 0.37580157663508379 2.5408650916807378 -3 2.4999999879139869 4.3301270259000564 0 0.37580157663508379 2.5408650916807378 0 0.37580157663508379 2.5408650916807378 -3 2.465848112410058 1.4099871989758821 -3 2.4999999879139869 4.3301270259000564 0 -6.2995949836986492e-09 5 0 0.37580157663508379 2.5408650916807378 -3 2.4999999879139869 4.3301270259000564 -3 -6.2995949836986492e-09 5 0 -1.107852388446384 3.1911857209629071 -3 -6.2995949836986492e-09 5 -3 -2.4999999999999991 4.3301270189221936 0 -6.2995949836986492e-09 5 0 -1.107852388446384 3.1911857209629071 0 0.37580157663508379 2.5408650916807378 0 -1.107852388446384 3.1911857209629071 -3 -6.2995949836986492e-09 5 0 -1.107852388446384 3.1911857209629071 0 -1.107852388446384 3.1911857209629071 -3 -2.4999999999999991 4.3301270189221936 0 -6.2995949836986492e-09 5 0 0.37580157663508379 2.5408650916807378 0 -1.107852388446384 3.1911857209629071 -3 0.37580157663508379 2.5408650916807378 -3 -1.107852388446384 3.1911857209629071 0 0.37580157663508379 2.5408650916807378 0 -1.107852388446384 3.1911857209629071 -3 -0.91506351183037493 1.5849364925866429 0 -6.2995949836986492e-09 5 0 -1.107852388446384 3.1911857209629071 -3 0.37580157663508379 2.5408650916807378 -3 -6.2995949836986492e-09 5 -3 -6.2995949836986492e-09 5 0 0.37580157663508379 2.5408650916807378 -3 -6.2995949836986492e-09 5 -3 2.4999999879139869 4.3301270259000564 -3 2.4999999879139869 4.3301270259000564 0 0.37580157663508379 2.5408650916807378 -3 2.4999999879139869 4.3301270259000564 -3 2.465848112410058 1.4099871989758821 -3 0.37580157663508379 2.5408650916807378 -3 2.4999999879139869 4.3301270259000564 -3 0.37580157663508379 2.5408650916807378 -6 2.465848112410058 1.4099871989758821 -6 2.4999999879139869 4.3301270259000564 -3 0.37580157663508379 2.5408650916807378 -6 2.4999999879139869 4.3301270259000564 -6 2.465848112410058 1.4099871989758821 -6 -6.2995949836986492e-09 5 -3 2.4999999879139869 4.3301270259000564 -3 0.37580157663508379 2.5408650916807378 -6 2.4999999879139869 4.3301270259000564 -6 -6.2995949836986492e-09 5 -3 0.37580157663508379 2.5408650916807378 -6 2.4999999879139869 4.3301270259000564 -6 -6.2995949836986492e-09 5 -6 0.37580157663508379 2.5408650916807378 -3 -6.2995949836986492e-09 5 -3 2.4999999879139869 4.3301270259000564 -3 0.37580157663508379 2.5408650916807378 -6 -1.107852388446384 3.1911857209629071 -3 0.37580157663508379 2.5408650916807378 -3 -1.107852388446384 3.1911857209629071 -6 -0.91506351183037493 1.5849364925866429 -3 -1.107852388446384 3.1911857209629071 -3 0.37580157663508379 2.5408650916807378 -3 -6.2995949836986492e-09 5 -3 -1.107852388446384 3.1911857209629071 -6 -6.2995949836986492e-09 5 -3 -1.107852388446384 3.1911857209629071 -6 0.37580157663508379 2.5408650916807378 -6 -6.2995949836986492e-09 5 -6 0.37580157663508379 2.5408650916807378 -3 -6.2995949836986492e-09 5 -3 -1.107852388446384 3.1911857209629071 -6 0.37580157663508379 2.5408650916807378 -6 -1.107852388446384 3.1911857209629071 -3 -6.2995949836986492e-09 5 -3 -1.107852388446384 3.1911857209629071 -6 -2.4999999999999991 4.3301270189221936 -3 -1.107852388446384 3.1911857209629071 -9 -1.107852388446384 3.1911857209629071 -6 0.37580157663508379 2.5408650916807378 -6 -6.2995949836986492e-09 5 -6 -1.107852388446384 3.1911857209629071 -9 -1.107852388446384 3.1911857209629071 -6 -6.2995949836986492e-09 5 -6 -2.4999999999999991 4.3301270189221936 -6 0.37580157663508379 2.5408650916807378 -9 -1.107852388446384 3.1911857209629071 -9 0.37580157663508379 2.5408650916807378 -6 -6.2995949836986492e-09 5 -6 -1.107852388446384 3.1911857209629071 -9 -1.107852388446384 3.1911857209629071 -6 0.37580157663508379 2.5408650916807378 -6 -0.91506351183037493 1.5849364925866429 -6 2.4999999879139869 4.3301270259000564 -9 0.37580157663508379 2.5408650916807378 -9 2.4999999879139869 4.3301270259000564 -6 -6.2995949836986492e-09 5 -6 0.37580157663508379 2.5408650916807378 -9 0.37580157663508379 2.5408650916807378 -6 2.4999999879139869 4.3301270259000564 -6 -6.2995949836986492e-09 5 -6 2.465848112410058 1.4099871989758821 -9 0.37580157663508379 2.5408650916807378 -9 0.37580157663508379 2.5408650916807378 -6 2.4999999879139869 4.3301270259000564 -6 -6.2995949836986492e-09 5 -9 -1.107852388446384 3.1911857209629071 -9 -6.2995949836986492e-09 5 -6 -2.4999999999999991 4.3301270189221936 -6 -6.2995949836986492e-09 5 -3 -1.107852388446384 3.1911857209629071 -6 -6.2995949836986492e-09 5 -6 -2.4999999999999991 4.3301270189221936 -3 -2.2253246846922492 2.366533744740174 -9 -1.107852388446384 3.1911857209629071 -6 -2.4999999999999991 4.3301270189221936 -6 -2.2253246846922492 2.366533744740174 -6 -2.2253246846922492 2.366533744740174 -9 -1.107852388446384 3.1911857209629071 -9 -1.107852388446384 3.1911857209629071 -6 -0.91506351183037493 1.5849364925866429 -6 -2.2253246846922492 2.366533744740174 -9 -1.107852388446384 3.1911857209629071 -9 -1.107852388446384 3.1911857209629071 -6 -2.4999999999999991 4.3301270189221936 -6 -2.2253246846922492 2.366533744740174 -9 -2.4999999999999991 4.3301270189221936 -9 -2.4999999999999991 4.3301270189221936 -6 -4.3301270221112951 2.4999999944763132 -6 -2.2253246846922492 2.366533744740174 -9 -2.4999999999999991 4.3301270189221936 -6 -2.2253246846922492 2.366533744740174 -6 -4.3301270221112951 2.4999999944763132 -6 -1.107852388446384 3.1911857209629071 -3 -1.107852388446384 3.1911857209629071 -6 -0.91506351183037493 1.5849364925866429 -3 -2.2253246846922492 2.366533744740174 -6 -1.107852388446384 3.1911857209629071 -6 -2.4999999999999991 4.3301270189221936 -6 -2.4999999999999991 4.3301270189221936 -3 -2.2253246846922492 2.366533744740174 -6 -1.107852388446384 3.1911857209629071 -6 -6.2995949836986492e-09 5 -6 -2.4999999999999991 4.3301270189221936 -6 -2.4999999999999991 4.3301270189221936 -3 -1.107852388446384 3.1911857209629071 -3 -2.4999999999999991 4.3301270189221936 -3 -2.2253246846922492 2.366533744740174 -3 -2.2253246846922492 2.366533744740174 -6 -1.107852388446384 3.1911857209629071 -3 -1.107852388446384 3.1911857209629071 -6 -2.4999999999999991 4.3301270189221936 -3 -2.2253246846922492 2.366533744740174 -6 -2.4999999999999991 4.3301270189221936 -6 -2.4999999999999991 4.3301270189221936 -3 -4.3301270221112951 2.4999999944763132 -3 -2.2253246846922492 2.366533744740174 -6 -2.4999999999999991 4.3301270189221936 -3 -4.3301270221112951 2.4999999944763132 -3 -2.2253246846922492 2.366533744740174 -3 -2.2253246846922492 2.366533744740174 -6 -2.4999999999999991 4.3301270189221936 -6 -4.3301270221112951 2.4999999944763132 -3 -2.2253246846922492 2.366533744740174 -6 -4.3301270221112951 2.4999999944763132 -6 -2.4999999999999991 4.3301270189221936 -3 -4.3301270221112951 2.4999999944763132 0 -4.3301270221112951 2.4999999944763132 -3 -2.2253246846922492 2.366533744740174 -3 -1.107852388446384 3.1911857209629071 -3 -2.4999999999999991 4.3301270189221936 -3 -2.4999999999999991 4.3301270189221936 0 -2.2253246846922492 2.366533744740174 -3 -1.107852388446384 3.1911857209629071 -3 -6.2995949836986492e-09 5 -3 -2.4999999999999991 4.3301270189221936 -3 -2.4999999999999991 4.3301270189221936 0 -2.4999999999999991 4.3301270189221936 0 -4.3301270221112951 2.4999999944763132 0 -2.2253246846922492 2.366533744740174 -3 -2.2253246846922492 2.366533744740174 0 -1.107852388446384 3.1911857209629071 0 -1.107852388446384 3.1911857209629071 -3 -2.2253246846922492 2.366533744740174 -3 -0.91506351183037493 1.5849364925866429 0 -2.4999999999999991 4.3301270189221936 -3 -2.4999999999999991 4.3301270189221936 0 -4.3301270221112951 2.4999999944763132 0 -2.2253246846922492 2.366533744740174 -3 -1.107852388446384 3.1911857209629071 0 -1.107852388446384 3.1911857209629071 -3 -2.4999999999999991 4.3301270189221936 0 -2.2253246846922492 2.366533744740174 -3 -1.107852388446384 3.1911857209629071 0 -2.4999999999999991 4.3301270189221936 0 -2.2253246846922492 2.366533744740174 -3 -2.2253246846922492 2.366533744740174 0 -4.3301270221112951 2.4999999944763132 0 -5 -1.397247784140632e-08 0 -2.2735805010731909 0.22641949675281539 0 -2.2735805010731909 0.22641949675281539 -3 -4.3301270221112951 2.4999999944763132 0 -4.3301270221112951 2.4999999944763132 -3 -5 -1.397247784140632e-08 0 -2.2735805010731909 0.22641949675281539 -3 -4.3301270221112951 2.4999999944763132 0 -4.3301270221112951 2.4999999944763132 -3 -2.2735805010731909 0.22641949675281539 -3 -2.2253246846922492 2.366533744740174 -3 -4.3301270221112951 2.4999999944763132 -3 -5 -1.397247784140632e-08 -3 -5 -1.397247784140632e-08 0 -2.2735805010731909 0.22641949675281539 -3 -5 -1.397247784140632e-08 -3 -5 -1.397247784140632e-08 0 -2.2735805010731909 0.22641949675281539 -3 -2.9547160992544761 -1.820741508163664 -3 -5 -1.397247784140632e-08 -3 -5 -1.397247784140632e-08 0 -2.9547160992544761 -1.820741508163664 -3 -4.3301270160527148 -2.500000004970083 0 -5 -1.397247784140632e-08 0 -2.2735805010731909 0.22641949675281539 0 -2.2735805010731909 0.22641949675281539 -3 -2.9547160992544761 -1.820741508163664 -3 -5 -1.397247784140632e-08 0 -2.2735805010731909 0.22641949675281539 0 -2.9547160992544761 -1.820741508163664 -3 -2.9547160992544761 -1.820741508163664 0 -2.2735805010731909 0.22641949675281539 0 -2.2735805010731909 0.22641949675281539 -3 -0.66987297914647026 -2.499999999706382 -3 -2.9547160992544761 -1.820741508163664 -3 -2.2735805010731909 0.22641949675281539 0 -2.2735805010731909 0.22641949675281539 -3 0.20080558631870429 0.033909897404034287 -3 -0.66987297914647026 -2.499999999706382 -3 -2.2735805010731909 0.22641949675281539 0 -2.2735805010731909 0.22641949675281539 -3 0.20080558631870429 0.033909897404034287 -3 -0.91506351183037493 1.5849364925866429 -3 -2.2735805010731909 0.22641949675281539 0 -2.2735805010731909 0.22641949675281539 -3 -2.2253246846922492 2.366533744740174 -3 -0.91506351183037493 1.5849364925866429 -3 -1.107852388446384 3.1911857209629071 -3 -2.2253246846922492 2.366533744740174 -3 -0.91506351183037493 1.5849364925866429 0 -0.91506351183037493 1.5849364925866429 -3 -2.2735805010731909 0.22641949675281539 0 -2.2253246846922492 2.366533744740174 -3 -0.91506351183037493 1.5849364925866429 0 -0.91506351183037493 1.5849364925866429 -3 -1.107852388446384 3.1911857209629071 0 -2.2253246846922492 2.366533744740174 -3 -2.2253246846922492 2.366533744740174 0 -0.91506351183037493 1.5849364925866429 0 -4.3301270221112951 2.4999999944763132 0 -2.2735805010731909 0.22641949675281539 0 -2.2735805010731909 0.22641949675281539 -3 -2.2253246846922492 2.366533744740174 -3 -2.2735805010731909 0.22641949675281539 0 -2.2253246846922492 2.366533744740174 -3 -2.2253246846922492 2.366533744740174 0 -0.91506351183037493 1.5849364925866429 0 -4.3301270221112951 2.4999999944763132 0 -2.2735805010731909 0.22641949675281539 0 -2.2253246846922492 2.366533744740174 -3 -2.2253246846922492 2.366533744740174 0 0.37580157663508379 2.5408650916807378 0 -1.107852388446384 3.1911857209629071 -3 -0.91506351183037493 1.5849364925866429 0 -0.91506351183037493 1.5849364925866429 -3 0.37580157663508379 2.5408650916807378 0 -0.91506351183037493 1.5849364925866429 0 0.20080558631870429 0.033909897404034287 0 -0.91506351183037493 1.5849364925866429 -3 -2.2735805010731909 0.22641949675281539 0 -0.91506351183037493 1.5849364925866429 0 0.20080558631870429 0.033909897404034287 0 -0.91506351183037493 1.5849364925866429 -3 0.37580157663508379 2.5408650916807378 0 0.37580157663508379 2.5408650916807378 -3 0.20080558631870429 0.033909897404034287 0 -0.91506351183037493 1.5849364925866429 -3 -2.2735805010731909 0.22641949675281539 0 0.20080558631870429 0.033909897404034287 0 0.20080558631870429 0.033909897404034287 -3 -0.66987297914647026 -2.499999999706382 0 -2.2735805010731909 0.22641949675281539 0 0.20080558631870429 0.033909897404034287 0 0.20080558631870429 0.033909897404034287 -3 -0.91506351183037493 1.5849364925866429 -3 0.20080558631870429 0.033909897404034287 0 0.20080558631870429 0.033909897404034287 -3 0.95458002071209891 -1.657898275923388 -3 -0.66987297914647026 -2.499999999706382 0 -2.2735805010731909 0.22641949675281539 0 0.20080558631870429 0.033909897404034287 -3 -0.66987297914647026 -2.499999999706382 -3 -0.66987297914647026 -2.499999999706382 0 0.20080558631870429 0.033909897404034287 0 2.3883545080289421 -0.94497882694672608 0 0.95458002071209891 -1.657898275923388 -3 0.95458002071209891 -1.657898275923388 0 0.20080558631870429 0.033909897404034287 0 2.3883545080289421 -0.94497882694672608 0 0.20080558631870429 0.033909897404034287 -3 0.95458002071209891 -1.657898275923388 -3 0.20080558631870429 0.033909897404034287 0 2.3883545080289421 -0.94497882694672608 0 2.465848112410058 1.4099871989758821 -3 0.20080558631870429 0.033909897404034287 -3 0.20080558631870429 0.033909897404034287 0 2.3883545080289421 -0.94497882694672608 0 2.465848112410058 1.4099871989758821 0 2.465848112410058 1.4099871989758821 -3 2.4999999879139869 4.3301270259000564 0 0.37580157663508379 2.5408650916807378 0 2.465848112410058 1.4099871989758821 0 2.465848112410058 1.4099871989758821 -3 0.37580157663508379 2.5408650916807378 0 0.37580157663508379 2.5408650916807378 -3 0.20080558631870429 0.033909897404034287 0 2.465848112410058 1.4099871989758821 -3 0.37580157663508379 2.5408650916807378 0 0.20080558631870429 0.033909897404034287 0 2.465848112410058 1.4099871989758821 0 2.465848112410058 1.4099871989758821 -3 0.37580157663508379 2.5408650916807378 -3 0.20080558631870429 0.033909897404034287 0 2.465848112410058 1.4099871989758821 -3 0.20080558631870429 0.033909897404034287 -3 2.3883545080289421 -0.94497882694672608 0 2.465848112410058 1.4099871989758821 -3 2.3883545080289421 -0.94497882694672608 -3 0.20080558631870429 0.033909897404034287 -3 2.3883545080289421 -0.94497882694672608 0 2.3883545080289421 -0.94497882694672608 -3 0.20080558631870429 0.033909897404034287 -3 0.95458002071209891 -1.657898275923388 -3 0.37580157663508379 2.5408650916807378 0 -1.107852388446384 3.1911857209629071 -3 0.37580157663508379 2.5408650916807378 -3 -0.91506351183037493 1.5849364925866429 -3 0.37580157663508379 2.5408650916807378 -3 0.20080558631870429 0.033909897404034287 0 0.20080558631870429 0.033909897404034287 -3 -0.91506351183037493 1.5849364925866429 -3 0.37580157663508379 2.5408650916807378 -3 0.37580157663508379 2.5408650916807378 -6 0.20080558631870429 0.033909897404034287 -3 -0.91506351183037493 1.5849364925866429 -6 0.37580157663508379 2.5408650916807378 -6 0.20080558631870429 0.033909897404034287 -3 0.20080558631870429 0.033909897404034287 -6 -0.91506351183037493 1.5849364925866429 -6 0.37580157663508379 2.5408650916807378 -3 -1.107852388446384 3.1911857209629071 -6 0.37580157663508379 2.5408650916807378 -6 -0.91506351183037493 1.5849364925866429 -6 -2.2735805010731909 0.22641949675281539 -3 0.20080558631870429 0.033909897404034287 -3 -0.91506351183037493 1.5849364925866429 -3 -0.91506351183037493 1.5849364925866429 -6 0.37580157663508379 2.5408650916807378 -3 -1.107852388446384 3.1911857209629071 -6 -0.91506351183037493 1.5849364925866429 -3 -0.91506351183037493 1.5849364925866429 -6 0.37580157663508379 2.5408650916807378 -3 0.20080558631870429 0.033909897404034287 -3 -0.91506351183037493 1.5849364925866429 -3 -0.91506351183037493 1.5849364925866429 -6 0.20080558631870429 0.033909897404034287 -3 0.20080558631870429 0.033909897404034287 -6 0.95458002071209891 -1.657898275923388 -6 -0.66987297914647026 -2.499999999706382 -3 -2.2735805010731909 0.22641949675281539 -3 0.20080558631870429 0.033909897404034287 -6 -0.66987297914647026 -2.499999999706382 -6 -0.66987297914647026 -2.499999999706382 -3 -2.2735805010731909 0.22641949675281539 -3 0.20080558631870429 0.033909897404034287 -3 0.20080558631870429 0.033909897404034287 -6 -0.66987297914647026 -2.499999999706382 -3 -2.2735805010731909 0.22641949675281539 -3 0.20080558631870429 0.033909897404034287 -3 0.20080558631870429 0.033909897404034287 -6 -0.91506351183037493 1.5849364925866429 -6 2.3883545080289421 -0.94497882694672608 -3 0.20080558631870429 0.033909897404034287 -3 0.20080558631870429 0.033909897404034287 -6 0.95458002071209891 -1.657898275923388 -6 2.3883545080289421 -0.94497882694672608 -3 2.3883545080289421 -0.94497882694672608 -6 0.20080558631870429 0.033909897404034287 -6 0.95458002071209891 -1.657898275923388 -6 2.3883545080289421 -0.94497882694672608 -3 0.20080558631870429 0.033909897404034287 -3 0.95458002071209891 -1.657898275923388 -6 0.95458002071209891 -1.657898275923388 -3 2.3883545080289421 -0.94497882694672608 -3 0.20080558631870429 0.033909897404034287 -3 2.465848112410058 1.4099871989758821 -6 0.20080558631870429 0.033909897404034287 -6 2.3883545080289421 -0.94497882694672608 -3 2.465848112410058 1.4099871989758821 -6 2.3883545080289421 -0.94497882694672608 -6 0.20080558631870429 0.033909897404034287 -6 2.465848112410058 1.4099871989758821 -3 2.3883545080289421 -0.94497882694672608 -3 0.20080558631870429 0.033909897404034287 -3 2.465848112410058 1.4099871989758821 -6 0.37580157663508379 2.5408650916807378 -3 2.4999999879139869 4.3301270259000564 -3 2.465848112410058 1.4099871989758821 -3 2.465848112410058 1.4099871989758821 -6 0.37580157663508379 2.5408650916807378 -3 0.37580157663508379 2.5408650916807378 -6 0.20080558631870429 0.033909897404034287 -3 2.465848112410058 1.4099871989758821 -6 0.37580157663508379 2.5408650916807378 -6 0.20080558631870429 0.033909897404034287 -3 2.465848112410058 1.4099871989758821 -6 0.20080558631870429 0.033909897404034287 -6 0.37580157663508379 2.5408650916807378 -3 2.465848112410058 1.4099871989758821 -3 0.20080558631870429 0.033909897404034287 -3 2.465848112410058 1.4099871989758821 -6 2.465848112410058 1.4099871989758821 -9 0.37580157663508379 2.5408650916807378 -9 0.37580157663508379 2.5408650916807378 -6 0.20080558631870429 0.033909897404034287 -6 2.465848112410058 1.4099871989758821 -9 0.37580157663508379 2.5408650916807378 -6 2.4999999879139869 4.3301270259000564 -6 2.465848112410058 1.4099871989758821 -6 2.465848112410058 1.4099871989758821 -9 0.37580157663508379 2.5408650916807378 -6 2.465848112410058 1.4099871989758821 -6 0.20080558631870429 0.033909897404034287 -6 0.95458002071209891 -1.657898275923388 -9 0.20080558631870429 0.033909897404034287 -9 2.3883545080289421 -0.94497882694672608 -6 0.20080558631870429 0.033909897404034287 -6 0.95458002071209891 -1.657898275923388 -9 2.3883545080289421 -0.94497882694672608 -6 0.20080558631870429 0.033909897404034287 -6 0.95458002071209891 -1.657898275923388 -6 0.20080558631870429 0.033909897404034287 -9 2.465848112410058 1.4099871989758821 -9 2.3883545080289421 -0.94497882694672608 -6 0.20080558631870429 0.033909897404034287 -6 2.465848112410058 1.4099871989758821 -9 2.465848112410058 1.4099871989758821 -6 2.3883545080289421 -0.94497882694672608 -6 0.20080558631870429 0.033909897404034287 -6 -0.91506351183037493 1.5849364925866429 -9 0.20080558631870429 0.033909897404034287 -9 0.20080558631870429 0.033909897404034287 -6 -2.2735805010731909 0.22641949675281539 -6 0.20080558631870429 0.033909897404034287 -9 0.20080558631870429 0.033909897404034287 -6 -2.2735805010731909 0.22641949675281539 -6 -0.66987297914647026 -2.499999999706382 -6 -0.66987297914647026 -2.499999999706382 -9 0.20080558631870429 0.033909897404034287 -9 -2.2735805010731909 0.22641949675281539 -6 -0.66987297914647026 -2.499999999706382 -6 0.95458002071209891 -1.657898275923388 -9 0.20080558631870429 0.033909897404034287 -9 0.20080558631870429 0.033909897404034287 -6 -0.66987297914647026 -2.499999999706382 -6 -0.91506351183037493 1.5849364925866429 -9 -1.107852388446384 3.1911857209629071 -9 0.37580157663508379 2.5408650916807378 -6 -0.91506351183037493 1.5849364925866429 -6 -0.91506351183037493 1.5849364925866429 -9 0.20080558631870429 0.033909897404034287 -6 -0.91506351183037493 1.5849364925866429 -6 -2.2735805010731909 0.22641949675281539 -6 -0.91506351183037493 1.5849364925866429 -9 0.37580157663508379 2.5408650916807378 -9 0.37580157663508379 2.5408650916807378 -6 0.20080558631870429 0.033909897404034287 -6 -0.91506351183037493 1.5849364925866429 -9 0.37580157663508379 2.5408650916807378 -6 0.20080558631870429 0.033909897404034287 -6 -0.91506351183037493 1.5849364925866429 -6 -2.2253246846922492 2.366533744740174 -9 -2.2253246846922492 2.366533744740174 -6 -4.3301270221112951 2.4999999944763132 -6 -2.2735805010731909 0.22641949675281539 -6 -2.2253246846922492 2.366533744740174 -9 -1.107852388446384 3.1911857209629071 -6 -0.91506351183037493 1.5849364925866429 -6 -2.2253246846922492 2.366533744740174 -6 -2.2735805010731909 0.22641949675281539 -9 -2.2253246846922492 2.366533744740174 -9 -4.3301270221112951 2.4999999944763132 -6 -2.2735805010731909 0.22641949675281539 -6 -2.2253246846922492 2.366533744740174 -9 -0.91506351183037493 1.5849364925866429 -9 -0.91506351183037493 1.5849364925866429 -6 -2.2735805010731909 0.22641949675281539 -6 -2.2253246846922492 2.366533744740174 -9 -0.91506351183037493 1.5849364925866429 -6 -2.2253246846922492 2.366533744740174 -6 -2.2735805010731909 0.22641949675281539 -6 -2.2735805010731909 0.22641949675281539 -9 -4.3301270221112951 2.4999999944763132 -6 -5 -1.397247784140632e-08 -6 -2.2735805010731909 0.22641949675281539 -6 -2.2735805010731909 0.22641949675281539 -9 -4.3301270221112951 2.4999999944763132 -9 -4.3301270221112951 2.4999999944763132 -6 -5 -1.397247784140632e-08 -6 -4.3301270221112951 2.4999999944763132 -3 -5 -1.397247784140632e-08 -3 -2.2735805010731909 0.22641949675281539 -3 -2.2735805010731909 0.22641949675281539 -6 -4.3301270221112951 2.4999999944763132 -3 -2.2253246846922492 2.366533744740174 -6 -4.3301270221112951 2.4999999944763132 -6 -2.2735805010731909 0.22641949675281539 -6 -5 -1.397247784140632e-08 -3 -4.3301270221112951 2.4999999944763132 -6 -5 -1.397247784140632e-08 -6 -2.2735805010731909 0.22641949675281539 -6 -4.3301270221112951 2.4999999944763132 -3 -5 -1.397247784140632e-08 -3 -4.3301270221112951 2.4999999944763132 -6 -2.2735805010731909 0.22641949675281539 -6 -1.107852388446384 3.1911857209629071 -3 -2.2253246846922492 2.366533744740174 -3 -0.91506351183037493 1.5849364925866429 -3 -2.2253246846922492 2.366533744740174 -6 -4.3301270221112951 2.4999999944763132 -3 -2.2735805010731909 0.22641949675281539 -3 -2.2253246846922492 2.366533744740174 -3 -2.2253246846922492 2.366533744740174 -6 -1.107852388446384 3.1911857209629071 -6 -0.91506351183037493 1.5849364925866429 -3 -0.91506351183037493 1.5849364925866429 -6 -2.2253246846922492 2.366533744740174 -6 -2.2735805010731909 0.22641949675281539 -3 -2.2253246846922492 2.366533744740174 -3 -0.91506351183037493 1.5849364925866429 -3 -2.2253246846922492 2.366533744740174 -6 -2.2735805010731909 0.22641949675281539 -3 -0.91506351183037493 1.5849364925866429 -6 -2.2253246846922492 2.366533744740174 -6 -2.2735805010731909 0.22641949675281539 -6 -2.2735805010731909 0.22641949675281539 -3 -0.91506351183037493 1.5849364925866429 -3 -0.91506351183037493 1.5849364925866429 -6 -2.2253246846922492 2.366533744740174 -6 -4.3301270221112951 2.4999999944763132 -3 -2.2735805010731909 0.22641949675281539 -3 -2.2253246846922492 2.366533744740174 -6 -2.2735805010731909 0.22641949675281539 -6 -2.2735805010731909 0.22641949675281539 -3 0.20080558631870429 0.033909897404034287 -6 -2.2735805010731909 0.22641949675281539 -6 -0.66987297914647026 -2.499999999706382 -6 -2.2735805010731909 0.22641949675281539 -3 0.20080558631870429 0.033909897404034287 -6 -0.91506351183037493 1.5849364925866429 -6 -2.2735805010731909 0.22641949675281539 -6 -2.2735805010731909 0.22641949675281539 -3 -2.2735805010731909 0.22641949675281539 -6 -2.9547160992544761 -1.820741508163664 -6 -0.66987297914647026 -2.499999999706382 -6 -5 -1.397247784140632e-08 -3 -5 -1.397247784140632e-08 -6 -2.9547160992544761 -1.820741508163664 -6 -4.3301270160527148 -2.500000004970083 -3 -5 -1.397247784140632e-08 -3 -2.2735805010731909 0.22641949675281539 -3 -2.9547160992544761 -1.820741508163664 -6 -2.9547160992544761 -1.820741508163664 -3 -5 -1.397247784140632e-08 -3 -5 -1.397247784140632e-08 -6 -2.2735805010731909 0.22641949675281539 -6 -2.9547160992544761 -1.820741508163664 -6 -5 -1.397247784140632e-08 -3 -2.2735805010731909 0.22641949675281539 -3 -2.2735805010731909 0.22641949675281539 -6 -2.9547160992544761 -1.820741508163664 -6 -2.9547160992544761 -1.820741508163664 -9 -5 -1.397247784140632e-08 -9 -5 -1.397247784140632e-08 -6 -4.3301270160527148 -2.500000004970083 -6 -2.9547160992544761 -1.820741508163664 -9 -2.2735805010731909 0.22641949675281539 -9 -5 -1.397247784140632e-08 -6 -2.2735805010731909 0.22641949675281539 -6 -2.9547160992544761 -1.820741508163664 -9 -5 -1.397247784140632e-08 -6 -2.2735805010731909 0.22641949675281539 -6 -2.9547160992544761 -1.820741508163664 -6 -0.66987297914647026 -2.499999999706382 -9 -2.9547160992544761 -1.820741508163664 -9 -2.2735805010731909 0.22641949675281539 -6 -0.66987297914647026 -2.499999999706382 -6 -2.9547160992544761 -1.820741508163664 -9 -2.2735805010731909 0.22641949675281539 -6 -2.9547160992544761 -1.820741508163664 -6 -0.66987297914647026 -2.499999999706382 -6 -0.66987297914647026 -2.499999999706382 -9 -2.9547160992544761 -1.820741508163664 -9 -2.5000000000000022 -4.3301270189221919 -6 -0.66987297914647026 -2.499999999706382 -6 -2.9547160992544761 -1.820741508163664 -9 -2.9547160992544761 -1.820741508163664 -6 -2.5000000000000022 -4.3301270189221919 -6 -0.66987297914647026 -2.499999999706382 -6 -2.9547160992544761 -1.820741508163664 -9 -2.9547160992544761 -1.820741508163664 -6 -4.3301270160527148 -2.500000004970083 -6 -2.5000000000000022 -4.3301270189221919 -6 -2.9547160992544761 -1.820741508163664 -9 -5 -1.397247784140632e-08 -6 -2.9547160992544761 -1.820741508163664 -6 -4.3301270160527148 -2.500000004970083 -6 -4.3301270160527148 -2.500000004970083 -9 -2.9547160992544761 -1.820741508163664 -9 -4.3301270160527148 -2.500000004970083 -6 -2.5000000000000022 -4.3301270189221919 -6 -2.9547160992544761 -1.820741508163664 -6 -4.3301270160527148 -2.500000004970083 -6 -2.5000000000000022 -4.3301270189221919 -3 -4.3301270160527148 -2.500000004970083 -3 -5 -1.397247784140632e-08 -6 -2.9547160992544761 -1.820741508163664 -6 -4.3301270160527148 -2.500000004970083 -6 -4.3301270160527148 -2.500000004970083 -3 -5 -1.397247784140632e-08 -3 -2.9547160992544761 -1.820741508163664 -6 -2.9547160992544761 -1.820741508163664 -3 -4.3301270160527148 -2.500000004970083 -3 -2.9547160992544761 -1.820741508163664 -6 -2.5000000000000022 -4.3301270189221919 -3 -2.9547160992544761 -1.820741508163664 -3 -4.3301270160527148 -2.500000004970083 -3 -2.9547160992544761 -1.820741508163664 -6 -0.66987297914647026 -2.499999999706382 -3 -2.5000000000000022 -4.3301270189221919 -3 -2.9547160992544761 -1.820741508163664 -3 -2.2735805010731909 0.22641949675281539 -3 -2.9547160992544761 -1.820741508163664 -6 -0.66987297914647026 -2.499999999706382 -3 -2.9547160992544761 -1.820741508163664 -3 -2.9547160992544761 -1.820741508163664 -6 -0.66987297914647026 -2.499999999706382 -6 -0.66987297914647026 -2.499999999706382 -3 -2.5000000000000022 -4.3301270189221919 -3 -2.2735805010731909 0.22641949675281539 -3 -2.9547160992544761 -1.820741508163664 -6 -0.66987297914647026 -2.499999999706382 -6 -0.66987297914647026 -2.499999999706382 -3 -2.9547160992544761 -1.820741508163664 -6 -2.5000000000000022 -4.3301270189221919 -6 -0.66987297914647026 -2.499999999706382 -6 -2.5000000000000022 -4.3301270189221919 -3 -2.9547160992544761 -1.820741508163664 -6 -4.3301270160527148 -2.500000004970083 -6 -2.5000000000000022 -4.3301270189221919 -6 -2.5000000000000022 -4.3301270189221919 -3 -2.5000000000000022 -4.3301270189221919 -6 -0.66987297914647026 -2.499999999706382 -6 6.9142305214597846e-09 -5 -3 -2.5000000000000022 -4.3301270189221919 -3 -0.66987297914647026 -2.499999999706382 -9 -2.5000000000000022 -4.3301270189221919 -9 -2.5000000000000022 -4.3301270189221919 -6 6.9142305214597846e-09 -5 -6 0.91506351643986317 -3.4150635091400758 -9 -0.66987297914647026 -2.499999999706382 -9 6.9142305214597846e-09 -5 -6 -0.66987297914647026 -2.499999999706382 -6 -0.66987297914647026 -2.499999999706382 -9 -2.5000000000000022 -4.3301270189221919 -6 6.9142305214597846e-09 -5 -6 -0.66987297914647026 -2.499999999706382 -6 0.91506351643986317 -3.4150635091400758 -9 6.9142305214597846e-09 -5 -6 -0.66987297914647026 -2.499999999706382 -6 0.91506351643986317 -3.4150635091400758 -6 0.91506351643986317 -3.4150635091400758 -9 0.95458002071209891 -1.657898275923388 -9 -0.66987297914647026 -2.499999999706382 -6 0.91506351643986317 -3.4150635091400758 -6 0.95458002071209891 -1.657898275923388 -9 0.20080558631870429 0.033909897404034287 -6 -0.66987297914647026 -2.499999999706382 -6 0.95458002071209891 -1.657898275923388 -6 0.95458002071209891 -1.657898275923388 -9 -0.66987297914647026 -2.499999999706382 -6 0.95458002071209891 -1.657898275923388 -6 0.91506351643986317 -3.4150635091400758 -6 2.217625015551433 -2.5696135239339939 -9 2.3883545080289421 -0.94497882694672608 -6 2.217625015551433 -2.5696135239339939 -6 0.95458002071209891 -1.657898275923388 -6 0.95458002071209891 -1.657898275923388 -9 2.217625015551433 -2.5696135239339939 -9 2.3883545080289421 -0.94497882694672608 -6 0.95458002071209891 -1.657898275923388 -6 2.217625015551433 -2.5696135239339939 -9 2.217625015551433 -2.5696135239339939 -6 0.95458002071209891 -1.657898275923388 -6 0.91506351643986317 -3.4150635091400758 -6 0.95458002071209891 -1.657898275923388 -9 2.217625015551433 -2.5696135239339939 -9 0.95458002071209891 -1.657898275923388 -6 0.91506351643986317 -3.4150635091400758 -6 0.91506351643986317 -3.4150635091400758 -9 6.9142305214597846e-09 -5 -9 2.500000010727558 -4.3301270127286351 -6 6.9142305214597846e-09 -5 -6 0.91506351643986317 -3.4150635091400758 -9 2.500000010727558 -4.3301270127286351 -6 6.9142305214597846e-09 -5 -6 0.91506351643986317 -3.4150635091400758 -6 2.217625015551433 -2.5696135239339939 -9 2.500000010727558 -4.3301270127286351 -6 2.217625015551433 -2.5696135239339939 -6 0.91506351643986317 -3.4150635091400758 -6 0.91506351643986317 -3.4150635091400758 -9 2.217625015551433 -2.5696135239339939 -9 2.500000010727558 -4.3301270127286351 -6 0.91506351643986317 -3.4150635091400758 -6 2.500000010727558 -4.3301270127286351 -3 0.91506351643986317 -3.4150635091400758 -6 6.9142305214597846e-09 -5 -3 0.91506351643986317 -3.4150635091400758 -3 2.500000010727558 -4.3301270127286351 -6 2.500000010727558 -4.3301270127286351 -3 2.217625015551433 -2.5696135239339939 -6 0.91506351643986317 -3.4150635091400758 -6 2.500000010727558 -4.3301270127286351 -3 2.217625015551433 -2.5696135239339939 -6 0.91506351643986317 -3.4150635091400758 -6 0.91506351643986317 -3.4150635091400758 -3 2.500000010727558 -4.3301270127286351 -3 2.217625015551433 -2.5696135239339939 -6 2.217625015551433 -2.5696135239339939 -3 0.91506351643986317 -3.4150635091400758 -3 2.500000010727558 -4.3301270127286351 -6 2.500000010727558 -4.3301270127286351 -3 6.9142305214597846e-09 -5 -6 0.91506351643986317 -3.4150635091400758 -6 2.500000010727558 -4.3301270127286351 -3 6.9142305214597846e-09 -5 -6 0.91506351643986317 -3.4150635091400758 -6 6.9142305214597846e-09 -5 -3 2.217625015551433 -2.5696135239339939 -6 0.95458002071209891 -1.657898275923388 -6 0.95458002071209891 -1.657898275923388 -3 0.91506351643986317 -3.4150635091400758 -3 2.3883545080289421 -0.94497882694672608 -3 2.217625015551433 -2.5696135239339939 -6 0.95458002071209891 -1.657898275923388 -6 0.95458002071209891 -1.657898275923388 -3 2.3883545080289421 -0.94497882694672608 -3 2.3883545080289421 -0.94497882694672608 -6 2.217625015551433 -2.5696135239339939 -6 0.95458002071209891 -1.657898275923388 -6 2.3883545080289421 -0.94497882694672608 -3 2.217625015551433 -2.5696135239339939 -6 2.217625015551433 -2.5696135239339939 -3 0.95458002071209891 -1.657898275923388 -3 2.217625015551433 -2.5696135239339939 -6 2.217625015551433 -2.5696135239339939 -3 0.95458002071209891 -1.657898275923388 -3 0.91506351643986317 -3.4150635091400758 -3 2.217625015551433 -2.5696135239339939 -6 0.95458002071209891 -1.657898275923388 -6 0.91506351643986317 -3.4150635091400758 -6 0.91506351643986317 -3.4150635091400758 -3 0.20080558631870429 0.033909897404034287 -3 0.95458002071209891 -1.657898275923388 -6 -0.66987297914647026 -2.499999999706382 -3 0.95458002071209891 -1.657898275923388 -3 0.20080558631870429 0.033909897404034287 -6 -0.66987297914647026 -2.499999999706382 -6 0.95458002071209891 -1.657898275923388 -6 -0.66987297914647026 -2.499999999706382 -3 0.95458002071209891 -1.657898275923388 -6 -0.66987297914647026 -2.499999999706382 -3 0.95458002071209891 -1.657898275923388 -3 0.91506351643986317 -3.4150635091400758 -3 -0.66987297914647026 -2.499999999706382 -6 0.95458002071209891 -1.657898275923388 -6 0.91506351643986317 -3.4150635091400758 -6 -0.66987297914647026 -2.499999999706382 -3 0.95458002071209891 -1.657898275923388 -6 0.91506351643986317 -3.4150635091400758 -6 -0.66987297914647026 -2.499999999706382 -3 0.91506351643986317 -3.4150635091400758 -3 0.91506351643986317 -3.4150635091400758 -6 6.9142305214597846e-09 -5 -3 -0.66987297914647026 -2.499999999706382 -3 0.91506351643986317 -3.4150635091400758 -3 6.9142305214597846e-09 -5 -6 -0.66987297914647026 -2.499999999706382 -6 0.91506351643986317 -3.4150635091400758 -6 6.9142305214597846e-09 -5 -3 -0.66987297914647026 -2.499999999706382 -6 0.91506351643986317 -3.4150635091400758 -6 6.9142305214597846e-09 -5 -3 -0.66987297914647026 -2.499999999706382 -3 -2.5000000000000022 -4.3301270189221919 -6 6.9142305214597846e-09 -5 -6 -0.66987297914647026 -2.499999999706382 -6 6.9142305214597846e-09 -5 -3 -0.66987297914647026 -2.499999999706382 -6 6.9142305214597846e-09 -5 -3 -0.66987297914647026 -2.499999999706382 -3 -2.5000000000000022 -4.3301270189221919 -3 6.9142305214597846e-09 -5 -3 -0.66987297914647026 -2.499999999706382 -3 0.91506351643986317 -3.4150635091400758 -3 6.9142305214597846e-09 -5 0 6.9142305214597846e-09 -5 -3 -0.66987297914647026 -2.499999999706382 -3 6.9142305214597846e-09 -5 0 -2.5000000000000022 -4.3301270189221919 -3 -0.66987297914647026 -2.499999999706382 -3 0.95458002071209891 -1.657898275923388 -3 0.91506351643986317 -3.4150635091400758 -3 -0.66987297914647026 -2.499999999706382 0 0.20080558631870429 0.033909897404034287 -3 -0.66987297914647026 -2.499999999706382 -3 0.95458002071209891 -1.657898275923388 -3 -0.66987297914647026 -2.499999999706382 0 2.3883545080289421 -0.94497882694672608 0 2.3883545080289421 -0.94497882694672608 -3 2.217625015551433 -2.5696135239339939 -3 0.95458002071209891 -1.657898275923388 -3 2.217625015551433 -2.5696135239339939 -3 0.95458002071209891 -1.657898275923388 -3 0.91506351643986317 -3.4150635091400758 -3 0.91506351643986317 -3.4150635091400758 0 2.500000010727558 -4.3301270127286351 -3 2.500000010727558 -4.3301270127286351 0 2.217625015551433 -2.5696135239339939 -3 0.91506351643986317 -3.4150635091400758 -3 2.500000010727558 -4.3301270127286351 -3 2.500000010727558 -4.3301270127286351 0 6.9142305214597846e-09 -5 -3 0.91506351643986317 -3.4150635091400758 -3 2.500000010727558 -4.3301270127286351 0 2.217625015551433 -2.5696135239339939 -3 0.91506351643986317 -3.4150635091400758 0 2.217625015551433 -2.5696135239339939 0 2.500000010727558 -4.3301270127286351 0 2.217625015551433 -2.5696135239339939 -3 0.91506351643986317 -3.4150635091400758 -3 0.91506351643986317 -3.4150635091400758 0 2.500000010727558 -4.3301270127286351 0 0.91506351643986317 -3.4150635091400758 -3 0.91506351643986317 -3.4150635091400758 0 6.9142305214597846e-09 -5 0 2.500000010727558 -4.3301270127286351 0 6.9142305214597846e-09 -5 -3 0.91506351643986317 -3.4150635091400758 -3 6.9142305214597846e-09 -5 0 2.217625015551433 -2.5696135239339939 -3 0.91506351643986317 -3.4150635091400758 0 2.217625015551433 -2.5696135239339939 0 0.95458002071209891 -1.657898275923388 0 2.217625015551433 -2.5696135239339939 -3 0.95458002071209891 -1.657898275923388 -3 0.91506351643986317 -3.4150635091400758 0 0.95458002071209891 -1.657898275923388 0 2.3883545080289421 -0.94497882694672608 0 2.217625015551433 -2.5696135239339939 -3 2.217625015551433 -2.5696135239339939 0 0.95458002071209891 -1.657898275923388 0 2.3883545080289421 -0.94497882694672608 0 2.217625015551433 -2.5696135239339939 -3 0.95458002071209891 -1.657898275923388 -3 0.95458002071209891 -1.657898275923388 0 0.95458002071209891 -1.657898275923388 -3 0.91506351643986317 -3.4150635091400758 -3 0.91506351643986317 -3.4150635091400758 0 -0.66987297914647026 -2.499999999706382 0 0.95458002071209891 -1.657898275923388 -3 0.91506351643986317 -3.4150635091400758 0 0.95458002071209891 -1.657898275923388 0 -0.66987297914647026 -2.499999999706382 0 0.20080558631870429 0.033909897404034287 0 0.95458002071209891 -1.657898275923388 -3 0.95458002071209891 -1.657898275923388 0 -0.66987297914647026 -2.499999999706382 0 -0.66987297914647026 -2.499999999706382 -3 -0.66987297914647026 -2.499999999706382 0 6.9142305214597846e-09 -5 0 -2.5000000000000022 -4.3301270189221919 0 -0.66987297914647026 -2.499999999706382 -3 0.91506351643986317 -3.4150635091400758 -3 -0.66987297914647026 -2.499999999706382 0 6.9142305214597846e-09 -5 0 0.91506351643986317 -3.4150635091400758 -3 0.91506351643986317 -3.4150635091400758 0 -0.66987297914647026 -2.499999999706382 0 6.9142305214597846e-09 -5 0 -0.66987297914647026 -2.499999999706382 -3 6.9142305214597846e-09 -5 0 -2.5000000000000022 -4.3301270189221919 0 -2.5000000000000022 -4.3301270189221919 -3 -0.66987297914647026 -2.499999999706382 -3 -2.5000000000000022 -4.3301270189221919 0 -2.5000000000000022 -4.3301270189221919 -3 -2.9547160992544761 -1.820741508163664 -3 -2.5000000000000022 -4.3301270189221919 0 -2.5000000000000022 -4.3301270189221919 -3 -2.9547160992544761 -1.820741508163664 -3 -4.3301270160527148 -2.500000004970083 -3 -0.66987297914647026 -2.499999999706382 -3 -0.66987297914647026 -2.499999999706382 0 -2.5000000000000022 -4.3301270189221919 0 -2.9547160992544761 -1.820741508163664 -3 -0.66987297914647026 -2.499999999706382 0 -2.5000000000000022 -4.3301270189221919 0 -2.9547160992544761 -1.820741508163664 -3 -2.9547160992544761 -1.820741508163664 0 -2.2735805010731909 0.22641949675281539 0 -0.66987297914647026 -2.499999999706382 -3 -0.66987297914647026 -2.499999999706382 0 -2.9547160992544761 -1.820741508163664 -3 -2.2735805010731909 0.22641949675281539 0 -0.66987297914647026 -2.499999999706382 0 -2.9547160992544761 -1.820741508163664 -3 -2.9547160992544761 -1.820741508163664 0 -5 -1.397247784140632e-08 0 -2.9547160992544761 -1.820741508163664 -3 -2.9547160992544761 -1.820741508163664 0 -4.3301270160527148 -2.500000004970083 0 -2.5000000000000022 -4.3301270189221919 0 -2.9547160992544761 -1.820741508163664 -3 -2.9547160992544761 -1.820741508163664 0 -4.3301270160527148 -2.500000004970083 0 -2.5000000000000022 -4.3301270189221919 0 -2.9547160992544761 -1.820741508163664 -3 -4.3301270160527148 -2.500000004970083 0 -4.3301270160527148 -2.500000004970083 -3 -5 -1.397247784140632e-08 -3 -2.9547160992544761 -1.820741508163664 -3 -4.3301270160527148 -2.500000004970083 0 -4.3301270160527148 -2.500000004970083 -3 
</DataArray>
</Points>
<Cells>
<DataArray type="UInt32" Name="connectivity" format="ascii">
0 1 2 3 4 5 6 7 8 9 10 11 12 13 14 15 16 17 18 19 20 21 22 23 24 25 26 27 28 29 30 31 32 33 34 35 36 37 38 39 40 41 42 43 44 45 46 47 48 49 50 51 52 53 54 55 56 57 58 59 60 61 62 63 64 65 66 67 68 69 70 71 72 73 74 75 76 77 78 79 80 81 82 83 84 85 86 87 88 89 90 91 92 93 94 95 96 97 98 99 100 101 102 103 104 105 106 107 108 109 110 111 112 113 114 115 116 117 118 119 120 121 122 123 124 125 126 127 128 129 130 131 132 133 134 135 136 137 138 139 140 141 142 143 144 145 146 147 148 149 150 151 152 153 154 155 156 157 158 159 160 161 162 163 164 165 166 167 168 169 170 171 172 173 174 175 176 177 178 179 180 181 182 183 184 185 186 187 188 189 190 191 192 193 194 195 196 197 198 199 200 201 202 203 204 205 206 207 208 209 210 211 212 213 214 215 216 217 218 219 220 221 222 223 224 225 226 227 228 229 230 231 232 233 234 235 236 237 238 239 240 241 242 243 244 245 246 247 248 249 250 251 252 253 254 255 256 257 258 259 260 261 262 263 264 265 266 267 268 269 270 271 272 273 274 275 276 277 278 279 280 281 282 283 284 285 286 287 288 289 290 291 292 293 294 295 296 297 298 299 300 301 302 303 304 305 306 307 308 309 310 311 312 313 314 315 316 317 318 319 320 321 322 323 324 325 326 327 328 329 330 331 332 333 334 335 336 337 338 339 340 341 342 343 344 345 346 347 348 349 350 351 352 353 354 355 356 357 358 359 360 361 362 363 364 365 366 367 368 369 370 371 372 373 374 375 376 377 378 379 380 381 382 383 384 385 386 387 388 389 390 391 392 393 394 395 396 397 398 399 400 401 402 403 404 405 406 407 408 409 410 411 412 413 414 415 416 417 418 419 420 421 422 423 424 425 426 427 428 429 430 431 432 433 434 435 436 437 438 439 440 441 442 443 444 445 446 447 448 449 450 451 452 453 454 455 456 457 458 459 460 461 462 463 464 465 466 467 468 469 470 471 472 473 474 475 476 477 478 479 480 481 482 483 484 485 486 487 488 489 490 491 492 493 494 495 496 497 498 499 500 501 502 503 504 505 506 507 508 509 510 511 512 513 514 515 516 517 518 519 520 521 522 523 524 525 526 527 528 529 530 531 532 533 534 535 536 537 538 539 540 541 542 543 544 545 546 547 548 549 550 551 552 553 554 555 556 557 558 559 560 561 562 563 564 565 566 567 568 569 570 571 572 573 574 575 576 577 578 579 580 581 582 583 584 585 586 587 588 589 590 591 592 593 594 595 596 597 598 599 600 601 602 603 604 605 606 607 608 609 610 611 612 613 614 615 616 617 618 619 620 621 622 623 624 625 626 627 628 629 630 631 632 633 634 635 636 637 638 639 640 641 642 643 644 645 646 647 648 649 650 651 652 653 654 655 656 657 658 659 660 661 662 663 664 665 666 667 668 669 670 671 672 673 674 675 676 677 678 679 680 681 682 683 684 685 686 687 688 689 690 691 692 693 694 695 696 697 698 699 700 701 702 703 704 705 706 707 708 709 710 711 712 713 714 715 716 717 718 719 720 721 722 723 724 725 726 727 728 729 730 731 732 733 734 735 736 737 738 739 740 741 742 743 744 745 746 747 748 749 750 751 752 753 754 755 756 757 758 759 760 761 762 763 764 765 766 767 768 769 770 771 772 773 774 775 776 777 778 779 780 781 782 783 784 785 786 787 788 789 790 791 792 793 794 795 796 797 798 799 800 801 802 803 804 805 806 807 808 809 810 811 812 813 814 815 816 817 818 819 820 821 822 823 824 825 826 827 828 829 830 831 832 833 834 835 836 837 838 839 840 841 842 843 844 845 846 847 848 849 850 851 852 853 854 855 856 857 858 859 860 861 862 863 864 865 866 867 868 869 870 871 872 873 874 875 876 877 878 879 880 881 882 883 884 885 886 887 888 889 890 891 892 893 894 895 896 897 898 899 900 901 902 903 904 905 906 907 908 909 910 911 912 913 914 915 916 917 918 919 920 921 922 923 924 925 926 927 928 929 930 931 932 933 934 935 936 937 938 939 940 941 942 943 944 945 946 947 948 949 950 951 952 953 954 955 956 957 958 959 960 961 962 963 964 965 966 967 968 969 970 971 972 973 974 975 976 977 978 979 980 981 982 983 984 985 986 987 988 989 990 991 992 993 994 995 996 997 998 999 1000 1001 1002 1003 1004 1005 1006 1007 1008 1009 1010 1011 1012 1013 1014 1015 1016 1017 1018 1019 1020 1021 1022 1023 1024 1025 1026 1027 1028 1029 1030 1031 1032 1033 1034 1035 1036 1037 1038 1039 1040 1041 1042 1043 1044 1045 1046 1047 1048 1049 1050 1051 1052 1053 1054 1055 1056 1057 1058 1059 1060 1061 1062 1063 1064 1065 1066 1067 1068 1069 1070 1071 1072 1073 1074 1075 1076 1077 1078 1079 1080 1081 1082 1083 1084 1085 1086 1087 1088 1089 1090 1091 1092 1093 1094 1095 1096 1097 1098 1099 1100 1101 1102 1103 1104 1105 1106 1107 1108 1109 1110 1111 1112 1113 1114 1115 1116 1117 1118 1119 1120 1121 1122 1123 1124 1125 1126 1127 1128 1129 1130 1131 1132 1133 1134 1135 1136 1137 1138 1139 1140 1141 1142 1143 1144 1145 1146 1147 1148 1149 1150 1151 1152 1153 1154 1155 1156 1157 1158 1159 1160 1161 1162 1163 1164 1165 1166 1167 1168 1169 1170 1171 1172 1173 1174 1175 1176 1177 1178 1179 1180 1181 1182 1183 1184 1185 1186 1187 1188 1189 1190 1191 1192 1193 1194 1195 1196 1197 1198 1199 1200 1201 1202 1203 1204 1205 1206 1207 1208 1209 1210 1211 1212 1213 1214 1215 1216 1217 1218 1219 1220 1221 1222 1223 1224 1225 1226 1227 1228 1229 1230 1231 1232 1233 1234 1235 1236 1237 1238 1239 1240 1241 1242 1243 1244 1245 1246 1247 1248 1249 1250 1251 1252 1253 1254 1255 1256 1257 1258 1259 1260 1261 1262 1263 1264 1265 1266 1267 1268 1269 1270 1271 1272 1273 1274 1275 1276 1277 1278 1279 1280 1281 1282 1283 1284 1285 1286 1287 1288 1289 1290 1291 1292 1293 1294 1295 1296 1297 1298 1299 1300 1301 1302 1303 1304 1305 1306 1307 1308 1309 1310 1311 1312 1313 1314 1315 1316 1317 1318 1319 1320 1321 1322 1323 1324 1325 1326 1327 1328 1329 1330 1331 1332 1333 1334 1335 1336 1337 1338 1339 1340 1341 1342 1343 1344 1345 1346 1347 1348 1349 1350 1351 1352 1353 1354 1355 1356 1357 1358 1359 1360 1361 1362 1363 1364 1365 1366 1367 1368 1369 1370 1371 1372 1373 1374 1375 1376 1377 1378 1379 1380 1381 1382 1383 1384 1385 1386 1387 1388 1389 1390 1391 1392 1393 1394 1395 1396 1397 1398 1399 1400 1401 1402 1403 1404 1405 1406 1407 1408 1409 1410 1411 1412 1413 1414 1415 1416 1417 1418 1419 1420 1421 1422 1423 1424 1425 1426 1427 1428 1429 1430 1431 1432 1433 1434 1435 1436 1437 1438 1439 1440 1441 1442 1443 1444 1445 1446 1447 1448 1449 1450 1451 1452 1453 1454 1455 1456 1457 1458 1459 1460 1461 1462 1463 1464 1465 1466 1467 1468 1469 1470 1471 1472 1473 1474 1475 1476 1477 1478 1479 1480 1481 1482 1483 1484 1485 1486 1487 1488 1489 1490 1491 1492 1493 1494 1495 1496 1497 1498 1499 1500 1501 1502 1503 1504 1505 1506 1507 1508 1509 1510 1511 1512 1513 1514 1515 1516 1517 1518 1519 1520 1521 1522 1523 1524 1525 1526 1527 1528 1529 1530 1531 1532 1533 1534 1535 1536 1537 1538 1539 1540 1541 1542 1543 1544 1545 1546 1547 1548 1549 1550 1551 1552 1553 1554 1555 1556 1557 1558 1559 1560 1561 1562 1563 1564 1565 1566 1567 1568 1569 1570 1571 1572 1573 1574 1575 1576 1577 1578 1579 1580 1581 1582 1583 1584 1585 1586 1587 1588 1589 1590 1591 1592 1593 1594 1595 1596 1597 1598 1599 1600 1601 1602 1603 1604 1605 1606 1607 1608 1609 1610 1611 1612 1613 1614 1615 1616 1617 1618 1619 1620 1621 1622 1623 1624 1625 1626 1627 1628 1629 1630 1631 1632 1633 1634 1635 1636 1637 1638 1639 1640 1641 1642 1643 1644 1645 1646 1647 1648 1649 1650 1651 1652 1653 1654 1655 1656 1657 1658 1659 1660 1661 1662 1663 1664 1665 1666 1667 1668 1669 1670 1671 1672 1673 1674 1675 1676 1677 1678 1679 1680 1681 1682 1683 1684 1685 1686 1687 1688 1689 1690 1691 1692 1693 1694 1695 1696 1697 1698 1699 1700 1701 1702 1703 1704 1705 1706 1707 1708 1709 1710 1711 1712 1713 1714 1715 1716 1717 1718 1719 1720 1721 1722 1723 1724 1725 1726 1727 1728 1729 1730 1731 1732 1733 1734 1735 1736 1737 1738 1739 1740 1741 1742 1743 1744 1745 1746 1747 1748 1749 1750 1751 1752 1753 1754 1755 1756 1757 1758 1759 1760 1761 1762 1763 1764 1765 1766 1767 1768 1769 1770 1771 1772 1773 1774 1775 1776 1777 1778 1779 1780 1781 1782 1783 1784 1785 1786 1787 1788 1789 1790 1791 1792 1793 1794 1795 1796 1797 1798 1799 1800 1801 1802 1803 1804 1805 1806 1807 1808 1809 1810 1811 1812 1813 1814 1815 1816 1817 1818 1819 1820 1821 1822 1823 1824 1825 1826 1827 1828 1829 1830 1831 1832 1833 1834 1835 1836 1837 1838 1839 1840 1841 1842 1843 1844 1845 1846 1847 1848 1849 1850 1851 1852 1853 1854 1855 1856 1857 1858 1859 1860 1861 1862 1863 1864 1865 1866 1867 1868 1869 1870 1871 1872 1873 1874 1875 1876 1877 1878 1879 1880 1881 1882 1883 1884 1885 1886 1887 1888 1889 1890 1891 1892 1893 1894 1895 1896 1897 1898 1899 1900 1901 1902 1903 1904 1905 1906 1907 1908 1909 1910 1911 1912 1913 1914 1915 1916 1917 1918 1919 1920 1921 1922 1923 1924 1925 1926 1927 1928 1929 1930 1931 1932 1933 1934 1935 1936 1937 1938 1939 1940 1941 1942 1943 1944 1945 1946 1947 1948 1949 1950 1951 1952 1953 1954 1955 1956 1957 1958 1959 1960 1961 1962 1963 1964 1965 1966 1967 1968 1969 1970 1971 1972 1973 1974 1975 1976 1977 1978 1979 1980 1981 1982 1983 1984 1985 1986 1987 1988 1989 1990 1991 1992 1993 1994 1995 1996 1997 1998 1999 2000 2001 2002 2003 2004 2005 2006 2007 2008 2009 2010 2011 2012 2013 2014 2015 2016 2017 2018 2019 2020 2021 2022 2023 2024 2025 2026 2027 2028 2029 2030 2031 2032 2033 2034 2035 2036 2037 2038 2039 2040 2041 2042 2043 2044 2045 2046 2047 2048 2049 2050 2051 2052 2053 2054 2055 2056 2057 2058 2059 2060 2061 2062 2063 2064 2065 2066 2067 2068 2069 2070 2071 2072 2073 2074 2075 2076 2077 2078 2079 2080 2081 2082 2083 2084 2085 2086 2087 2088 2089 2090 2091 2092 2093 2094 2095 2096 2097 2098 2099 2100 2101 2102 2103 2104 2105 2106 2107 2108 2109 2110 2111 2112 2113 2114 2115 2116 2117 2118 2119 2120 2121 2122 2123 2124 2125 2126 2127 2128 2129 2130 2131 2132 2133 2134 2135 2136 2137 2138 2139 2140 2141 2142 2143 2144 2145 2146 2147 2148 2149 2150 2151 2152 2153 2154 2155 2156 2157 2158 2159 
</DataArray>
<DataArray type="UInt32" Name="offsets" format="ascii">
4 8 12 16 20 24 28 32 36 40 44 48 52 56 60 64 68 72 76 80 84 88 92 96 100 104 108 112 116 120 124 128 132 136 140 144 148 152 156 160 164 168 172 176 180 184 188 192 196 200 204 208 212 216 220 224 228 232 236 240 244 248 252 256 260 264 268 272 276 280 284 288 292 296 300 304 308 312 316 320 324 328 332 336 340 344 348 352 356 360 364 368 372 376 380 384 388 392 396 400 404 408 412 416 420 424 428 432 436 440 444 448 452 456 460 464 468 472 476 480 484 488 492 496 500 504 508 512 516 520 524 528 532 536 540 544 548 552 556 560 564 568 572 576 580 584 588 592 596 600 604 608 612 616 620 624 628 632 636 640 644 648 652 656 660 664 668 672 676 680 684 688 692 696 700 704 708 712 716 720 724 728 732 736 740 744 748 752 756 760 764 768 772 776 780 784 788 792 796 800 804 808 812 816 820 824 828 832 836 840 844 848 852 856 860 864 868 872 876 880 884 888 892 896 900 904 908 912 916 920 924 928 932 936 940 944 948 952 956 960 964 968 972 976 980 984 988 992 996 1000 1004 1008 1012 1016 1020 1024 1028 1032 1036 1040 1044 1048 1052 1056 1060 1064 1068 1072 1076 1080 1084 1088 1092 1096 1100 1104 1108 1112 1116 1120 1124 1128 1132 1136 1140 1144 1148 1152 1156 1160 1164 1168 1172 1176 1180 1184 1188 1192 1196 1200 1204 1208 1212 1216 1220 1224 1228 1232 1236 1240 1244 1248 1252 1256 1260 1264 1268 1272 1276 1280 1284 1288 1292 1296 1300 1304 1308 1312 1316 1320 1324 1328 1332 1336 1340 1344 1348 1352 1356 1360 1364 1368 1372 1376 1380 1384 1388 1392 1396 1400 1404 1408 1412 1416 1420 1424 1428 1432 1436 1440 1444 1448 1452 1456 1460 1464 1468 1472 1476 1480 1484 1488 1492 1496 1500 1504 1508 1512 1516 1520 1524 1528 1532 1536 1540 1544 1548 1552 1556 1560 1564 1568 1572 1576 1580 1584 1588 1592 1596 1600 1604 1608 1612 1616 1620 1624 1628 1632 1636 1640 1644 1648 1652 1656 1660 1664 1668 1672 1676 1680 1684 1688 1692 1696 1700 1704 1708 1712 1716 1720 1724 1728 1732 1736 1740 1744 1748 1752 1756 1760 1764 1768 1772 1776 1780 1784 1788 1792 1796 1800 1804 1808 1812 1816 1820 1824 1828 1832 1836 1840 1844 1848 1852 1856 1860 1864 1868 1872 1876 1880 1884 1888 1892 1896 1900 1904 1908 1912 1916 1920 1924 1928 1932 1936 1940 1944 1948 1952 1956 1960 1964 1968 1972 1976 1980 1984 1988 1992 1996 2000 2004 2008 2012 2016 2020 2024 2028 2032 2036 2040 2044 2048 2052 2056 2060 2064 2068 2072 2076 2080 2084 2088 2092 2096 2100 2104 2108 2112 2116 2120 2124 2128 2132 2136 2140 2144 2148 2152 2156 2160 
</DataArray>
<DataArray type="UInt32" Name="types" format="ascii">
10 10 10 10 10 10 10 10 10 10 10 10 10 10 10 10 10 10 10 10 10 10 10 10 10 10 10 10 10 10 10 10 10 10 10 10 10 10 10 10 10 10 10 10 10 10 10 10 10 10 10 10 10 10 10 10 10 10 10 10 10 10 10 10 10 10 10 10 10 10 10 10 10 10 10 10 10 10 10 10 10 10 10 10 10 10 10 10 10 10 10 10 10 10 10 10 10 10 10 10 10 10 10 10 10 10 10 10 10 10 10 10 10 10 10 10 10 10 10 10 10 10 10 10 10 10 10 10 10 10 10 10 10 10 10 10 10 10 10 10 10 10 10 10 10 10 10 10 10 10 10 10 10 10 10 10 10 10 10 10 10 10 10 10 10 10 10 10 10 10 10 10 10 10 10 10 10 10 10 10 10 10 10 10 10 10 10 10 10 10 10 10 10 10 10 10 10 10 10 10 10 10 10 10 10 10 10 10 10 10 10 10 10 10 10 10 10 10 10 10 10 10 10 10 10 10 10 10 10 10 10 10 10 10 10 10 10 10 10 10 10 10 10 10 10 10 10 10 10 10 10 10 10 10 10 10 10 10 10 10 10 10 10 10 10 10 10 10 10 10 10 10 10 10 10 10 10 10 10 10 10 10 10 10 10 10 10 10 10 10 10 10 10 10 10 10 10 10 10 10 10 10 10 10 10 10 10 10 10 10 10 10 10 10 10 10 10 10 10 10 10 10 10 10 10 10 10 10 10 10 10 10 10 10 10 10 10 10 10 10 10 10 10 10 10 10 10 10 10 10 10 10 10 10 10 10 10 10 10 10 10 10 10 10 10 10 10 10 10 10 10 10 10 10 10 10 10 10 10 10 10 10 10 10 10 10 10 10 10 10 10 10 10 10 10 10 10 10 10 10 10 10 10 10 10 10 10 10 10 10 10 10 10 10 10 10 10 10 10 10 10 10 10 10 10 10 10 10 10 10 10 10 10 10 10 10 10 10 10 10 10 10 10 10 10 10 10 10 10 10 10 10 10 10 10 10 10 10 10 10 10 10 10 10 10 10 10 10 10 10 10 10 10 10 10 10 10 10 10 10 10 10 10 10 10 10 10 10 10 10 10 10 10 10 10 10 10 10 10 10 10 10 10 10 10 10 10 10 10 10 10 10 10 10 10 10 10 10 10 10 10 10 10 10 10 10 10 10 10 10 10 10 10 10 10 10 10 10 10 10 
</DataArray>
</Cells>
<PointData Scalars="" Vectors="displacement," Tensors="">
<DataArray type="Float64" Name="displacement" NumberOfComponents="3" format="ascii">
-1.3343361732137125e-07 -1.9517228944802359e-08 -0.00025021886095123714 2.451532548038507e-08 1.615269327480775e-08 -1.8749940775724279e-07 -8.4334850803997776e-08 -2.3212616966027875e-08 -0.00025021819016785252 -1.2759872420801931e-07 4.9916602955164639e-08 -0.00025023837548376714 -1.3343361732137125e-07 -1.9517228944802359e-08 -0.00025021886095123714 2.451532548038507e-08 1.615269327480775e-08 -1.8749940775724279e-07 -8.4334850803997776e-08 -2.3212616966027875e-08 -0.00025021819016785252 -1.0075478888589691e-07 -8.6367730963087826e-08 -0.00025023334340976285 -1.3343361732137125e-07 -1.9517228944802359e-08 -0.00025021886095123714 -5.463024700871179e-08 -3.5568358125779919e-08 -1.055848433596129e-07 2.451532548038507e-08 1.6152693274807753e-08 -1.8749940775724279e-07 -1.0075478888589691e-07 -8.6367730963087826e-08 -0.00025023334340976285 -1.3343361732137125e-07 -1.9517228944802359e-08 -0.00025021886095123714 -5.463024700871179e-08 -3.5568358125779919e-08 -1.055848433596129e-07 2.4515325480385074e-08 1.6152693274807757e-08 -1.8749940775722943e-07 -5.2296049020693981e-08 -4.3714243651566871e-09 -2.4535999092586565e-07 2.451532548038507e-08 1.615269327480775e-08 -1.8749940775724279e-07 -2.6317440650677755e-09 1.1332136717148322e-08 -2.1468366431767207e-07 -4.015708419190084e-08 -5.0912315914635498e-08 -0.00025020398668888831 -5.4681293732441403e-08 1.3878495900528862e-08 -0.00025020481899141816 2.451532548038507e-08 1.615269327480775e-08 -1.8749940775724279e-07 -1.0075478888589694e-07 -8.6367730963087839e-08 -0.00025023334340976285 -2.6317440650677697e-09 1.133213671714832e-08 -2.1468366431768433e-07 -4.0157084191900794e-08 -5.0912315914635485e-08 -0.00025020398668888837 2.451532548038507e-08 1.615269327480775e-08 -1.8749940775724279e-07 -8.4334850803997776e-08 -2.3212616966027875e-08 -0.00025021819016785252 -4.0157084191900847e-08 -5.0912315914635524e-08 -0.00025020398668888831 -5.4681293732441416e-08 1.3878495900528871e-08 -0.00025020481899141816 2.451532548038507e-08 1.615269327480775e-08 -1.8749940775724279e-07 -8.4334850803997776e-08 -2.3212616966027875e-08 -0.00025021819016785252 -1.0075478888589693e-07 -8.6367730963087826e-08 -0.00025023334340976285 -4.0157084191900814e-08 -5.0912315914635485e-08 -0.00025020398668888831 -1.0075478888589691e-07 -8.6367730963087826e-08 -0.00025023334340976285 -2.4656536901531621e-08 -4.6470928894291109e-08 -2.3441202925225445e-07 -2.631744065067771e-09 1.1332136717148318e-08 -2.1468366431767207e-07 -5.1940914361680356e-08 -1.2724769330035405e-07 -0.00025020776109035747 2.451532548038507e-08 1.615269327480775e-08 -1.8749940775724279e-07 -1.0075478888589691e-07 -8.6367730963087826e-08 -0.00025023334340976285 -2.4656536901531621e-08 -4.6470928894291109e-08 -2.3441202925225445e-07 -2.6317440650677755e-09 1.1332136717148322e-08 -2.1468366431767207e-07 -5.463024700871179e-08 -3.5568358125779919e-08 -1.055848433596129e-07 2.4515325480385067e-08 1.6152693274807753e-08 -1.8749940775724279e-07 -1.0075478888589691e-07 -8.6367730963087826e-08 -0.00025023334340976285 -2.4656536901531621e-08 -4.6470928894291109e-08 -2.3441202925225445e-07 -2.4656536901531621e-08 -4.6470928894291109e-08 -2.3441202925225445e-07 5.0248037134977246e-09 -5.2720990687590254e-08 -1.8098150367160691e-07 -2.6317440650677755e-09 1.1332136717148322e-08 -2.1468366431767207e-07 -5.1940914361680369e-08 -1.2724769330035405e-07 -0.00025020776109035752 5.0248037134977287e-09 -5.2720990687590254e-08 -1.8098150367158224e-07 -2.6317440650677755e-09 1.1332136717148322e-08 -2.1468366431767207e-07 -4.8807952531479782e-09 1.6546708482201995e-08 -9.7709441583693451e-08 -5.1940914361680356e-08 -1.2724769330035405e-07 -0.00025020776109035747 -2.6317440650677755e-09 1.1332136717148322e-08 -2.1468366431767207e-07 -4.8807952531479782e-09 1.6546708482201995e-08 -9.7709441583693451e-08 -4.015708419190084e-08 -5.0912315914635498e-08 -0.00025020398668888831 -5.1940914361680356e-08 -1.2724769330035407e-07 -0.00025020776109035747 -2.6317440650677755e-09 1.1332136717148322e-08 -2.1468366431767207e-07 5.7103991761961269e-09 -9.189754864444923e-09 -7.2571557769607589e-08 -4.015708419190084e-08 -5.0912315914635498e-08 -0.00025020398668888831 3.7897891307165084e-09 2.5030884340247901e-09 -1.8649049483760925e-07 -2.6317440650677755e-09 1.1332136717148322e-08 -2.1468366431767207e-07 5.7103991761961269e-09 -9.189754864444923e-09 -7.2571557769607589e-08 -4.8807952531479782e-09 1.6546708482201995e-08 -9.7709441583693451e-08 -4.015708419190084e-08 -5.0912315914635498e-08 -0.00025020398668888831 5.7103991761961269e-09 -9.189754864444923e-09 -7.2571557769607589e-08 -4.8807952531479782e-09 1.6546708482201995e-08 -9.7709441583693451e-08 -5.109022312343975e-09 -8.4147681616585962e-08 -0.00025018507413545645 -4.015708419190084e-08 -5.0912315914635498e-08 -0.00025020398668888831 5.7103991761961269e-09 -9.189754864444923e-09 -7.2571557769607589e-08 -1.2701597023736491e-08 1.1314999334895e-08 -9.8543763430537728e-08 1.2402946992840323e-08 -4.2728827729082729e-08 -0.00025018016420011842 5.3191271019807429e-08 -2.6642587288946523e-08 -0.00025019539493019536 5.7103991761961269e-09 -9.189754864444923e-09 -7.2571557769607589e-08 -1.2701597023736491e-08 1.1314999334895e-08 -9.8543763430537728e-08 5.3191271019807429e-08 -2.6642587288946523e-08 -0.00025019539493019536 -1.2601065194094973e-08 4.7781306176367704e-09 -1.7697879196413051e-07 5.7103991761961269e-09 -9.189754864444923e-09 -7.2571557769607589e-08 -1.2701597023736491e-08 1.1314999334895e-08 -9.8543763430537728e-08 -5.109022312343975e-09 -8.4147681616585962e-08 -0.00025018507413545645 1.2402946992840323e-08 -4.2728827729082729e-08 -0.00025018016420011842 5.7103991761961269e-09 -9.189754864444923e-09 -7.2571557769607589e-08 -1.2701597023736491e-08 1.1314999334895e-08 -9.8543763430537728e-08 -4.8807952531479782e-09 1.6546708482201995e-08 -9.7709441583693451e-08 -5.109022312343975e-09 -8.4147681616585962e-08 -0.00025018507413545645 -1.2701597023736491e-08 1.1314999334895e-08 -9.8543763430537728e-08 -4.8807952531479782e-09 1.6546708482201995e-08 -9.7709441583693451e-08 2.9118623099835465e-08 -4.4973803751486886e-08 -1.3795280499343213e-07 1.9424314648130444e-08 -1.3542569447103803e-07 -0.00025019745934988589 5.0248037134977287e-09 -5.2720990687590254e-08 -1.8098150367158224e-07 -4.8807952531479889e-09 1.6546708482202012e-08 -9.7709441583693438e-08 -5.1940914361680356e-08 -1.2724769330035405e-07 -0.00025020776109035747 1.942431464813048e-08 -1.3542569447103805e-07 -0.00025019745934988589 5.0248037134977287e-09 -5.2720990687590254e-08 -1.8098150367158224e-07 -4.880795253147984e-09 1.6546708482202002e-08 -9.7709441583705786e-08 2.9118623099835465e-08 -4.4973803751486886e-08 -1.3795280499343213e-07 1.9424314648130444e-08 -1.3542569447103803e-07 -0.00025019745934988589 -1.2701597023736491e-08 1.1314999334895e-08 -9.8543763430537728e-08 -4.8807952531479782e-09 1.6546708482201995e-08 -9.7709441583693451e-08 -5.109022312343975e-09 -8.4147681616585962e-08 -0.00025018507413545645 1.9424314648130444e-08 -1.3542569447103803e-07 -0.00025019745934988589 -4.8807952531479782e-09 1.6546708482201995e-08 -9.7709441583693451e-08 -5.109022312343975e-09 -8.4147681616585962e-08 -0.00025018507413545645 -5.1940914361680356e-08 -1.2724769330035405e-07 -0.00025020776109035747 1.9424314648130444e-08 -1.3542569447103803e-07 -0.00025019745934988589 -1.2701597023736491e-08 1.1314999334895e-08 -9.8543763430537728e-08 -5.109022312343975e-09 -8.4147681616585962e-08 -0.00025018507413545645 3.6405689356574334e-08 -7.0375167481855368e-08 -0.00025018848982403743 1.9424314648130444e-08 -1.3542569447103803e-07 -0.00025019745934988589 -1.2701597023736491e-08 1.1314999334895e-08 -9.8543763430537728e-08 3.6405689356574334e-08 -7.0375167481855368e-08 -0.00025018848982403743 1.2402946992840355e-08 -4.2728827729082702e-08 -0.00025018016420011842 5.3191271019807389e-08 -2.6642587288946509e-08 -0.00025019539493019536 -1.2701597023736491e-08 1.1314999334895e-08 -9.8543763430537728e-08 -5.109022312343975e-09 -8.4147681616585962e-08 -0.00025018507413545645 3.6405689356574334e-08 -7.0375167481855368e-08 -0.00025018848982403743 1.2402946992840323e-08 -4.2728827729082729e-08 -0.00025018016420011842 5.7103991761961269e-09 -9.189754864444923e-09 -7.2571557769607589e-08 -5.109022312343975e-09 -8.4147681616585962e-08 -0.00025018507413545645 1.2402946992840323e-08 -4.2728827729082729e-08 -0.00025018016420011842 -4.015708419190084e-08 -5.0912315914635498e-08 -0.00025020398668888831 5.7103991761961269e-09 -9.189754864444923e-09 -7.2571557769607589e-08 1.2402946992840323e-08 -4.2728827729082729e-08 -0.00025018016420011842 -4.0157084191900847e-08 -5.0912315914635471e-08 -0.00025020398668888826 4.6049871309982251e-09 -1.6664807229212885e-10 -0.00025019722130685735 -4.8807952531479782e-09 1.6546708482201995e-08 -9.7709441583693451e-08 -5.109022312343975e-09 -8.4147681616585962e-08 -0.00025018507413545645 -4.015708419190084e-08 -5.0912315914635498e-08 -0.00025020398668888831 -5.1940914361680356e-08 -1.2724769330035405e-07 -0.00025020776109035747 -1.0075478888589691e-07 -8.6367730963087826e-08 -0.00025023334340976285 -2.6317440650677739e-09 1.1332136717148315e-08 -2.1468366431767207e-07 -4.015708419190084e-08 -5.0912315914635498e-08 -0.00025020398668888831 -5.1940914361680356e-08 -1.2724769330035405e-07 -0.00025020776109035747 -5.109022312343975e-09 -8.4147681616585962e-08 -0.00025018507413545645 -4.015708419190084e-08 -5.0912315914635498e-08 -0.00025020398668888831 -5.1940914361680356e-08 -1.2724769330035405e-07 -0.00025020776109035747 1.3426881953530946e-08 -1.0928213917655399e-07 -0.00050024183603021978 -5.109022312343975e-09 -8.4147681616585962e-08 -0.00025018507413545645 2.1585568608155909e-08 -7.384229229133834e-08 -0.00050023705327713439 -1.7763088572694871e-08 -5.5698635139338912e-08 -0.00050024072692774217 1.3426881953530946e-08 -1.0928213917655399e-07 -0.00050024183603021978 -5.109022312343975e-09 -8.4147681616585962e-08 -0.00025018507413545645 -4.015708419190084e-08 -5.0912315914635498e-08 -0.00025020398668888831 -1.7763088572694871e-08 -5.5698635139338912e-08 -0.00050024072692774217 1.3426881953530946e-08 -1.0928213917655399e-07 -0.00050024183603021978 -4.015708419190084e-08 -5.0912315914635498e-08 -0.00025020398668888831 -1.7763088572694871e-08 -5.5698635139338912e-08 -0.00050024072692774217 1.3426881953530946e-08 -1.0928213917655401e-07 -0.00050024183603021978 -4.4958311441776917e-08 -1.0091920827682727e-07 -0.000500251450020365 -1.0075478888589691e-07 -8.6367730963087826e-08 -0.00025023334340976285 -4.015708419190084e-08 -5.0912315914635504e-08 -0.00025020398668888831 -5.1940914361680356e-08 -1.2724769330035405e-07 -0.00025020776109035747 1.3426881953530946e-08 -1.0928213917655399e-07 -0.00050024183603021978 1.2402946992840323e-08 -4.2728827729082729e-08 -0.00025018016420011842 -4.015708419190084e-08 -5.0912315914635498e-08 -0.00025020398668888831 -1.7763088572694871e-08 -5.5698635139338912e-08 -0.00050024072692774217 4.6049871309982557e-09 -1.6664807229213278e-10 -0.00025019722130685735 -5.109022312343975e-09 -8.4147681616585962e-08 -0.00025018507413545645 1.2402946992840323e-08 -4.2728827729082729e-08 -0.00025018016420011842 2.1585568608155909e-08 -7.384229229133834e-08 -0.00050023705327713439 -1.7763088572694871e-08 -5.5698635139338912e-08 -0.00050024072692774217 1.2402946992840323e-08 -4.2728827729082729e-08 -0.00025018016420011842 2.1896962331894854e-08 -3.3945748210187888e-08 -0.00050023617907913015 -1.7763088572694877e-08 -5.5698635139338899e-08 -0.00050024072692774217 5.2855182073321137e-09 3.3977405201627268e-09 -0.00050024015126507978 -5.109022312343975e-09 -8.4147681616585962e-08 -0.00025018507413545645 1.2402946992840323e-08 -4.2728827729082729e-08 -0.00025018016420011842 -4.015708419190084e-08 -5.0912315914635498e-08 -0.00025020398668888831 -1.7763088572694871e-08 -5.5698635139338912e-08 -0.00050024072692774217 1.2402946992840323e-08 -4.2728827729082729e-08 -0.00025018016420011842 2.1585568608155909e-08 -7.384229229133834e-08 -0.00050023705327713439 2.1896962331894854e-08 -3.3945748210187888e-08 -0.00050023617907913015 -1.7763088572694871e-08 -5.5698635139338912e-08 -0.00050024072692774217 3.6405689356574334e-08 -7.0375167481855368e-08 -0.00025018848982403743 2.189696233189487e-08 -3.3945748210187868e-08 -0.00050023617907913015 5.1804561570856699e-08 -5.3006081235865543e-08 -0.00050023741580114064 5.473728295445395e-08 -1.5672700462394308e-08 -0.0005002419475431208 3.6405689356574334e-08 -7.0375167481855368e-08 -0.00025018848982403743 1.2402946992840323e-08 -4.2728827729082729e-08 -0.00025018016420011842 5.4737282954453963e-08 -1.5672700462394327e-08 -0.0005002419475431208 5.3191271019807429e-08 -2.6642587288946523e-08 -0.00025019539493019536 3.6405689356574334e-08 -7.0375167481855368e-08 -0.00025018848982403743 1.2402946992840323e-08 -4.2728827729082729e-08 -0.00025018016420011842 2.1896962331894877e-08 -3.3945748210187862e-08 -0.00050023617907913015 5.4737282954453943e-08 -1.5672700462394347e-08 -0.0005002419475431208 3.6405689356574334e-08 -7.0375167481855368e-08 -0.00025018848982403743 1.2402946992840323e-08 -4.2728827729082729e-08 -0.00025018016420011842 2.1585568608155909e-08 -7.384229229133834e-08 -0.00050023705327713439 2.1896962331894854e-08 -3.3945748210187888e-08 -0.00050023617907913015 -5.109022312343975e-09 -8.4147681616585962e-08 -0.00025018507413545645 3.6405689356574334e-08 -7.0375167481855368e-08 -0.00025018848982403743 1.2402946992840323e-08 -4.2728827729082729e-08 -0.00025018016420011842 2.1585568608155909e-08 -7.384229229133834e-08 -0.00050023705327713439 3.6405689356574334e-08 -7.0375167481855368e-08 -0.00025018848982403743 2.1585568608155909e-08 -7.384229229133834e-08 -0.00050023705327713439 2.1896962331894854e-08 -3.3945748210187888e-08 -0.00050023617907913015 5.1804561570856699e-08 -5.3006081235865537e-08 -0.00050023741580114064 -5.109022312343975e-09 -8.4147681616585962e-08 -0.00025018507413545645 -5.1940914361680356e-08 -1.2724769330035405e-07 -0.00025020776109035747 1.9424314648130444e-08 -1.3542569447103803e-07 -0.00025019745934988589 6.6421010714766906e-08 -8.791066770644301e-08 -0.00050023805665007652 -5.109022312343975e-09 -8.4147681616585962e-08 -0.00025018507413545645 2.1585568608155909e-08 -7.384229229133834e-08 -0.00050023705327713439 1.3426881953530946e-08 -1.0928213917655399e-07 -0.00050024183603021978 6.6421010714766906e-08 -8.791066770644301e-08 -0.00050023805665007652 -5.109022312343975e-09 -8.4147681616585962e-08 -0.00025018507413545645 -5.1940914361680356e-08 -1.2724769330035405e-07 -0.00025020776109035747 1.3426881953530946e-08 -1.0928213917655399e-07 -0.00050024183603021978 6.6421010714766906e-08 -8.791066770644301e-08 -0.00050023805665007652 -5.109022312343975e-09 -8.4147681616585962e-08 -0.00025018507413545645 3.6405689356574334e-08 -7.0375167481855368e-08 -0.00025018848982403743 2.1585568608155909e-08 -7.384229229133834e-08 -0.00050023705327713439 6.6421010714766906e-08 -8.791066770644301e-08 -0.00050023805665007652 -5.109022312343975e-09 -8.4147681616585962e-08 -0.00025018507413545645 3.6405689356574334e-08 -7.0375167481855368e-08 -0.00025018848982403743 1.9424314648130444e-08 -1.3542569447103803e-07 -0.00025019745934988589 6.6421010714766906e-08 -8.791066770644301e-08 -0.00050023805665007652 3.6405689356574334e-08 -7.0375167481855368e-08 -0.00025018848982403743 2.1585568608155909e-08 -7.384229229133834e-08 -0.00050023705327713439 5.1804561570856699e-08 -5.3006081235865537e-08 -0.00050023741580114064 6.6421010714766906e-08 -8.791066770644301e-08 -0.00050023805665007652 2.1585568608155909e-08 -7.384229229133834e-08 -0.00050023705327713439 1.3426881953530946e-08 -1.0928213917655399e-07 -0.00050024183603021978 6.6421010714766906e-08 -8.791066770644301e-08 -0.00050023805665007652 5.4070236637140555e-08 -9.7714493793847059e-08 -0.00075027449352672892 2.1585568608155909e-08 -7.384229229133834e-08 -0.00050023705327713439 5.1804561570856699e-08 -5.3006081235865537e-08 -0.00050023741580114064 6.6421010714766906e-08 -8.791066770644301e-08 -0.00050023805665007652 5.4070236637140555e-08 -9.7714493793847059e-08 -0.00075027449352672892 2.1585568608155909e-08 -7.384229229133834e-08 -0.00050023705327713439 2.1896962331894854e-08 -3.3945748210187888e-08 -0.00050023617907913015 5.1804561570856699e-08 -5.3006081235865537e-08 -0.00050023741580114064 1.9446258870483048e-08 -7.5921511202779287e-08 -0.00075027448187290138 2.1896962331894854e-08 -3.3945748210187888e-08 -0.00050023617907913015 5.1804561570856699e-08 -5.3006081235865537e-08 -0.00050023741580114064 5.4737282954453963e-08 -1.5672700462394327e-08 -0.0005002419475431208 5.3659635485249457e-08 -1.9712139887736218e-08 -0.00075027713252304618 2.1585568608155909e-08 -7.384229229133834e-08 -0.00050023705327713439 2.1896962331894854e-08 -3.3945748210187888e-08 -0.00050023617907913015 -1.7763088572694871e-08 -5.5698635139338912e-08 -0.00050024072692774217 -1.651461934703233e-08 -5.5258126422613687e-08 -0.00075027529645470433 2.1896962331894854e-08 -3.3945748210187888e-08 -0.00050023617907913015 -1.7763088572694871e-08 -5.5698635139338912e-08 -0.00050024072692774217 5.2855182073321385e-09 3.3977405201627314e-09 -0.00050024015126507978 -1.651461934703233e-08 -5.5258126422613687e-08 -0.00075027529645470433 -1.7763088572694871e-08 -5.5698635139338912e-08 -0.00050024072692774217 1.3426881953530946e-08 -1.0928213917655399e-07 -0.00050024183603021978 -4.4958311441776937e-08 -1.0091920827682727e-07 -0.000500251450020365 -1.9358064731067456e-09 -1.1165195407944778e-07 -0.0007502748600276487 2.1585568608155909e-08 -7.384229229133834e-08 -0.00050023705327713439 -1.7763088572694871e-08 -5.5698635139338912e-08 -0.00050024072692774217 1.3426881953530946e-08 -1.0928213917655399e-07 -0.00050024183603021978 -1.9358064731067414e-09 -1.1165195407944778e-07 -0.00075027486002764859 -1.7763088572694871e-08 -5.5698635139338912e-08 -0.00050024072692774217 -4.4958311441776943e-08 -1.0091920827682727e-07 -0.000500251450020365 -6.5683348630353143e-08 -4.3493399705118859e-08 -0.0005002454410581457 -5.7170960326111917e-08 -9.5808094098703218e-08 -0.00075027803755020768 -4.4958311441776937e-08 -1.0091920827682727e-07 -0.000500251450020365 -8.7987115773929424e-08 -6.6310499983682112e-08 -0.00050024670705173821 -6.5683348630353143e-08 -4.3493399705118859e-08 -0.0005002454410581457 -5.7170960326111917e-08 -9.5808094098703218e-08 -0.00075027803755020768 -1.0075478888589691e-07 -8.6367730963087826e-08 -0.00025023334340976285 -4.0157084191900834e-08 -5.0912315914635498e-08 -0.00025020398668888831 1.3426881953530952e-08 -1.09282139176554e-07 -0.00050024183603021967 -4.4958311441776937e-08 -1.0091920827682727e-07 -0.000500251450020365 -8.4334850803997776e-08 -2.3212616966027875e-08 -0.00025021819016785252 -1.0075478888589691e-07 -8.6367730963087826e-08 -0.00025023334340976285 -4.015708419190084e-08 -5.0912315914635498e-08 -0.00025020398668888831 -4.4958311441776937e-08 -1.0091920827682727e-07 -0.000500251450020365 -1.3343361732137125e-07 -1.9517228944802359e-08 -0.00025021886095123714 -8.4334850803997776e-08 -2.3212616966027872e-08 -0.00025021819016785252 -1.0075478888589691e-07 -8.6367730963087826e-08 -0.00025023334340976285 -4.4958311441776937e-08 -1.0091920827682727e-07 -0.000500251450020365 -8.4334850803997776e-08 -2.3212616966027875e-08 -0.00025021819016785252 -1.7763088572694851e-08 -5.5698635139338919e-08 -0.00050024072692774217 -6.5683348630353156e-08 -4.3493399705118859e-08 -0.00050024544105814581 -5.0932247060171055e-08 3.0316840469202586e-09 -0.00050024263792330774 -8.4334850803997776e-08 -2.3212616966027875e-08 -0.00025021819016785252 -1.7763088572694851e-08 -5.5698635139338886e-08 -0.00050024072692774217 -4.495831144177695e-08 -1.0091920827682726e-07 -0.00050025145002036489 -6.5683348630353143e-08 -4.3493399705118859e-08 -0.0005002454410581457 -8.4334850803997776e-08 -2.3212616966027875e-08 -0.00025021819016785252 -4.015708419190084e-08 -5.0912315914635498e-08 -0.00025020398668888831 -1.7763088572694871e-08 -5.5698635139338912e-08 -0.00050024072692774217 -4.4958311441776937e-08 -1.0091920827682727e-07 -0.000500251450020365 -8.4334850803997776e-08 -2.3212616966027875e-08 -0.00025021819016785252 -4.015708419190084e-08 -5.0912315914635498e-08 -0.00025020398668888831 -1.7763088572694871e-08 -5.5698635139338912e-08 -0.00050024072692774217 -5.0932247060171042e-08 3.031684046920254e-09 -0.00050024263792330774 -8.4334850803997776e-08 -2.3212616966027875e-08 -0.00025021819016785252 -4.4958311441776957e-08 -1.0091920827682727e-07 -0.000500251450020365 -8.7987115773929424e-08 -6.6310499983682125e-08 -0.00050024670705173821 -6.5683348630353143e-08 -4.3493399705118859e-08 -0.0005002454410581457 -1.3343361732137125e-07 -1.9517228944802359e-08 -0.00025021886095123714 -8.4334850803997776e-08 -2.3212616966027875e-08 -0.00025021819016785252 -4.4958311441776937e-08 -1.0091920827682727e-07 -0.000500251450020365 -8.7987115773929424e-08 -6.6310499983682112e-08 -0.00050024670705173821 -8.4334850803997776e-08 -2.3212616966027875e-08 -0.00025021819016785252 -8.7987115773929424e-08 -6.6310499983682112e-08 -0.00050024670705173821 -6.5683348630353143e-08 -4.3493399705118859e-08 -0.0005002454410581457 -1.0916644725098241e-07 -1.3238989244960698e-08 -0.00050025386220562936 -1.3343361732137125e-07 -1.9517228944802359e-08 -0.00025021886095123714 -8.4334850803997776e-08 -2.3212616966027875e-08 -0.00025021819016785252 -8.7987115773929424e-08 -6.6310499983682112e-08 -0.00050024670705173821 -1.2759872420801931e-07 4.9916602955164639e-08 -0.00025023837548376714 -8.7987115773929424e-08 -6.6310499983682112e-08 -0.00050024670705173821 -6.5683348630353143e-08 -4.3493399705118859e-08 -0.0005002454410581457 -1.0916644725098241e-07 -1.3238989244960698e-08 -0.00050025386220562936 -9.7770367953387412e-08 -5.4076971546156669e-08 -0.00075027636963191538 -1.7763088572694871e-08 -5.5698635139338912e-08 -0.00050024072692774217 -5.0932247060171042e-08 3.031684046920254e-09 -0.00050024263792330774 5.2855182073321385e-09 3.3977405201627314e-09 -0.00050024015126507978 -5.0701442039059469e-08 5.2386630177892792e-09 -0.00075027636228658465 -1.7763088572694871e-08 -5.5698635139338912e-08 -0.00050024072692774217 -6.5683348630353143e-08 -4.3493399705118859e-08 -0.0005002454410581457 -5.0932247060171042e-08 3.031684046920254e-09 -0.00050024263792330774 -5.0701442039059469e-08 5.2386630177892841e-09 -0.00075027636228658465 -5.0932247060171042e-08 3.031684046920254e-09 -0.00050024263792330774 -1.983943086492959e-08 3.6185946767029223e-08 -0.00050023853632976604 5.2855182073321385e-09 3.3977405201627314e-09 -0.00050024015126507978 -5.0701442039059476e-08 5.2386630177892783e-09 -0.00075027636228658455 -6.5683348630353143e-08 -4.3493399705118859e-08 -0.0005002454410581457 -5.0932247060171042e-08 3.031684046920254e-09 -0.00050024263792330774 -1.0916644725098241e-07 -1.3238989244960698e-08 -0.00050025386220562936 -1.1167803932505964e-07 1.9377224298391523e-09 -0.00075027954691668009 -8.4334850803997776e-08 -2.3212616966027875e-08 -0.00025021819016785252 -6.5683348630353143e-08 -4.3493399705118859e-08 -0.0005002454410581457 -5.0932247060171042e-08 3.0316840469202549e-09 -0.00050024263792330774 -1.0916644725098241e-07 -1.3238989244960698e-08 -0.00050025386220562936 -8.4334850803997776e-08 -2.3212616966027875e-08 -0.00025021819016785252 -1.0916644725098241e-07 -1.3238989244960712e-08 -0.00050025386220562947 -5.4681293732441403e-08 1.3878495900528862e-08 -0.00025020481899141816 -1.2759872420801931e-07 4.9916602955164639e-08 -0.00025023837548376714 -8.4334850803997776e-08 -2.3212616966027875e-08 -0.00025021819016785252 -5.0932247060171048e-08 3.0316840469202561e-09 -0.00050024263792330774 -1.0916644725098241e-07 -1.3238989244960698e-08 -0.00050025386220562936 -5.4681293732441403e-08 1.3878495900528862e-08 -0.00025020481899141816 -8.4334850803997776e-08 -2.3212616966027875e-08 -0.00025021819016785252 -8.7987115773929424e-08 -6.6310499983682112e-08 -0.00050024670705173821 -1.0916644725098241e-07 -1.3238989244960698e-08 -0.00050025386220562936 -1.2759872420801931e-07 4.9916602955164639e-08 -0.00025023837548376714 -8.4334850803997776e-08 -2.3212616966027875e-08 -0.00025021819016785252 -4.015708419190084e-08 -5.0912315914635498e-08 -0.00025020398668888831 -5.0932247060171042e-08 3.031684046920254e-09 -0.00050024263792330774 -5.4681293732441403e-08 1.3878495900528862e-08 -0.00025020481899141816 -5.0932247060171042e-08 3.031684046920254e-09 -0.00050024263792330774 -7.0313969880154957e-09 4.0878661183260243e-08 -0.00025017991926911998 4.6049871309982607e-09 -1.6664807229215095e-10 -0.00025019722130685741 -5.4681293732441403e-08 1.3878495900528862e-08 -0.00025020481899141816 -4.015708419190084e-08 -5.0912315914635498e-08 -0.00025020398668888831 -5.0932247060171029e-08 3.0316840469202573e-09 -0.00050024263792330795 4.6049871309982557e-09 -1.6664807229213278e-10 -0.00025019722130685735 -5.4681293732441403e-08 1.3878495900528862e-08 -0.00025020481899141816 -5.1284875863106154e-08 5.0052426183993973e-08 -0.00050023973439031915 -1.983943086492959e-08 3.6185946767029223e-08 -0.00050023853632976604 -3.5775643809898226e-08 6.6278640757744596e-08 -0.00025019369378571796 -2.5386091934359945e-08 6.9258134957566942e-08 -0.00050024056826672816 -5.0932247060171042e-08 3.031684046920254e-09 -0.00050024263792330774 -7.0313969880155072e-09 4.0878661183260276e-08 -0.00025017991926911992 -3.5775643809898226e-08 6.6278640757744596e-08 -0.00025019369378571796 -5.4681293732441403e-08 1.3878495900528862e-08 -0.00025020481899141816 -1.983943086492959e-08 3.6185946767029223e-08 -0.00050023853632976604 -7.0313969880154957e-09 4.0878661183260243e-08 -0.00025017991926911998 -3.5775643809898226e-08 6.6278640757744596e-08 -0.00025019369378571796 -5.4985925218808366e-10 8.095920406222033e-08 -0.00025019045325709138 -5.0932247060171042e-08 3.031684046920254e-09 -0.00050024263792330774 -5.1284875863106154e-08 5.0052426183993973e-08 -0.00050023973439031915 -1.983943086492959e-08 3.6185946767029223e-08 -0.00050023853632976604 -3.5775643809898226e-08 6.6278640757744596e-08 -0.00025019369378571796 -5.0932247060171042e-08 3.031684046920254e-09 -0.00050024263792330774 -1.983943086492959e-08 3.6185946767029223e-08 -0.00050023853632976604 -7.0313969880154957e-09 4.0878661183260243e-08 -0.00025017991926911998 -3.5775643809898226e-08 6.6278640757744596e-08 -0.00025019369378571796 -5.0932247060171042e-08 3.031684046920254e-09 -0.00050024263792330774 -1.0132651338377388e-07 4.3164032121556738e-08 -0.00050024815173480269 -5.1284875863106154e-08 5.0052426183993973e-08 -0.00050023973439031915 -3.5775643809898226e-08 6.6278640757744596e-08 -0.00025019369378571796 -5.0932247060171042e-08 3.031684046920254e-09 -0.00050024263792330774 -1.0132651338377387e-07 4.3164032121556738e-08 -0.00050024815173480269 -3.5775643809898226e-08 6.6278640757744596e-08 -0.00025019369378571796 -5.4681293732441403e-08 1.3878495900528862e-08 -0.00025020481899141816 -1.0916644725098241e-07 -1.3238989244960698e-08 -0.00050025386220562936 -1.0132651338377388e-07 4.3164032121556744e-08 -0.00050024815173480279 -5.4681293732441403e-08 1.3878495900528862e-08 -0.00025020481899141816 -8.5148325784730448e-08 1.0636635324418574e-07 -0.00025022554003299448 -1.0916644725098241e-07 -1.3238989244960698e-08 -0.00050025386220562936 -5.4681293732441416e-08 1.3878495900528839e-08 -0.00025020481899141821 -1.2759872420801931e-07 4.9916602955164639e-08 -0.00025023837548376714 -8.5148325784730448e-08 1.0636635324418574e-07 -0.00025022554003299448 -5.0932247060171042e-08 3.031684046920254e-09 -0.00050024263792330774 -1.0916644725098241e-07 -1.3238989244960698e-08 -0.00050025386220562936 -1.013265133837739e-07 4.3164032121556724e-08 -0.00050024815173480269 -5.4681293732441403e-08 1.3878495900528862e-08 -0.00025020481899141816 -1.013265133837739e-07 4.3164032121556724e-08 -0.00050024815173480269 -3.5775643809898246e-08 6.6278640757744622e-08 -0.0002501936937857179 -5.4681293732441403e-08 1.3878495900528862e-08 -0.00025020481899141816 -8.5148325784730448e-08 1.0636635324418574e-07 -0.00025022554003299448 -5.0932247060171042e-08 3.031684046920254e-09 -0.00050024263792330774 -1.0916644725098241e-07 -1.3238989244960698e-08 -0.00050025386220562936 -1.013265133837739e-07 4.3164032121556724e-08 -0.00050024815173480269 -1.1167803932505964e-07 1.9377224298391523e-09 -0.00075027954691668009 -5.0932247060171042e-08 3.031684046920254e-09 -0.00050024263792330774 -1.0132651338377388e-07 4.3164032121556738e-08 -0.00050024815173480269 -5.1284875863106154e-08 5.0052426183993973e-08 -0.00050023973439031915 -9.5744675234072738e-08 5.7470418783861315e-08 -0.00075027825011892574 -5.1284875863106154e-08 5.0052426183993973e-08 -0.00050023973439031915 -1.983943086492959e-08 3.6185946767029223e-08 -0.00050023853632976604 -2.5386091934359945e-08 6.9258134957566942e-08 -0.00050024056826672816 -1.9290632859786371e-08 3.6142341124980069e-08 -0.00075027598246758744 -5.0932247060171042e-08 3.031684046920254e-09 -0.00050024263792330774 -5.1284875863106154e-08 5.0052426183993973e-08 -0.00050023973439031915 -1.983943086492959e-08 3.6185946767029223e-08 -0.00050023853632976604 -5.0701442039059476e-08 5.2386630177892783e-09 -0.00075027636228658455 -1.983943086492959e-08 3.6185946767029223e-08 -0.00050023853632976604 5.2855182073321385e-09 3.3977405201627314e-09 -0.00050024015126507978 1.2954610733142013e-08 5.6980233314405702e-08 -0.0005002458618424189 4.8976384880050845e-09 1.8458338208642549e-09 -0.00075027574667114528 -1.983943086492959e-08 3.6185946767029223e-08 -0.00050023853632976604 1.2954610733142013e-08 5.6980233314405702e-08 -0.0005002458618424189 -2.5386091934359945e-08 6.9258134957566942e-08 -0.00050024056826672816 1.0870337221934634e-08 5.7028204953269227e-08 -0.00075027890328412399 5.2855182073321385e-09 3.3977405201627314e-09 -0.00050024015126507978 5.4737282954453963e-08 -1.5672700462394327e-08 -0.0005002419475431208 5.7241913884178313e-08 3.4702006978312205e-08 -0.00050025569006567313 5.3659635485249451e-08 -1.9712139887736218e-08 -0.00075027713252304607 2.1896962331894854e-08 -3.3945748210187888e-08 -0.00050023617907913015 5.2855182073321385e-09 3.3977405201627314e-09 -0.00050024015126507978 5.4737282954453963e-08 -1.5672700462394324e-08 -0.0005002419475431208 5.3659635485249457e-08 -1.9712139887736218e-08 -0.00075027713252304618 5.2855182073321385e-09 3.3977405201627314e-09 -0.00050024015126507978 5.7241913884178313e-08 3.4702006978312205e-08 -0.00050025569006567313 1.2954610733142013e-08 5.6980233314405702e-08 -0.0005002458618424189 4.8976384880050845e-09 1.8458338208642549e-09 -0.00075027574667114528 5.2855182073321385e-09 3.3977405201627314e-09 -0.00050024015126507978 6.9849444671862393e-08 1.962313830911278e-08 -0.00025024114380259901 1.2954610733142013e-08 5.6980233314405702e-08 -0.0005002458618424189 3.7098911429180095e-08 5.439573528532208e-08 -0.00025020751472149498 5.7241913884178313e-08 3.4702006978312205e-08 -0.00050025569006567313 6.9849444671862393e-08 1.962313830911278e-08 -0.00025024114380259901 4.4878045432132881e-08 1.0091057764059225e-07 -0.00050026552020992533 1.2954610733142013e-08 5.6980233314405702e-08 -0.0005002458618424189 5.2855182073321385e-09 3.3977405201627314e-09 -0.00050024015126507978 5.7241913884178313e-08 3.4702006978312205e-08 -0.00050025569006567313 6.9849444671862393e-08 1.962313830911278e-08 -0.00025024114380259901 1.2954610733142013e-08 5.6980233314405702e-08 -0.0005002458618424189 5.2855182073321385e-09 3.3977405201627314e-09 -0.00050024015126507978 4.6049871309982557e-09 -1.6664807229213278e-10 -0.00025019722130685735 6.9849444671862393e-08 1.96231383091128e-08 -0.00025024114380259901 3.7098911429180101e-08 5.439573528532208e-08 -0.00025020751472149504 1.2402946992840323e-08 -4.2728827729082729e-08 -0.00025018016420011842 5.4737282954453963e-08 -1.5672700462394327e-08 -0.0005002419475431208 4.6049871309982557e-09 -1.6664807229213278e-10 -0.00025019722130685735 5.3191271019807429e-08 -2.6642587288946523e-08 -0.00025019539493019536 1.2402946992840323e-08 -4.2728827729082729e-08 -0.00025018016420011842 5.2855182073321385e-09 3.3977405201627314e-09 -0.00050024015126507978 5.4737282954453963e-08 -1.5672700462394327e-08 -0.0005002419475431208 4.6049871309982557e-09 -1.6664807229213278e-10 -0.00025019722130685735 5.2855182073321385e-09 3.3977405201627314e-09 -0.00050024015126507978 5.4737282954453963e-08 -1.5672700462394327e-08 -0.0005002419475431208 5.7241913884178313e-08 3.4702006978312205e-08 -0.00050025569006567313 6.9849444671862393e-08 1.962313830911278e-08 -0.00025024114380259901 5.4737282954453963e-08 -1.5672700462394327e-08 -0.0005002419475431208 4.6049871309982673e-09 -1.6664807229215341e-10 -0.0002501972213068573 5.3191271019807429e-08 -2.6642587288946523e-08 -0.00025019539493019536 6.9849444671862393e-08 1.962313830911278e-08 -0.00025024114380259901 5.2855182073321385e-09 3.3977405201627314e-09 -0.00050024015126507978 5.4737282954453963e-08 -1.5672700462394327e-08 -0.0005002419475431208 4.6049871309982557e-09 -1.6664807229213278e-10 -0.00025019722130685735 6.9849444671862393e-08 1.962313830911278e-08 -0.00025024114380259901 1.2402946992840323e-08 -4.2728827729082729e-08 -0.00025018016420011842 2.1896962331894854e-08 -3.3945748210187888e-08 -0.00050023617907913015 5.2855182073321385e-09 3.3977405201627314e-09 -0.00050024015126507978 5.4737282954453963e-08 -1.5672700462394327e-08 -0.0005002419475431208 -5.0932247060171042e-08 3.031684046920254e-09 -0.00050024263792330774 5.2855182073321385e-09 3.3977405201627314e-09 -0.00050024015126507978 -7.0313969880154957e-09 4.0878661183260243e-08 -0.00025017991926911998 4.6049871309982416e-09 -1.6664807229217303e-10 -0.00025019722130685724 -4.015708419190084e-08 -5.0912315914635498e-08 -0.00025020398668888831 -1.7763088572694871e-08 -5.5698635139338912e-08 -0.00050024072692774217 -5.0932247060171075e-08 3.0316840469202553e-09 -0.00050024263792330774 4.6049871309982557e-09 -1.6664807229213278e-10 -0.00025019722130685735 1.2402946992840323e-08 -4.2728827729082729e-08 -0.00025018016420011842 -1.7763088572694854e-08 -5.5698635139338906e-08 -0.00050024072692774206 5.2855182073321203e-09 3.3977405201627252e-09 -0.00050024015126507978 4.6049871309982557e-09 -1.6664807229213278e-10 -0.00025019722130685735 -1.7763088572694871e-08 -5.5698635139338912e-08 -0.00050024072692774217 -5.0932247060171042e-08 3.031684046920254e-09 -0.00050024263792330774 5.2855182073321385e-09 3.3977405201627314e-09 -0.00050024015126507978 4.6049871309982557e-09 -1.6664807229213278e-10 -0.00025019722130685735 -5.0932247060171042e-08 3.031684046920254e-09 -0.00050024263792330774 -1.983943086492959e-08 3.6185946767029223e-08 -0.00050023853632976604 5.2855182073321385e-09 3.3977405201627314e-09 -0.00050024015126507978 -7.0313969880154957e-09 4.0878661183260243e-08 -0.00025017991926911998 -1.983943086492959e-08 3.6185946767029223e-08 -0.00050023853632976604 5.2855182073321385e-09 3.3977405201627314e-09 -0.00050024015126507978 -7.0313969880154957e-09 4.0878661183260243e-08 -0.00025017991926911998 1.2954610733142013e-08 5.6980233314405702e-08 -0.0005002458618424189 5.2855182073321385e-09 3.3977405201627314e-09 -0.00050024015126507978 -7.031396988015494e-09 4.0878661183260236e-08 -0.00025017991926911998 4.6049871309982557e-09 -1.666480722921327e-10 -0.00025019722130685735 3.7098911429180121e-08 5.4395735285322073e-08 -0.00025020751472149498 5.2855182073321385e-09 3.3977405201627314e-09 -0.00050024015126507978 -7.0313969880154981e-09 4.0878661183260236e-08 -0.00025017991926912003 1.2954610733142013e-08 5.6980233314405702e-08 -0.0005002458618424189 3.7098911429180128e-08 5.4395735285322073e-08 -0.00025020751472149498 -1.983943086492959e-08 3.6185946767029223e-08 -0.00050023853632976604 -7.0313969880154957e-09 4.0878661183260243e-08 -0.00025017991926911998 1.2954610733142013e-08 5.6980233314405702e-08 -0.0005002458618424189 -5.4985925218808366e-10 8.095920406222033e-08 -0.00025019045325709138 -7.0313969880154957e-09 4.0878661183260243e-08 -0.00025017991926911998 1.2954610733142013e-08 5.6980233314405702e-08 -0.0005002458618424189 3.7098911429180082e-08 5.439573528532208e-08 -0.00025020751472149498 -5.4985925218808366e-10 8.095920406222033e-08 -0.00025019045325709138 -7.0313969880154957e-09 4.0878661183260243e-08 -0.00025017991926911998 4.6049871309982557e-09 -1.6664807229213278e-10 -0.00025019722130685735 -6.1942140560397365e-09 8.8918341075117855e-09 -6.9361775511687667e-08 -5.4681293732441403e-08 1.3878495900528862e-08 -0.00025020481899141816 -7.0313969880154957e-09 4.0878661183260243e-08 -0.00025017991926911998 4.6049871309982557e-09 -1.6664807229213278e-10 -0.00025019722130685735 -6.1942140560397365e-09 8.8918341075117855e-09 -6.9361775511687667e-08 3.7098911429180082e-08 5.4395735285322087e-08 -0.00025020751472149498 -4.015708419190084e-08 -5.0912315914635498e-08 -0.00025020398668888831 4.6049871309982557e-09 -1.6664807229213278e-10 -0.00025019722130685735 3.7897891307165084e-09 2.5030884340247901e-09 -1.8649049483760925e-07 -5.4681293732441403e-08 1.3878495900528862e-08 -0.00025020481899141816 4.6049871309982557e-09 -1.6664807229213278e-10 -0.00025019722130685735 5.3191271019807429e-08 -2.6642587288946523e-08 -0.00025019539493019536 6.9849444671862393e-08 1.962313830911278e-08 -0.00025024114380259901 -1.9810297649654417e-08 -1.3053250391249197e-08 -2.5384930960221999e-07 5.7103991761961269e-09 -9.189754864444923e-09 -7.2571557769607589e-08 1.2402946992840323e-08 -4.2728827729082729e-08 -0.00025018016420011842 4.6049871309982557e-09 -1.6664807229213278e-10 -0.00025019722130685735 5.3191271019807429e-08 -2.6642587288946523e-08 -0.00025019539493019536 6.9849444671862393e-08 1.962313830911278e-08 -0.00025024114380259901 -1.9810297649654417e-08 -1.3053250391249197e-08 -2.5384930960221999e-07 1.0163473535700391e-07 8.6141546510143736e-08 -0.0002502573216785572 3.7098911429180082e-08 5.4395735285322087e-08 -0.00025020751472149498 4.6049871309982557e-09 -1.6664807229213278e-10 -0.00025019722130685735 6.9849444671862393e-08 1.962313830911278e-08 -0.00025024114380259901 -1.9810297649654417e-08 -1.3053250391249197e-08 -2.5384930960221999e-07 3.7098911429180082e-08 5.4395735285322087e-08 -0.00025020751472149498 4.6049871309982557e-09 -1.6664807229213278e-10 -0.00025019722130685735 -1.981029764965442e-08 -1.3053250391249216e-08 -2.5384930960218679e-07 3.7098911429180082e-08 5.4395735285322087e-08 -0.00025020751472149498 -6.1794431233242538e-10 -1.3447579236259567e-08 -1.8495016390480627e-07 4.6049871309982557e-09 -1.6664807229213278e-10 -0.00025019722130685735 -1.9810297649654407e-08 -1.3053250391249195e-08 -2.5384930960227319e-07 3.7897891307165084e-09 2.5030884340247909e-09 -1.8649049483762245e-07 -6.1794431233243179e-10 -1.3447579236259575e-08 -1.8495016390479285e-07 5.3191271019807429e-08 -2.6642587288946523e-08 -0.00025019539493019536 -1.9810297649654427e-08 -1.3053250391249198e-08 -2.5384930960219923e-07 -1.2601065194094973e-08 4.7781306176367704e-09 -1.7697879196413051e-07 3.7897891307165018e-09 2.5030884340247893e-09 -1.8649049483760927e-07 5.7103991761961269e-09 -9.189754864444923e-09 -7.2571557769607589e-08 4.6049871309982557e-09 -1.6664807229213278e-10 -0.00025019722130685735 5.3191271019807429e-08 -2.6642587288946523e-08 -0.00025019539493019536 3.7897891307165084e-09 2.5030884340247901e-09 -1.8649049483760925e-07 4.6049871309982557e-09 -1.6664807229213278e-10 -0.00025019722130685735 5.3191271019807429e-08 -2.6642587288946523e-08 -0.00025019539493019536 -1.9810297649654417e-08 -1.3053250391249197e-08 -2.5384930960221999e-07 3.7897891307165084e-09 2.5030884340247901e-09 -1.8649049483760925e-07 5.7103991761961269e-09 -9.189754864444923e-09 -7.2571557769607589e-08 5.3191271019807429e-08 -2.6642587288946523e-08 -0.00025019539493019536 -1.2601065194094973e-08 4.7781306176367704e-09 -1.7697879196413051e-07 3.7897891307165084e-09 2.5030884340247901e-09 -1.8649049483760925e-07 -2.6317440650677755e-09 1.1332136717148322e-08 -2.1468366431767207e-07 -4.015708419190084e-08 -5.0912315914635498e-08 -0.00025020398668888831 3.7897891307165084e-09 2.5030884340247901e-09 -1.8649049483760925e-07 -5.4681293732441422e-08 1.3878495900528907e-08 -0.00025020481899141816 4.6049871309982557e-09 -1.6664807229213278e-10 -0.00025019722130685735 3.7897891307165084e-09 2.5030884340247901e-09 -1.8649049483760925e-07 -6.1942140560397365e-09 8.8918341075117855e-09 -6.9361775511687667e-08 -5.4681293732441403e-08 1.3878495900528862e-08 -0.00025020481899141816 5.7103991761961269e-09 -9.189754864444923e-09 -7.2571557769607589e-08 -4.0157084191900807e-08 -5.0912315914635478e-08 -0.00025020398668888831 4.6049871309982292e-09 -1.6664807229215429e-10 -0.00025019722130685735 3.7897891307165084e-09 2.5030884340247901e-09 -1.8649049483760925e-07 4.6049871309982557e-09 -1.6664807229213278e-10 -0.00025019722130685735 -6.1942140560397282e-09 8.8918341075117954e-09 -6.9361775511758686e-08 3.7098911429180082e-08 5.4395735285322087e-08 -0.00025020751472149498 -6.1794431233243127e-10 -1.3447579236259627e-08 -1.849501639047924e-07 -6.1942140560397365e-09 8.8918341075117855e-09 -6.9361775511687667e-08 3.7098911429180082e-08 5.4395735285322087e-08 -0.00025020751472149498 5.4298372607251153e-09 -1.6140607097894975e-08 -8.8469819180789511e-08 -6.1794431233242331e-10 -1.3447579236259577e-08 -1.8495016390479282e-07 -7.0313969880154957e-09 4.0878661183260243e-08 -0.00025017991926911998 -6.1942140560397365e-09 8.8918341075117855e-09 -6.9361775511687667e-08 3.7098911429180082e-08 5.4395735285322087e-08 -0.00025020751472149498 5.4298372607251153e-09 -1.6140607097894978e-08 -8.8469819180784719e-08 4.6049871309982557e-09 -1.6664807229213278e-10 -0.00025019722130685735 3.7897891307165084e-09 2.5030884340247901e-09 -1.8649049483760925e-07 -6.1942140560397398e-09 8.891834107511802e-09 -6.9361775511639678e-08 -6.17944312332414e-10 -1.3447579236259595e-08 -1.8495016390479298e-07 -7.0313969880154957e-09 4.0878661183260243e-08 -0.00025017991926911998 -6.1942140560397365e-09 8.8918341075117855e-09 -6.9361775511687667e-08 1.3274555724770519e-08 -1.1032833996608293e-08 -1.0743404880336399e-07 -5.4681293732441403e-08 1.3878495900528862e-08 -0.00025020481899141816 -6.1942140560397365e-09 8.8918341075117855e-09 -6.9361775511687667e-08 1.3274555724770519e-08 -1.1032833996608293e-08 -1.0743404880336399e-07 -5.4681293732441403e-08 1.3878495900528859e-08 -0.00025020481899141816 9.3687532004383314e-09 -6.9492358999324175e-09 -2.3280771140917857e-07 1.3274555724770519e-08 -1.1032833996608293e-08 -1.0743404880336399e-07 -5.4681293732441403e-08 1.3878495900528862e-08 -0.00025020481899141816 9.3687532004383314e-09 -6.9492358999324175e-09 -2.3280771140917857e-07 -8.5148325784730448e-08 1.0636635324418574e-07 -0.00025022554003299448 -7.0313969880154957e-09 4.0878661183260243e-08 -0.00025017991926911998 -6.1942140560397365e-09 8.8918341075117855e-09 -6.9361775511687667e-08 1.3274555724770519e-08 -1.1032833996608293e-08 -1.0743404880336399e-07 5.4298372607251153e-09 -1.6140607097894978e-08 -8.8469819180784719e-08 -7.0313969880154957e-09 4.0878661183260243e-08 -0.00025017991926911998 1.3274555724770514e-08 -1.1032833996608285e-08 -1.0743404880336399e-07 -3.5775643809898226e-08 6.6278640757744596e-08 -0.00025019369378571796 -5.4681293732441403e-08 1.3878495900528862e-08 -0.00025020481899141816 1.3274555724770519e-08 -1.1032833996608293e-08 -1.0743404880336399e-07 -3.5775643809898226e-08 6.6278640757744596e-08 -0.00025019369378571796 -5.4681293732441403e-08 1.3878495900528862e-08 -0.00025020481899141816 -8.5148325784730448e-08 1.0636635324418574e-07 -0.00025022554003299448 -7.0313969880154957e-09 4.0878661183260243e-08 -0.00025017991926911998 1.3274555724770508e-08 -1.1032833996608292e-08 -1.0743404880336399e-07 -3.5775643809898226e-08 6.6278640757744596e-08 -0.00025019369378571796 -5.4985925218808366e-10 8.095920406222033e-08 -0.00025019045325709138 2.451532548038507e-08 1.615269327480775e-08 -1.8749940775724279e-07 -2.6317440650677755e-09 1.1332136717148322e-08 -2.1468366431767207e-07 -5.4681293732441403e-08 1.3878495900528862e-08 -0.00025020481899141816 9.3687532004383314e-09 -6.9492358999324175e-09 -2.3280771140917857e-07 3.7897891307165084e-09 2.5030884340247901e-09 -1.8649049483760925e-07 -6.1942140560397365e-09 8.8918341075117855e-09 -6.9361775511687667e-08 -5.4681293732441403e-08 1.3878495900528866e-08 -0.00025020481899141816 9.3687532004383314e-09 -6.9492358999324175e-09 -2.3280771140917857e-07 -2.6317440650677755e-09 1.1332136717148322e-08 -2.1468366431767207e-07 3.7897891307165084e-09 2.5030884340247901e-09 -1.8649049483760925e-07 -5.4681293732441429e-08 1.3878495900528871e-08 -0.00025020481899141827 9.3687532004383314e-09 -6.9492358999324175e-09 -2.3280771140917857e-07 -1.3343361732137125e-07 -1.9517228944802359e-08 -0.00025021886095123714 2.4515325480385018e-08 1.6152693274807677e-08 -1.8749940775719152e-07 -5.229604902069402e-08 -4.3714243651567177e-09 -2.4535999092583786e-07 -1.2759872420801931e-07 4.9916602955164639e-08 -0.00025023837548376714 2.451532548038507e-08 1.615269327480775e-08 -1.8749940775724279e-07 -5.4681293732441429e-08 1.3878495900528867e-08 -0.00025020481899141816 9.3687532004383314e-09 -6.9492358999324175e-09 -2.3280771140917857e-07 -1.2759872420801931e-07 4.9916602955164639e-08 -0.00025023837548376714 2.451532548038507e-08 1.615269327480775e-08 -1.8749940775724279e-07 9.3687532004383314e-09 -6.9492358999324175e-09 -2.3280771140917857e-07 -5.229604902069404e-08 -4.3714243651567227e-09 -2.453599909258656e-07 -1.2759872420801931e-07 4.9916602955164639e-08 -0.00025023837548376714 2.451532548038507e-08 1.615269327480775e-08 -1.8749940775724279e-07 -8.4334850803997776e-08 -2.3212616966027875e-08 -0.00025021819016785252 -5.4681293732441409e-08 1.3878495900528864e-08 -0.00025020481899141816 -1.2759872420801931e-07 4.9916602955164639e-08 -0.00025023837548376714 -5.4681293732441403e-08 1.3878495900528862e-08 -0.00025020481899141816 9.3687532004383314e-09 -6.9492358999324175e-09 -2.3280771140917857e-07 -1.2759872420801931e-07 4.9916602955164639e-08 -0.00025023837548376714 -8.5148325784730448e-08 1.0636635324418574e-07 -0.00025022554003299448 9.3687532004383314e-09 -6.9492358999324175e-09 -2.3280771140917857e-07 -5.229604902069404e-08 -4.3714243651567227e-09 -2.453599909258656e-07 -1.2759872420801931e-07 4.9916602955164639e-08 -0.00025023837548376714 -4.6484177716625265e-08 2.5656671934367782e-08 -2.4541159088973037e-07 9.3687532004383314e-09 -6.9492358999324175e-09 -2.3280771140917857e-07 -1.2759872420801931e-07 4.9916602955164639e-08 -0.00025023837548376714 -8.5148325784730435e-08 1.0636635324418577e-07 -0.00025022554003299453 -4.6484177716625265e-08 2.5656671934367782e-08 -2.4541159088973037e-07 1.3274555724770519e-08 -1.1032833996608293e-08 -1.0743404880336399e-07 9.3687532004383314e-09 -6.9492358999324175e-09 -2.3280771140917857e-07 -8.5148325784730448e-08 1.0636635324418574e-07 -0.00025022554003299442 -4.6484177716625265e-08 2.5656671934367782e-08 -2.4541159088973037e-07 1.3274555724770519e-08 -1.1032833996608293e-08 -1.0743404880336399e-07 -8.5148325784730448e-08 1.0636635324418574e-07 -0.00025022554003299442 -4.6484177716625265e-08 2.5656671934367782e-08 -2.4541159088973037e-07 -2.9779774567409819e-08 4.455454827165308e-08 -1.4612564754121812e-07 -7.0313969880154957e-09 4.0878661183260243e-08 -0.00025017991926911998 1.3274555724770509e-08 -1.1032833996608346e-08 -1.074340488032877e-07 -5.4985925218808294e-10 8.095920406222033e-08 -0.00025019045325709138 5.4298372607251153e-09 -1.6140607097894978e-08 -8.8469819180784719e-08 1.3274555724770519e-08 -1.1032833996608293e-08 -1.0743404880336399e-07 -8.5148325784730488e-08 1.0636635324418573e-07 -0.00025022554003299442 -2.9779774567409819e-08 4.455454827165308e-08 -1.4612564754121812e-07 -1.9503339692012562e-08 1.3539521337336085e-07 -0.00025020222795634286 1.3274555724770519e-08 -1.1032833996608293e-08 -1.0743404880336399e-07 -2.9779774567409819e-08 4.4554548271653087e-08 -1.4612564754123045e-07 -1.9503339692012628e-08 1.3539521337336088e-07 -0.00025020222795634286 5.4298372607251153e-09 -1.6140607097894978e-08 -8.8469819180784719e-08 1.3274555724770519e-08 -1.1032833996608293e-08 -1.0743404880336399e-07 -1.9503339692012628e-08 1.3539521337336088e-07 -0.00025020222795634286 -5.4985925218808315e-10 8.095920406222033e-08 -0.00025019045325709138 5.4298372607251153e-09 -1.6140607097894978e-08 -8.8469819180784719e-08 -2.9779774567409819e-08 4.455454827165308e-08 -1.4612564754121812e-07 -1.9503339692012628e-08 1.3539521337336088e-07 -0.00025020222795634286 5.4298372607251195e-09 -1.6140607097894995e-08 -8.8469819180784693e-08 -3.9995655248300403e-09 5.3151283458782371e-08 -2.0220333565510788e-07 1.3274555724770519e-08 -1.1032833996608293e-08 -1.0743404880336399e-07 -3.5775643809898226e-08 6.6278640757744596e-08 -0.00025019369378571796 -1.9503339692012635e-08 1.3539521337336091e-07 -0.00025020222795634286 -5.4985925218808366e-10 8.095920406222033e-08 -0.00025019045325709138 1.3274555724770519e-08 -1.1032833996608293e-08 -1.0743404880336399e-07 -3.5775643809898226e-08 6.6278640757744596e-08 -0.00025019369378571796 -8.5148325784730448e-08 1.063663532441857e-07 -0.00025022554003299448 -1.9503339692012602e-08 1.3539521337336088e-07 -0.00025020222795634286 -1.013265133837739e-07 4.3164032121556724e-08 -0.00050024815173480269 -3.5775643809898226e-08 6.6278640757744596e-08 -0.00025019369378571796 -8.5148325784730448e-08 1.0636635324418574e-07 -0.00025022554003299448 -1.9503339692012628e-08 1.3539521337336088e-07 -0.00025020222795634286 -1.9503339692012628e-08 1.3539521337336088e-07 -0.00025020222795634286 -6.6338838257227883e-08 8.7950531112589906e-08 -0.00050024100567432441 5.2027526319589689e-08 1.2723519616173709e-07 -0.00025022351797787049 -5.4985925218808366e-10 8.095920406222033e-08 -0.00025019045325709138 -1.983943086492959e-08 3.6185946767029223e-08 -0.00050023853632976604 -3.5775643809898173e-08 6.6278640757744596e-08 -0.0002501936937857179 -2.5386091934359952e-08 6.9258134957566942e-08 -0.00050024056826672826 -5.4985925218808366e-10 8.095920406222033e-08 -0.00025019045325709138 -1.013265133837739e-07 4.3164032121556724e-08 -0.00050024815173480269 -3.577564380989822e-08 6.6278640757744596e-08 -0.0002501936937857179 -1.9503339692012628e-08 1.3539521337336088e-07 -0.00025020222795634286 -6.6338838257227883e-08 8.7950531112589906e-08 -0.00050024100567432441 -1.013265133837739e-07 4.3164032121556724e-08 -0.00050024815173480269 -5.1284875863106154e-08 5.0052426183993973e-08 -0.00050023973439031915 -3.5775643809898226e-08 6.6278640757744596e-08 -0.00025019369378571796 -6.6338838257227883e-08 8.7950531112589906e-08 -0.00050024100567432441 -5.1284875863106154e-08 5.0052426183993973e-08 -0.00050023973439031915 -3.5775643809898226e-08 6.6278640757744596e-08 -0.00025019369378571796 -6.6338838257227883e-08 8.7950531112589906e-08 -0.00050024100567432441 -2.5386091934359945e-08 6.9258134957566942e-08 -0.00050024056826672816 -3.5775643809898226e-08 6.6278640757744596e-08 -0.00025019369378571796 -1.9503339692012628e-08 1.3539521337336088e-07 -0.00025020222795634286 -6.6338838257227883e-08 8.7950531112589906e-08 -0.00050024100567432441 -5.4985925218808366e-10 8.095920406222033e-08 -0.00025019045325709138 -3.5775643809898226e-08 6.6278640757744596e-08 -0.00025019369378571796 -6.6338838257227883e-08 8.795053111258992e-08 -0.00050024100567432441 -2.5386091934359949e-08 6.9258134957566942e-08 -0.00050024056826672816 -5.4985925218808366e-10 8.095920406222033e-08 -0.00025019045325709138 -6.6338838257227883e-08 8.7950531112589906e-08 -0.00050024100567432441 -1.3462608655814689e-08 1.0928001545293541e-07 -0.00050025034956004881 -2.5386091934359945e-08 6.9258134957566942e-08 -0.00050024056826672816 -5.4063898770752661e-08 9.7721118379986838e-08 -0.00075027604354480559 -5.1284875863106154e-08 5.0052426183993973e-08 -0.00050023973439031915 -6.6338838257227883e-08 8.7950531112589906e-08 -0.00050024100567432441 -2.5386091934359945e-08 6.9258134957566942e-08 -0.00050024056826672816 -5.4063898770752661e-08 9.7721118379986838e-08 -0.00075027604354480559 -1.013265133837739e-07 4.3164032121556724e-08 -0.00050024815173480269 -5.1284875863106154e-08 5.0052426183993973e-08 -0.00050023973439031915 -6.6338838257227883e-08 8.7950531112589906e-08 -0.00050024100567432441 -9.5744675234072738e-08 5.7470418783861315e-08 -0.00075027825011892574 -6.6338838257227883e-08 8.7950531112589906e-08 -0.00050024100567432441 -1.3462608655814686e-08 1.0928001545293541e-07 -0.00050025034956004881 5.2027526319589676e-08 1.2723519616173709e-07 -0.00025022351797787049 -5.4985925218808366e-10 8.095920406222033e-08 -0.00025019045325709138 -1.3462608655814692e-08 1.0928001545293539e-07 -0.00050025034956004881 4.4878045432132874e-08 1.0091057764059225e-07 -0.00050026552020992533 1.2954610733142013e-08 5.6980233314405702e-08 -0.0005002458618424189 1.9989609870016605e-09 1.1165766193858761e-07 -0.00075027973381865066 5.7241913884178313e-08 3.4702006978312205e-08 -0.00050025569006567313 4.4878045432132881e-08 1.0091057764059225e-07 -0.00050026552020992533 1.2954610733142013e-08 5.6980233314405702e-08 -0.0005002458618424189 5.7209558131025322e-08 9.5796128536919211e-08 -0.00075028569304355056 -1.3462608655814692e-08 1.0928001545293539e-07 -0.00050025034956004881 1.2954610733142013e-08 5.6980233314405702e-08 -0.0005002458618424189 -2.5386091934359945e-08 6.9258134957566942e-08 -0.00050024056826672816 1.9989609870016605e-09 1.1165766193858761e-07 -0.00075027973381865066 -1.983943086492959e-08 3.6185946767029223e-08 -0.00050023853632976604 1.2954610733142013e-08 5.6980233314405702e-08 -0.0005002458618424189 -2.5386091934359945e-08 6.9258134957566942e-08 -0.00050024056826672816 -5.4985925218808366e-10 8.095920406222033e-08 -0.00025019045325709138 -1.3462608655814692e-08 1.0928001545293539e-07 -0.00050025034956004881 1.2954610733142013e-08 5.6980233314405702e-08 -0.0005002458618424189 3.7098911429180082e-08 5.4395735285322087e-08 -0.00025020751472149498 -5.4985925218808366e-10 8.095920406222033e-08 -0.00025019045325709138 -1.3462608655814692e-08 1.0928001545293539e-07 -0.00050025034956004881 5.2027526319589676e-08 1.2723519616173709e-07 -0.00025022351797787049 3.7098911429180082e-08 5.4395735285322087e-08 -0.00025020751472149498 -5.4985925218808366e-10 8.095920406222033e-08 -0.00025019045325709138 -6.6338838257227883e-08 8.7950531112589906e-08 -0.00050024100567432441 -1.3462608655814689e-08 1.0928001545293541e-07 -0.00050025034956004881 -2.5386091934359945e-08 6.9258134957566942e-08 -0.00050024056826672816 -5.4985925218808366e-10 8.095920406222033e-08 -0.00025019045325709138 -1.3462608655814692e-08 1.0928001545293539e-07 -0.00050025034956004881 1.2954610733142013e-08 5.6980233314405702e-08 -0.0005002458618424189 -2.5386091934359945e-08 6.9258134957566942e-08 -0.00050024056826672816 -5.4985925218808366e-10 8.095920406222033e-08 -0.00025019045325709138 6.9849444671862393e-08 1.962313830911278e-08 -0.00025024114380259901 4.4878045432132874e-08 1.0091057764059225e-07 -0.00050026552020992533 1.016347353570039e-07 8.6141546510143736e-08 -0.0002502573216785572 3.7098911429180082e-08 5.4395735285322087e-08 -0.00025020751472149498 -1.3462608655814692e-08 1.0928001545293539e-07 -0.00050025034956004881 4.4878045432132874e-08 1.0091057764059225e-07 -0.00050026552020992533 1.2954610733142013e-08 5.6980233314405702e-08 -0.0005002458618424189 3.7098911429180082e-08 5.4395735285322087e-08 -0.00025020751472149498 -1.3462608655814692e-08 1.0928001545293539e-07 -0.00050025034956004881 1.0163473535700387e-07 8.6141546510143723e-08 -0.00025025732167855726 5.2027526319589662e-08 1.2723519616173709e-07 -0.00025022351797787055 3.7098911429180082e-08 5.4395735285322087e-08 -0.00025020751472149498 -1.3462608655814692e-08 1.0928001545293539e-07 -0.00050025034956004881 4.4878045432132874e-08 1.0091057764059225e-07 -0.00050026552020992533 1.0163473535700389e-07 8.614154651014371e-08 -0.00025025732167855726 3.7098911429180082e-08 5.4395735285322087e-08 -0.00025020751472149498 6.9849444671862393e-08 1.962313830911278e-08 -0.00025024114380259901 4.4878045432132881e-08 1.0091057764059227e-07 -0.00050026552020992533 1.2954610733142014e-08 5.6980233314405702e-08 -0.00050024586184241879 3.7098911429180082e-08 5.4395735285322087e-08 -0.00025020751472149498 1.016347353570039e-07 8.6141546510143736e-08 -0.0002502573216785572 5.2027526319589676e-08 1.2723519616173709e-07 -0.00025022351797787049 3.7098911429180082e-08 5.4395735285322087e-08 -0.00025020751472149498 -6.1794431233244006e-10 -1.3447579236259605e-08 -1.8495016390467693e-07 -1.9503339692012628e-08 1.3539521337336088e-07 -0.00025020222795634286 5.2027526319589689e-08 1.2723519616173709e-07 -0.00025022351797787049 -5.4985925218808366e-10 8.095920406222033e-08 -0.00025019045325709138 5.4298372607251153e-09 -1.6140607097894978e-08 -8.8469819180784719e-08 -7.0313969880154957e-09 4.0878661183260243e-08 -0.00025017991926911998 3.7098911429180082e-08 5.4395735285322087e-08 -0.00025020751472149498 -5.4985925218808366e-10 8.095920406222033e-08 -0.00025019045325709138 5.4298372607251153e-09 -1.6140607097894978e-08 -8.8469819180784719e-08 5.2027526319589676e-08 1.2723519616173709e-07 -0.00025022351797787049 3.7098911429180082e-08 5.4395735285322087e-08 -0.00025020751472149498 -5.4985925218808366e-10 8.095920406222033e-08 -0.00025019045325709138 5.4298372607251153e-09 -1.6140607097894978e-08 -8.8469819180784719e-08 5.2027526319589676e-08 1.2723519616173709e-07 -0.00025022351797787049 3.7098911429180082e-08 5.4395735285322087e-08 -0.00025020751472149498 5.4298372607251153e-09 -1.6140607097894978e-08 -8.8469819180784719e-08 -6.1794431233242331e-10 -1.3447579236259577e-08 -1.8495016390479282e-07 5.2027526319589676e-08 1.2723519616173709e-07 -0.00025022351797787049 5.4298372607251153e-09 -1.6140607097894978e-08 -8.8469819180784719e-08 -6.1794431233242331e-10 -1.3447579236259577e-08 -1.8495016390479282e-07 -3.9995655248300403e-09 5.3151283458782371e-08 -2.0220333565510788e-07 -1.9503339692012628e-08 1.3539521337336088e-07 -0.00025020222795634286 5.2027526319589669e-08 1.2723519616173709e-07 -0.00025022351797787049 5.4298372607251153e-09 -1.6140607097894978e-08 -8.8469819180784719e-08 -3.9995655248300403e-09 5.3151283458782371e-08 -2.0220333565510788e-07 1.016347353570039e-07 8.6141546510143736e-08 -0.0002502573216785572 5.2027526319589676e-08 1.2723519616173709e-07 -0.00025022351797787049 -6.1794431233242527e-10 -1.3447579236259633e-08 -1.8495016390477276e-07 2.4287447426384982e-08 4.6341707132570617e-08 -2.7341332436479073e-07 -1.9810297649654417e-08 -1.3053250391249197e-08 -2.5384930960221999e-07 1.0163473535700393e-07 8.614154651014375e-08 -0.0002502573216785572 3.7098911429180075e-08 5.439573528532208e-08 -0.00025020751472149493 -6.1794431233242331e-10 -1.3447579236259577e-08 -1.8495016390479282e-07 -1.9810297649654417e-08 -1.3053250391249197e-08 -2.5384930960221999e-07 1.016347353570039e-07 8.6141546510143736e-08 -0.0002502573216785572 -6.1794431233242331e-10 -1.3447579236259577e-08 -1.8495016390479282e-07 2.4287447426384982e-08 4.6341707132570617e-08 -2.7341332436479073e-07 5.2027526319589676e-08 1.2723519616173709e-07 -0.00025022351797787049 -6.1794431233241597e-10 -1.3447579236259574e-08 -1.8495016390478755e-07 -3.9995655248300403e-09 5.3151283458782371e-08 -2.0220333565510788e-07 2.4287447426384975e-08 4.6341707132570617e-08 -2.7341332436479067e-07 -1.9810297649654417e-08 -1.3053250391249197e-08 -2.5384930960221999e-07 1.016347353570039e-07 8.6141546510143736e-08 -0.0002502573216785572 5.3715555669688001e-08 3.4992231681670845e-08 -1.8640961906298501e-07 1.3377332854265003e-07 1.9292427446213842e-08 -0.00025024720968823644 -1.9810297649654417e-08 -1.3053250391249197e-08 -2.5384930960221999e-07 1.0163473535700391e-07 8.6141546510143736e-08 -0.0002502573216785572 2.4287447426384982e-08 4.6341707132570617e-08 -2.7341332436479073e-07 5.3715555669688001e-08 3.4992231681670845e-08 -1.8640961906298501e-07 6.9849444671862393e-08 1.962313830911278e-08 -0.00025024114380259901 4.4878045432132881e-08 1.0091057764059225e-07 -0.00050026552020992533 1.3377332854265003e-07 1.9292427446213842e-08 -0.00025024720968823644 8.7884127590372388e-08 6.638186508070365e-08 -0.00050026243154627898 6.9849444671862393e-08 1.962313830911278e-08 -0.00025024114380259901 4.4878045432132881e-08 1.0091057764059225e-07 -0.00050026552020992533 1.016347353570039e-07 8.6141546510143736e-08 -0.0002502573216785572 1.3377332854265003e-07 1.9292427446213842e-08 -0.00025024720968823644 5.7241913884178313e-08 3.4702006978312205e-08 -0.00050025569006567313 4.4878045432132874e-08 1.0091057764059225e-07 -0.00050026552020992533 8.7884127590372388e-08 6.638186508070365e-08 -0.00050026243154627898 5.7209558131025322e-08 9.5796128536919211e-08 -0.00075028569304355056 -1.2701597023736491e-08 1.1314999334895e-08 -9.8543763430537728e-08 2.9118623099835465e-08 -4.4973803751486886e-08 -1.3795280499343213e-07 1.9424314648130444e-08 -1.3542569447103803e-07 -0.00025019745934988589 8.4821266614156089e-08 -1.069612570562674e-07 -0.00025021793342083873 -1.2701597023736491e-08 1.1314999334895e-08 -9.8543763430537728e-08 3.6405689356574334e-08 -7.0375167481855368e-08 -0.00025018848982403743 1.9424314648130444e-08 -1.3542569447103803e-07 -0.00025019745934988589 8.4821266614156089e-08 -1.069612570562674e-07 -0.00025021793342083873 -1.2701597023736491e-08 1.1314999334895e-08 -9.8543763430537728e-08 3.6405689356574334e-08 -7.0375167481855368e-08 -0.00025018848982403743 5.3191271019807429e-08 -2.6642587288946523e-08 -0.00025019539493019536 8.4821266614156089e-08 -1.069612570562674e-07 -0.00025021793342083873 -1.2701597023736491e-08 1.1314999334895e-08 -9.8543763430537728e-08 2.9118623099835465e-08 -4.4973803751486886e-08 -1.3795280499343213e-07 8.4821266614156089e-08 -1.069612570562674e-07 -0.00025021793342083873 4.7289759374251311e-08 -2.4815517663358664e-08 -2.021289706648789e-07 -1.2701597023736491e-08 1.1314999334895e-08 -9.8543763430537728e-08 5.3191271019807429e-08 -2.6642587288946523e-08 -0.00025019539493019536 -1.2601065194094973e-08 4.7781306176367704e-09 -1.7697879196413051e-07 8.4821266614156089e-08 -1.069612570562674e-07 -0.00025021793342083873 -1.2701597023736491e-08 1.1314999334895e-08 -9.8543763430537728e-08 -1.2601065194094973e-08 4.7781306176367704e-09 -1.7697879196413051e-07 8.4821266614156089e-08 -1.069612570562674e-07 -0.00025021793342083873 4.7289759374251311e-08 -2.4815517663358664e-08 -2.021289706648789e-07 -1.2601065194094973e-08 4.7781306176367704e-09 -1.7697879196413051e-07 8.4821266614156076e-08 -1.0696125705626741e-07 -0.00025021793342083878 4.7289759374251311e-08 -2.4815517663358664e-08 -2.021289706648789e-07 1.2751890265375539e-07 -4.9479614936601513e-08 -0.00025025247631864703 -1.2601065194094973e-08 4.7781306176367704e-09 -1.7697879196413051e-07 4.7289759374251311e-08 -2.4815517663358664e-08 -2.021289706648789e-07 5.2083115532539584e-08 4.0616451231844883e-09 -2.7385057477553495e-07 1.2751890265375539e-07 -4.9479614936601533e-08 -0.00025025247631864708 -1.9810297649654417e-08 -1.3053250391249197e-08 -2.5384930960221999e-07 -1.2601065194094973e-08 4.7781306176367704e-09 -1.7697879196413051e-07 5.2083115532539591e-08 4.0616451231844825e-09 -2.7385057477555962e-07 1.2751890265375536e-07 -4.9479614936601513e-08 -0.00025025247631864698 5.3191271019807429e-08 -2.6642587288946523e-08 -0.00025019539493019536 -1.9810297649654417e-08 -1.3053250391249197e-08 -2.5384930960221999e-07 -1.2601065194094973e-08 4.7781306176367704e-09 -1.7697879196413051e-07 1.2751890265375536e-07 -4.9479614936601513e-08 -0.00025025247631864698 -1.9810297649654417e-08 -1.3053250391249197e-08 -2.5384930960221999e-07 5.3715555669688001e-08 3.4992231681670845e-08 -1.8640961906298501e-07 1.3377332854265003e-07 1.9292427446213842e-08 -0.00025024720968823644 5.2083115532539584e-08 4.0616451231844883e-09 -2.7385057477553495e-07 -1.9810297649654417e-08 -1.3053250391249197e-08 -2.5384930960221999e-07 1.3377332854265003e-07 1.9292427446213743e-08 -0.00025024720968823655 5.2083115532539584e-08 4.0616451231844883e-09 -2.7385057477553495e-07 1.2751890265375539e-07 -4.947961493660146e-08 -0.00025025247631864698 6.9849444671862393e-08 1.962313830911278e-08 -0.00025024114380259901 -1.9810297649654417e-08 -1.3053250391249197e-08 -2.5384930960221999e-07 1.016347353570039e-07 8.6141546510143736e-08 -0.0002502573216785572 1.3377332854265003e-07 1.9292427446213842e-08 -0.00025024720968823644 6.9849444671862393e-08 1.962313830911278e-08 -0.00025024114380259901 -1.9810297649654417e-08 -1.3053250391249197e-08 -2.5384930960221999e-07 1.3377332854265003e-07 1.9292427446213842e-08 -0.00025024720968823644 1.2751890265375536e-07 -4.9479614936601513e-08 -0.00025025247631864698 5.3191271019807429e-08 -2.6642587288946523e-08 -0.00025019539493019536 -1.2601065194094973e-08 4.7781306176367704e-09 -1.7697879196413051e-07 8.4821266614156089e-08 -1.069612570562674e-07 -0.00025021793342083873 1.2751890265375536e-07 -4.9479614936601513e-08 -0.00025025247631864698 5.3191271019807429e-08 -2.6642587288946523e-08 -0.00025019539493019536 6.9849444671862393e-08 1.962313830911278e-08 -0.00025024114380259901 -1.9810297649654417e-08 -1.3053250391249197e-08 -2.5384930960221999e-07 1.2751890265375536e-07 -4.9479614936601513e-08 -0.00025025247631864698 5.4737282954453963e-08 -1.5672700462394327e-08 -0.0005002419475431208 5.3191271019807429e-08 -2.6642587288946523e-08 -0.00025019539493019536 1.0922076905063397e-07 1.3357978227740403e-08 -0.00050026178480068733 1.0146936141224951e-07 -4.2926595461766322e-08 -0.00050024699363555468 5.3191271019807429e-08 -2.6642587288946523e-08 -0.00025019539493019536 8.4821266614156089e-08 -1.069612570562674e-07 -0.00025021793342083873 1.2751890265375536e-07 -4.9479614936601513e-08 -0.00025025247631864698 1.0922076905063395e-07 1.3357978227740434e-08 -0.00050026178480068744 5.4737282954453963e-08 -1.5672700462394327e-08 -0.0005002419475431208 5.3191271019807429e-08 -2.6642587288946523e-08 -0.00025019539493019536 6.9849444671862393e-08 1.962313830911278e-08 -0.00025024114380259901 1.0922076905063397e-07 1.3357978227740403e-08 -0.00050026178480068733 5.4737282954453963e-08 -1.5672700462394327e-08 -0.0005002419475431208 5.7241913884178313e-08 3.4702006978312205e-08 -0.00050025569006567313 6.9849444671862393e-08 1.962313830911278e-08 -0.00025024114380259901 1.0922076905063397e-07 1.3357978227740403e-08 -0.00050026178480068733 5.3191271019807429e-08 -2.6642587288946523e-08 -0.00025019539493019536 6.9849444671862393e-08 1.962313830911278e-08 -0.00025024114380259901 1.2751890265375536e-07 -4.9479614936601513e-08 -0.00025025247631864698 1.0922076905063397e-07 1.3357978227740429e-08 -0.00050026178480068744 5.7241913884178313e-08 3.4702006978312205e-08 -0.00050025569006567313 6.9849444671862393e-08 1.962313830911278e-08 -0.00025024114380259901 4.4878045432132874e-08 1.0091057764059225e-07 -0.00050026552020992533 8.7884127590372388e-08 6.638186508070365e-08 -0.00050026243154627898 6.9849444671862393e-08 1.962313830911278e-08 -0.00025024114380259901 8.7884127590372361e-08 6.6381865080703663e-08 -0.00050026243154627909 1.2751890265375536e-07 -4.9479614936601513e-08 -0.00025025247631864698 1.0922076905063398e-07 1.3357978227740418e-08 -0.00050026178480068733 6.9849444671862393e-08 1.962313830911278e-08 -0.00025024114380259901 1.3377332854265003e-07 1.9292427446213842e-08 -0.00025024720968823644 8.7884127590372388e-08 6.638186508070365e-08 -0.00050026243154627898 1.2751890265375536e-07 -4.9479614936601513e-08 -0.00025025247631864698 5.7241913884178313e-08 3.4702006978312205e-08 -0.00050025569006567313 6.9849444671862393e-08 1.962313830911278e-08 -0.00025024114380259901 8.7884127590372388e-08 6.638186508070365e-08 -0.00050026243154627898 1.0922076905063397e-07 1.3357978227740403e-08 -0.00050026178480068733 5.7241913884178313e-08 3.4702006978312205e-08 -0.00050025569006567313 8.7884127590372388e-08 6.638186508070365e-08 -0.00050026243154627898 1.0922076905063397e-07 1.3357978227740403e-08 -0.00050026178480068733 9.7731787704602107e-08 5.4131052641671259e-08 -0.00075028441377514256 5.4737282954453963e-08 -1.5672700462394327e-08 -0.0005002419475431208 1.0922076905063397e-07 1.3357978227740403e-08 -0.00050026178480068733 1.0146936141224951e-07 -4.2926595461766322e-08 -0.00050024699363555468 1.1166279266868786e-07 -1.8633099566504099e-09 -0.00075028414721183565 5.4737282954453963e-08 -1.5672700462394327e-08 -0.0005002419475431208 5.7241913884178313e-08 3.4702006978312205e-08 -0.00050025569006567313 1.0922076905063397e-07 1.3357978227740403e-08 -0.00050026178480068733 1.1166279266868787e-07 -1.8633099566504087e-09 -0.00075028414721183565 5.1804561570856699e-08 -5.3006081235865537e-08 -0.00050023741580114064 5.4737282954453963e-08 -1.5672700462394327e-08 -0.0005002419475431208 1.0146936141224951e-07 -4.2926595461766322e-08 -0.00050024699363555468 9.5731077806142816e-08 -5.7489129911095999e-08 -0.00075027845659583802 5.1804561570856699e-08 -5.3006081235865537e-08 -0.00050023741580114064 1.0146936141224951e-07 -4.2926595461766322e-08 -0.00050024699363555468 6.6421010714766906e-08 -8.791066770644301e-08 -0.00050023805665007652 9.5731077806142816e-08 -5.7489129911095999e-08 -0.00075027845659583802 3.6405689356574334e-08 -7.0375167481855368e-08 -0.00025018848982403743 5.3191271019807429e-08 -2.6642587288946523e-08 -0.00025019539493019536 8.4821266614156089e-08 -1.069612570562674e-07 -0.00025021793342083873 1.0146936141224951e-07 -4.2926595461766322e-08 -0.00050024699363555468 3.6405689356574334e-08 -7.0375167481855368e-08 -0.00025018848982403743 5.1804561570856699e-08 -5.3006081235865537e-08 -0.00050023741580114064 5.4737282954453963e-08 -1.5672700462394327e-08 -0.0005002419475431208 1.0146936141224951e-07 -4.2926595461766322e-08 -0.00050024699363555468 5.3191271019807429e-08 -2.6642587288946523e-08 -0.00025019539493019536 8.4821266614156089e-08 -1.069612570562674e-07 -0.00025021793342083873 1.0922076905063398e-07 1.3357978227740421e-08 -0.00050026178480068744 1.0146936141224951e-07 -4.2926595461766322e-08 -0.00050024699363555468 3.6405689356574334e-08 -7.0375167481855368e-08 -0.00025018848982403743 5.4737282954453963e-08 -1.5672700462394327e-08 -0.0005002419475431208 5.3191271019807429e-08 -2.6642587288946523e-08 -0.00025019539493019536 1.0146936141224951e-07 -4.2926595461766322e-08 -0.00050024699363555468 3.6405689356574334e-08 -7.0375167481855368e-08 -0.00025018848982403743 5.1804561570856699e-08 -5.3006081235865537e-08 -0.00050023741580114064 1.0146936141224951e-07 -4.2926595461766322e-08 -0.00050024699363555468 6.6421010714766906e-08 -8.791066770644301e-08 -0.00050023805665007652 3.6405689356574334e-08 -7.0375167481855368e-08 -0.00025018848982403743 1.9424314648130444e-08 -1.3542569447103803e-07 -0.00025019745934988589 8.4821266614156089e-08 -1.069612570562674e-07 -0.00025021793342083873 1.0146936141224951e-07 -4.2926595461766322e-08 -0.00050024699363555468 3.6405689356574334e-08 -7.0375167481855368e-08 -0.00025018848982403743 1.9424314648130444e-08 -1.3542569447103803e-07 -0.00025019745934988589 1.0146936141224951e-07 -4.2926595461766322e-08 -0.00050024699363555468 6.6421010714766906e-08 -8.791066770644301e-08 -0.00050023805665007652 5.1804561570856699e-08 -5.3006081235865537e-08 -0.00050023741580114064 6.6421010714766906e-08 -8.791066770644301e-08 -0.00050023805665007652 5.4070236637140555e-08 -9.7714493793847059e-08 -0.00075027449352672892 9.5731077806142816e-08 -5.7489129911095999e-08 -0.00075027845659583802 5.4070236637140555e-08 -9.7714493793847059e-08 -0.00075027449352672892 9.6706287471310124e-08 -5.572217332460256e-08 -0.0010003104456620157 5.5908109733372678e-08 -9.6594255920686125e-08 -0.0010003084806338512 4.9127848986623136e-08 -5.6860671824684439e-08 -0.00075027501178935845 9.6706287471310137e-08 -5.5722173324602567e-08 -0.0010003104456620157 5.3647496866275924e-08 -2.0497250081268664e-08 -0.0010003101033559643 5.3659635485249457e-08 -1.9712139887736218e-08 -0.00075027713252304618 4.9127848986623136e-08 -5.6860671824684439e-08 -0.00075027501178935845 9.5731077806142816e-08 -5.7489129911095999e-08 -0.00075027845659583802 9.6706287471310137e-08 -5.5722173324602567e-08 -0.0010003104456620157 5.3659635485249451e-08 -1.9712139887736222e-08 -0.00075027713252304618 4.9127848986623136e-08 -5.6860671824684439e-08 -0.00075027501178935845 9.5731077806142816e-08 -5.7489129911095999e-08 -0.00075027845659583802 1.1161036889708208e-07 1.0760809543380841e-10 -0.0010003130226802404 9.6706287471310137e-08 -5.5722173324602567e-08 -0.0010003104456620157 5.3659635485249457e-08 -1.9712139887736218e-08 -0.00075027713252304618 5.4070236637140555e-08 -9.7714493793847059e-08 -0.00075027449352672892 9.5731077806142816e-08 -5.7489129911095999e-08 -0.00075027845659583802 9.6706287471310137e-08 -5.5722173324602567e-08 -0.0010003104456620157 4.9127848986623136e-08 -5.6860671824684439e-08 -0.00075027501178935845 5.1804561570856699e-08 -5.3006081235865537e-08 -0.00050023741580114064 5.4070236637140555e-08 -9.7714493793847059e-08 -0.00075027449352672892 9.5731077806142816e-08 -5.7489129911095999e-08 -0.00075027845659583802 4.9127848986623136e-08 -5.6860671824684439e-08 -0.00075027501178935845 5.1804561570856699e-08 -5.3006081235865537e-08 -0.00050023741580114064 9.5731077806142816e-08 -5.7489129911095999e-08 -0.00075027845659583802 5.3659635485249457e-08 -1.9712139887736218e-08 -0.00075027713252304618 4.9127848986623136e-08 -5.6860671824684439e-08 -0.00075027501178935845 5.4737282954453963e-08 -1.5672700462394327e-08 -0.0005002419475431208 1.0146936141224951e-07 -4.2926595461766322e-08 -0.00050024699363555468 9.5731077806142829e-08 -5.7489129911095979e-08 -0.00075027845659583791 1.1166279266868787e-07 -1.8633099566503971e-09 -0.00075028414721183565 5.1804561570856699e-08 -5.3006081235865537e-08 -0.00050023741580114064 5.4737282954453963e-08 -1.5672700462394327e-08 -0.0005002419475431208 9.5731077806142816e-08 -5.7489129911095999e-08 -0.00075027845659583802 5.3659635485249457e-08 -1.9712139887736218e-08 -0.00075027713252304618 5.4737282954453963e-08 -1.5672700462394327e-08 -0.0005002419475431208 5.7241913884178313e-08 3.4702006978312205e-08 -0.00050025569006567313 1.1166279266868788e-07 -1.8633099566504042e-09 -0.00075028414721183554 5.3659635485249457e-08 -1.9712139887736218e-08 -0.00075027713252304618 5.4737282954453963e-08 -1.5672700462394327e-08 -0.0005002419475431208 9.5731077806142842e-08 -5.7489129911095999e-08 -0.00075027845659583802 1.1166279266868788e-07 -1.8633099566503955e-09 -0.00075028414721183554 5.3659635485249457e-08 -1.9712139887736218e-08 -0.00075027713252304618 5.7241913884178313e-08 3.4702006978312205e-08 -0.00050025569006567313 1.1166279266868786e-07 -1.8633099566504029e-09 -0.00075028414721183554 5.6585132448300951e-08 3.2001109339560786e-08 -0.00075028200690552261 5.3659635485249457e-08 -1.9712139887736218e-08 -0.00075027713252304618 5.7241913884178313e-08 3.4702006978312205e-08 -0.00050025569006567313 1.0922076905063397e-07 1.3357978227740403e-08 -0.00050026178480068733 1.1166279266868787e-07 -1.8633099566503822e-09 -0.00075028414721183554 9.7731787704602107e-08 5.4131052641671232e-08 -0.00075028441377514266 5.7241913884178313e-08 3.4702006978312205e-08 -0.00050025569006567313 1.1166279266868787e-07 -1.8633099566503843e-09 -0.00075028414721183554 9.773178770460212e-08 5.4131052641671245e-08 -0.00075028441377514256 5.6585132448300951e-08 3.2001109339560786e-08 -0.00075028200690552261 5.7241913884178313e-08 3.4702006978312205e-08 -0.00050025569006567313 9.7731787704602094e-08 5.4131052641671272e-08 -0.00075028441377514245 5.7209558131025322e-08 9.5796128536919211e-08 -0.00075028569304355056 5.6585132448300951e-08 3.2001109339560786e-08 -0.00075028200690552261 1.1166279266868786e-07 -1.8633099566504029e-09 -0.00075028414721183554 1.1161036889708208e-07 1.0760809543380841e-10 -0.0010003130226802404 9.658049677194318e-08 5.5898859697945495e-08 -0.0010003132215785904 5.6585132448300951e-08 3.2001109339560786e-08 -0.00075028200690552261 1.1166279266868786e-07 -1.8633099566504029e-09 -0.00075028414721183554 9.7731787704602107e-08 5.4131052641671259e-08 -0.00075028441377514256 9.658049677194318e-08 5.5898859697945495e-08 -0.0010003132215785904 5.6585132448300951e-08 3.2001109339560786e-08 -0.00075028200690552261 1.1166279266868786e-07 -1.8633099566504029e-09 -0.00075028414721183554 1.1161036889708208e-07 1.0760809543380841e-10 -0.0010003130226802404 5.6585132448300951e-08 3.2001109339560786e-08 -0.00075028200690552261 5.3659635485249457e-08 -1.9712139887736218e-08 -0.00075027713252304618 1.1161036889708208e-07 1.0760809543380841e-10 -0.0010003130226802404 5.3647496866275931e-08 -2.0497250081268664e-08 -0.0010003101033559643 5.6585132448300951e-08 3.2001109339560786e-08 -0.00075028200690552261 5.3659635485249464e-08 -1.9712139887736255e-08 -0.00075027713252304607 9.5731077806142816e-08 -5.7489129911095999e-08 -0.00075027845659583802 1.1166279266868786e-07 -1.8633099566504029e-09 -0.00075028414721183554 1.1161036889708208e-07 1.0760809543380841e-10 -0.0010003130226802404 5.3659635485249457e-08 -1.9712139887736218e-08 -0.00075027713252304618 1.1161036889708208e-07 1.0760809543380841e-10 -0.0010003130226802404 5.570066941951333e-08 3.1866305337541568e-08 -0.0010003118905836906 5.3647496866275931e-08 -2.0497250081268664e-08 -0.0010003101033559643 5.6585132448300951e-08 3.2001109339560786e-08 -0.00075028200690552261 1.1161036889708208e-07 1.0760809543380841e-10 -0.0010003130226802404 1.1152075517704928e-07 5.1525507703139826e-11 -0.0012503460414867989 5.570066941951333e-08 3.1866305337541568e-08 -0.0010003118905836906 5.3647496866275931e-08 -2.0497250081268664e-08 -0.0010003101033559643 1.1161036889708208e-07 1.0760809543380841e-10 -0.0010003130226802404 1.1152075517704928e-07 5.1525507703139826e-11 -0.0012503460414867989 9.6706287471310137e-08 -5.5722173324602567e-08 -0.0010003104456620157 5.3647496866275931e-08 -2.0497250081268664e-08 -0.0010003101033559643 1.1161036889708208e-07 1.0760809543380841e-10 -0.0010003130226802404 9.6706287471310137e-08 -5.5722173324602567e-08 -0.0010003104456620157 5.3647496866275931e-08 -2.0497250081268664e-08 -0.0010003101033559643 5.3659635485249464e-08 -1.9712139887736222e-08 -0.00075027713252304607 1.1161036889708208e-07 1.0760809543380841e-10 -0.0010003130226802404 9.658049677194318e-08 5.5898859697945495e-08 -0.0010003132215785904 9.6563145283199946e-08 5.5803618411744561e-08 -0.0012503466130465441 5.570066941951333e-08 3.1866305337541568e-08 -0.0010003118905836906 1.1161036889708208e-07 1.0760809543380841e-10 -0.0010003130226802404 9.658049677194318e-08 5.5898859697945495e-08 -0.0010003132215785904 5.570066941951333e-08 3.1866305337541568e-08 -0.0010003118905836906 5.6585132448300951e-08 3.2001109339560786e-08 -0.00075028200690552261 9.658049677194318e-08 5.5898859697945495e-08 -0.0010003132215785904 5.5759784545069991e-08 9.669299649234198e-08 -0.0010003137506441055 5.570066941951333e-08 3.1866305337541568e-08 -0.0010003118905836906 5.6585132448300951e-08 3.2001109339560786e-08 -0.00075028200690552261 9.6563145283199946e-08 5.5803618411744561e-08 -0.0012503466130465441 5.572468214277043e-08 9.6603660048720071e-08 -0.0012503465007591699 5.5588811167464924e-08 3.1955843364876288e-08 -0.0012503479267366995 5.570066941951333e-08 3.1866305337541568e-08 -0.0010003118905836906 1.1161036889708208e-07 1.0760809543380841e-10 -0.0010003130226802404 1.1152075517704928e-07 5.1525507703139826e-11 -0.0012503460414867989 9.6563145283199946e-08 5.5803618411744561e-08 -0.0012503466130465441 5.570066941951333e-08 3.1866305337541568e-08 -0.0010003118905836906 1.1152075517704928e-07 5.1525507703139826e-11 -0.0012503460414867989 9.6563145283199946e-08 5.5803618411744561e-08 -0.0012503466130465441 5.5588811167464924e-08 3.1955843364876288e-08 -0.0012503479267366995 5.570066941951333e-08 3.1866305337541568e-08 -0.0010003118905836906 1.1152075517704928e-07 5.1525507703139826e-11 -0.0012503460414867989 9.6617323346498446e-08 -5.5697257869607393e-08 -0.0012503445393631091 5.3697367475039809e-08 -2.0389796853786133e-08 -0.0012503451134631837 5.3647496866275938e-08 -2.0497250081268667e-08 -0.0010003101033559641 1.1152075517704928e-07 5.1525507703139826e-11 -0.0012503460414867989 5.3697367475039809e-08 -2.0389796853786133e-08 -0.0012503451134631837 5.5588811167464924e-08 3.1955843364876288e-08 -0.0012503479267366995 5.570066941951333e-08 3.1866305337541568e-08 -0.0010003118905836906 1.1152075517704928e-07 5.1525507703139826e-11 -0.0012503460414867989 5.3697367475039809e-08 -2.0389796853786133e-08 -0.0012503451134631837 5.570066941951333e-08 3.1866305337541568e-08 -0.0010003118905836906 5.3647496866275938e-08 -2.04972500812687e-08 -0.0010003101033559641 9.6617323346498446e-08 -5.5697257869607393e-08 -0.0012503445393631091 5.579505639605492e-08 -9.6561378183840436e-08 -0.0012503433877071185 4.9635755845927529e-08 -5.7089733855232141e-08 -0.0010003085425841917 4.9624511185364143e-08 -5.6830243754995526e-08 -0.0012503452093417561 9.6617323346498446e-08 -5.5697257869607393e-08 -0.0012503445393631091 5.3697367475039803e-08 -2.0389796853786136e-08 -0.0012503451134631834 4.9635755845927516e-08 -5.7089733855232141e-08 -0.0010003085425841917 4.9624511185364143e-08 -5.6830243754995526e-08 -0.0012503452093417561 9.6617323346498446e-08 -5.5697257869607393e-08 -0.0012503445393631091 5.3697367475039803e-08 -2.0389796853786133e-08 -0.0012503451134631837 5.3647496866275931e-08 -2.0497250081268664e-08 -0.0010003101033559643 4.9635755845927529e-08 -5.7089733855232141e-08 -0.0010003085425841917 1.1152075517704928e-07 5.1525507703139826e-11 -0.0012503460414867989 9.6617323346498446e-08 -5.5697257869607393e-08 -0.0012503445393631091 9.6706287471310137e-08 -5.5722173324602567e-08 -0.0010003104456620157 5.3647496866275898e-08 -2.0497250081268654e-08 -0.0010003101033559643 9.6706287471310137e-08 -5.5722173324602567e-08 -0.0010003104456620157 5.5908109733372678e-08 -9.6594255920686111e-08 -0.0010003084806338512 4.9127848986623136e-08 -5.6860671824684439e-08 -0.00075027501178935845 4.9635755845927529e-08 -5.7089733855232141e-08 -0.0010003085425841917 9.6617323346498446e-08 -5.5697257869607393e-08 -0.0012503445393631091 9.6706287471310137e-08 -5.5722173324602567e-08 -0.0010003104456620157 5.3647496866275931e-08 -2.0497250081268664e-08 -0.0010003101033559643 4.9635755845927529e-08 -5.7089733855232141e-08 -0.0010003085425841917 9.6706287471310137e-08 -5.5722173324602567e-08 -0.0010003104456620157 5.3647496866275924e-08 -2.0497250081268667e-08 -0.0010003101033559641 4.9127848986623123e-08 -5.6860671824684439e-08 -0.00075027501178935834 4.9635755845927529e-08 -5.7089733855232141e-08 -0.0010003085425841917 9.6617323346498446e-08 -5.5697257869607393e-08 -0.0012503445393631091 9.6706287471310137e-08 -5.5722173324602567e-08 -0.0010003104456620157 5.5908109733372678e-08 -9.6594255920686125e-08 -0.0010003084806338512 4.9635755845927529e-08 -5.7089733855232141e-08 -0.0010003085425841917 9.6617323346498446e-08 -5.5697257869607393e-08 -0.0012503445393631091 5.5908109733372645e-08 -9.6594255920686098e-08 -0.0010003084806338512 5.579505639605492e-08 -9.6561378183840436e-08 -0.0012503433877071185 4.9635755845927529e-08 -5.7089733855232141e-08 -0.0010003085425841917 5.7241913884178313e-08 3.4702006978312205e-08 -0.00050025569006567313 8.7884127590372388e-08 6.638186508070365e-08 -0.00050026243154627898 9.7731787704602107e-08 5.4131052641671259e-08 -0.00075028441377514256 5.7209558131025322e-08 9.5796128536919211e-08 -0.00075028569304355056 9.7731787704602107e-08 5.4131052641671259e-08 -0.00075028441377514256 5.5759784545069991e-08 9.669299649234198e-08 -0.0010003137506441055 5.7209558131025322e-08 9.5796128536919211e-08 -0.00075028569304355056 5.6585132448300951e-08 3.2001109339560786e-08 -0.00075028200690552261 9.7731787704602107e-08 5.4131052641671259e-08 -0.00075028441377514256 9.658049677194318e-08 5.5898859697945495e-08 -0.0010003132215785904 5.5759784545069991e-08 9.669299649234198e-08 -0.0010003137506441055 5.6585132448300951e-08 3.2001109339560786e-08 -0.00075028200690552261 9.658049677194318e-08 5.5898859697945495e-08 -0.0010003132215785904 5.572468214277043e-08 9.6603660048720071e-08 -0.0012503465007591699 5.5759784545069991e-08 9.669299649234198e-08 -0.0010003137506441055 5.570066941951333e-08 3.1866305337541568e-08 -0.0010003118905836906 9.658049677194318e-08 5.5898859697945495e-08 -0.0010003132215785904 9.6563145283199946e-08 5.5803618411744561e-08 -0.0012503466130465441 5.572468214277043e-08 9.6603660048720071e-08 -0.0012503465007591699 5.570066941951333e-08 3.1866305337541568e-08 -0.0010003118905836906 5.572468214277043e-08 9.6603660048720071e-08 -0.0012503465007591699 -7.2097933653149498e-12 1.1151688567227115e-07 -0.0012503449397440508 9.1395822057105806e-09 5.7056244758848489e-08 -0.0012503457480731199 9.284177946748929e-09 5.7052968845771548e-08 -0.0010003108655308967 5.572468214277043e-08 9.6603660048720071e-08 -0.0012503465007591699 9.1395822057105806e-09 5.7056244758848489e-08 -0.0012503457480731197 9.2841779467489108e-09 5.7052968845771581e-08 -0.0010003108655308969 5.570066941951333e-08 3.1866305337541568e-08 -0.0010003118905836906 5.572468214277043e-08 9.6603660048720071e-08 -0.0012503465007591699 -7.2097933653149498e-12 1.1151688567227115e-07 -0.0012503449397440508 9.2841779467489257e-09 5.7052968845771521e-08 -0.0010003108655308971 5.5759784545069991e-08 9.669299649234198e-08 -0.0010003137506441055 -7.2097933653149498e-12 1.1151688567227115e-07 -0.0012503449397440508 -2.4316836455266371e-08 7.1462615452308846e-08 -0.0010003097077926767 -8.4418387445423561e-11 1.1160851418147739e-07 -0.001000311121671714 -5.5767148648560032e-08 9.657636162177825e-08 -0.0012503441414194721 -7.2097933653149498e-12 1.1151688567227115e-07 -0.0012503449397440508 -2.4204763569332552e-08 7.1404022061011911e-08 -0.0012503455722689446 9.1395822057105806e-09 5.7056244758848489e-08 -0.0012503457480731199 -2.4316836455266371e-08 7.1462615452308846e-08 -0.0010003097077926767 -7.2097933653149498e-12 1.1151688567227115e-07 -0.0012503449397440508 -2.4204763569332552e-08 7.1404022061011911e-08 -0.0012503455722689446 -2.4316836455266371e-08 7.1462615452308846e-08 -0.0010003097077926767 -5.5767148648560032e-08 9.657636162177825e-08 -0.0012503441414194721 -7.2097933653149498e-12 1.1151688567227115e-07 -0.0012503449397440508 9.1395822057105806e-09 5.7056244758848489e-08 -0.0012503457480731199 -2.4316836455266371e-08 7.1462615452308846e-08 -0.0010003097077926767 9.2841779467489306e-09 5.7052968845771548e-08 -0.0010003108655308969 -2.4204763569332552e-08 7.1404022061011911e-08 -0.0012503455722689446 9.1395822057105806e-09 5.7056244758848489e-08 -0.0012503457480731199 -2.4316836455266371e-08 7.1462615452308846e-08 -0.0010003097077926767 -1.9819443779558821e-08 3.5827338348239626e-08 -0.0012503451392374041 -7.2097933653149498e-12 1.1151688567227115e-07 -0.0012503449397440508 -2.4316836455266371e-08 7.1462615452308846e-08 -0.0010003097077926767 9.2841779467489306e-09 5.7052968845771548e-08 -0.0010003108655308969 -8.4418387445423561e-11 1.1160851418147739e-07 -0.001000311121671714 -7.2097933653149498e-12 1.1151688567227115e-07 -0.0012503449397440508 9.2841779467489472e-09 5.7052968845771554e-08 -0.0010003108655308967 -8.4418387445423561e-11 1.1160851418147739e-07 -0.001000311121671714 5.5759784545069971e-08 9.669299649234198e-08 -0.0010003137506441055 5.572468214277043e-08 9.6603660048720071e-08 -0.0012503465007591699 9.2841779467488893e-09 5.7052968845771554e-08 -0.0010003108655308969 5.5759784545069991e-08 9.669299649234198e-08 -0.0010003137506441055 5.570066941951333e-08 3.1866305337541568e-08 -0.0010003118905836906 9.2841779467489306e-09 5.7052968845771548e-08 -0.0010003108655308969 5.5759784545069991e-08 9.669299649234198e-08 -0.0010003137506441055 1.0870337221934634e-08 5.7028204953269227e-08 -0.00075027890328412399 5.6585132448300938e-08 3.2001109339560793e-08 -0.00075028200690552261 5.5759784545069991e-08 9.669299649234198e-08 -0.0010003137506441055 1.0870337221934594e-08 5.7028204953269234e-08 -0.00075027890328412399 5.7209558131025322e-08 9.5796128536919211e-08 -0.00075028569304355056 5.6585132448300951e-08 3.2001109339560786e-08 -0.00075028200690552261 -8.4418387445423561e-11 1.1160851418147739e-07 -0.001000311121671714 5.5759784545069991e-08 9.669299649234198e-08 -0.0010003137506441055 1.0870337221934634e-08 5.7028204953269227e-08 -0.00075027890328412399 5.7209558131025315e-08 9.5796128536919198e-08 -0.00075028569304355067 -8.4418387445423561e-11 1.1160851418147739e-07 -0.001000311121671714 1.087033722193465e-08 5.7028204953269234e-08 -0.00075027890328412399 5.7209558131025302e-08 9.5796128536919211e-08 -0.00075028569304355056 1.9989609870016605e-09 1.1165766193858761e-07 -0.00075027973381865066 9.2841779467489306e-09 5.7052968845771548e-08 -0.0010003108655308969 -8.441838744541989e-11 1.1160851418147741e-07 -0.001000311121671714 5.5759784545069991e-08 9.669299649234198e-08 -0.0010003137506441055 1.0870337221934634e-08 5.7028204953269227e-08 -0.00075027890328412399 -2.4316836455266371e-08 7.1462615452308846e-08 -0.0010003097077926767 9.2841779467489306e-09 5.7052968845771548e-08 -0.0010003108655308969 -2.3150430250319303e-08 7.1581218292504254e-08 -0.00075027681421648527 -2.0028507822028517e-08 3.5794560736786695e-08 -0.0010003093960996227 -2.4316836455266371e-08 7.1462615452308846e-08 -0.0010003097077926767 9.2841779467489306e-09 5.7052968845771548e-08 -0.0010003108655308969 -8.4418387445423561e-11 1.1160851418147739e-07 -0.001000311121671714 -2.3150430250319303e-08 7.1581218292504254e-08 -0.00075027681421648527 -8.4418387445423561e-11 1.1160851418147739e-07 -0.001000311121671714 -2.3150430250319303e-08 7.1581218292504254e-08 -0.00075027681421648527 1.0870337221934634e-08 5.7028204953269227e-08 -0.00075027890328412399 1.9989609870016605e-09 1.1165766193858761e-07 -0.00075027973381865066 9.2841779467489306e-09 5.7052968845771548e-08 -0.0010003108655308969 -8.4418387445423561e-11 1.1160851418147739e-07 -0.001000311121671714 -2.3150430250319303e-08 7.1581218292504254e-08 -0.00075027681421648527 1.0870337221934634e-08 5.7028204953269227e-08 -0.00075027890328412399 -2.4316836455266371e-08 7.1462615452308846e-08 -0.0010003097077926767 -8.4418387445423561e-11 1.1160851418147739e-07 -0.001000311121671714 -2.3150430250319303e-08 7.1581218292504254e-08 -0.00075027681421648527 -5.5890108163628416e-08 9.6605499715688571e-08 -0.0010003094588849103 -2.5386091934359945e-08 6.9258134957566942e-08 -0.00050024056826672816 -2.3150430250319303e-08 7.1581218292504254e-08 -0.00075027681421648527 1.0870337221934634e-08 5.7028204953269227e-08 -0.00075027890328412399 1.9989609870016605e-09 1.1165766193858761e-07 -0.00075027973381865066 -2.5386091934359945e-08 6.9258134957566942e-08 -0.00050024056826672816 -2.3150430250319303e-08 7.1581218292504254e-08 -0.00075027681421648527 1.9989609870016415e-09 1.1165766193858762e-07 -0.00075027973381865066 -5.4063898770752648e-08 9.7721118379986851e-08 -0.00075027604354480559 1.2954610733142013e-08 5.6980233314405702e-08 -0.0005002458618424189 -2.5386091934359945e-08 6.9258134957566942e-08 -0.00050024056826672816 1.0870337221934634e-08 5.7028204953269227e-08 -0.00075027890328412399 1.9989609870016605e-09 1.1165766193858761e-07 -0.00075027973381865066 -2.5386091934359945e-08 6.9258134957566942e-08 -0.00050024056826672816 -2.3150430250319303e-08 7.1581218292504254e-08 -0.00075027681421648527 1.0870337221934634e-08 5.7028204953269227e-08 -0.00075027890328412399 -1.9290632859786371e-08 3.6142341124980069e-08 -0.00075027598246758744 4.4878045432132874e-08 1.0091057764059225e-07 -0.00050026552020992533 1.2954610733142005e-08 5.6980233314405709e-08 -0.0005002458618424189 5.7209558131025322e-08 9.5796128536919211e-08 -0.00075028569304355056 1.9989609870016754e-09 1.1165766193858758e-07 -0.00075027973381865066 1.2954610733142013e-08 5.6980233314405702e-08 -0.0005002458618424189 1.0870337221934634e-08 5.7028204953269227e-08 -0.00075027890328412399 5.7209558131025355e-08 9.5796128536919237e-08 -0.00075028569304355067 1.9989609870016605e-09 1.1165766193858761e-07 -0.00075027973381865066 5.7241913884178313e-08 3.4702006978312205e-08 -0.00050025569006567313 1.295461073314201e-08 5.6980233314405702e-08 -0.0005002458618424189 1.0870337221934634e-08 5.7028204953269227e-08 -0.00075027890328412399 5.7209558131025335e-08 9.5796128536919224e-08 -0.00075028569304355056 -1.3462608655814692e-08 1.0928001545293539e-07 -0.00050025034956004881 -2.5386091934359945e-08 6.9258134957566942e-08 -0.00050024056826672816 1.9989609870016605e-09 1.1165766193858761e-07 -0.00075027973381865066 -5.4063898770752661e-08 9.7721118379986838e-08 -0.00075027604354480559 -8.4418387445423561e-11 1.1160851418147739e-07 -0.001000311121671714 -2.3150430250319303e-08 7.1581218292504254e-08 -0.00075027681421648527 1.9989609870016605e-09 1.1165766193858761e-07 -0.00075027973381865066 -5.5890108163628416e-08 9.6605499715688571e-08 -0.0010003094588849103 -5.1284875863106154e-08 5.0052426183993973e-08 -0.00050023973439031915 -2.3150430250319303e-08 7.1581218292504254e-08 -0.00075027681421648527 -5.4063898770752661e-08 9.7721118379986838e-08 -0.00075027604354480559 -4.8816830438797602e-08 5.3218745131490982e-08 -0.00075027600863015478 -5.1284875863106154e-08 5.0052426183993973e-08 -0.00050023973439031915 -2.5386091934359945e-08 6.9258134957566942e-08 -0.00050024056826672805 -2.3150430250319303e-08 7.1581218292504254e-08 -0.00075027681421648527 -1.9290632859786371e-08 3.6142341124980069e-08 -0.00075027598246758744 -5.1284875863106154e-08 5.0052426183993973e-08 -0.00050023973439031915 -2.5386091934359945e-08 6.9258134957566942e-08 -0.00050024056826672816 -2.3150430250319303e-08 7.1581218292504254e-08 -0.00075027681421648527 -5.4063898770752661e-08 9.7721118379986838e-08 -0.00075027604354480559 -5.1284875863106154e-08 5.0052426183993973e-08 -0.00050023973439031915 -6.6338838257227869e-08 8.7950531112589906e-08 -0.0005002410056743243 -5.4063898770752648e-08 9.7721118379986838e-08 -0.00075027604354480559 -9.5744675234072751e-08 5.7470418783861308e-08 -0.00075027825011892563 -5.1284875863106154e-08 5.0052426183993973e-08 -0.00050023973439031915 -5.4063898770752642e-08 9.7721118379986825e-08 -0.00075027604354480548 -4.8816830438797608e-08 5.3218745131490982e-08 -0.00075027600863015478 -9.5744675234072738e-08 5.7470418783861295e-08 -0.00075027825011892574 -2.4316836455266371e-08 7.1462615452308846e-08 -0.0010003097077926767 -2.3150430250319303e-08 7.1581218292504254e-08 -0.00075027681421648527 -2.0028507822028517e-08 3.5794560736786695e-08 -0.0010003093960996227 -4.8816830438797602e-08 5.3218745131490982e-08 -0.00075027600863015478 -2.3150430250319303e-08 7.1581218292504254e-08 -0.00075027681421648527 -5.4063898770752661e-08 9.7721118379986838e-08 -0.00075027604354480559 -5.5890108163628416e-08 9.6605499715688571e-08 -0.0010003094588849103 -4.8816830438797602e-08 5.3218745131490982e-08 -0.00075027600863015478 -2.3150430250319303e-08 7.1581218292504254e-08 -0.00075027681421648527 1.9989609870016605e-09 1.1165766193858761e-07 -0.00075027973381865066 -5.4063898770752661e-08 9.7721118379986838e-08 -0.00075027604354480559 -5.5890108163628416e-08 9.6605499715688571e-08 -0.0010003094588849103 -2.4316836455266371e-08 7.1462615452308846e-08 -0.0010003097077926767 -5.5890108163628416e-08 9.6605499715688571e-08 -0.0010003094588849103 -4.957594530188591e-08 5.2973369267418951e-08 -0.0010003090191562979 -4.8816830438797602e-08 5.3218745131490982e-08 -0.00075027600863015478 -2.4316836455266371e-08 7.1462615452308846e-08 -0.0010003097077926767 -2.3150430250319303e-08 7.1581218292504254e-08 -0.00075027681421648527 -5.5890108163628416e-08 9.6605499715688571e-08 -0.0010003094588849103 -4.8816830438797602e-08 5.3218745131490982e-08 -0.00075027600863015478 -5.4063898770752661e-08 9.7721118379986838e-08 -0.00075027604354480559 -5.5890108163628416e-08 9.6605499715688571e-08 -0.0010003094588849103 -9.6699058605032587e-08 5.5734645664588157e-08 -0.0010003099531871132 -4.8816830438797602e-08 5.3218745131490982e-08 -0.00075027600863015478 -5.5890108163628416e-08 9.6605499715688571e-08 -0.0010003094588849103 -9.6699058605032587e-08 5.5734645664588157e-08 -0.0010003099531871132 -4.957594530188591e-08 5.2973369267418951e-08 -0.0010003090191562979 -4.8816830438797602e-08 5.3218745131490982e-08 -0.00075027600863015478 -5.4063898770752661e-08 9.7721118379986838e-08 -0.00075027604354480559 -9.6699058605032587e-08 5.5734645664588157e-08 -0.0010003099531871132 -4.8816830438797602e-08 5.3218745131490982e-08 -0.00075027600863015478 -9.5744675234072738e-08 5.7470418783861315e-08 -0.00075027825011892574 -5.5890108163628416e-08 9.6605499715688571e-08 -0.0010003094588849103 -9.6597270730570934e-08 5.5728264358292964e-08 -0.0012503439263323605 -9.6699058605032587e-08 5.5734645664588157e-08 -0.0010003099531871132 -4.957594530188591e-08 5.2973369267418951e-08 -0.0010003090191562979 -2.4316836455266371e-08 7.1462615452308846e-08 -0.0010003097077926767 -5.5890108163628416e-08 9.6605499715688571e-08 -0.0010003094588849103 -5.5767148648560032e-08 9.657636162177825e-08 -0.0012503441414194721 -4.957594530188591e-08 5.2973369267418951e-08 -0.0010003090191562979 -2.4316836455266371e-08 7.1462615452308846e-08 -0.0010003097077926767 -8.4418387445423561e-11 1.1160851418147739e-07 -0.001000311121671714 -5.5890108163628416e-08 9.6605499715688571e-08 -0.0010003094588849103 -5.5767148648560032e-08 9.657636162177825e-08 -0.0012503441414194721 -5.5767148648560032e-08 9.657636162177825e-08 -0.0012503441414194721 -9.6597270730570934e-08 5.5728264358292964e-08 -0.0012503439263323605 -4.957594530188591e-08 5.2973369267418958e-08 -0.0010003090191562979 -4.9223593650060508e-08 5.3022284907963747e-08 -0.0012503455686359017 -2.4204763569332552e-08 7.1404022061011911e-08 -0.0012503455722689446 -2.4316836455266371e-08 7.1462615452308846e-08 -0.0010003097077926767 -4.9575945301885903e-08 5.2973369267418951e-08 -0.0010003090191562979 -1.9819443779558821e-08 3.5827338348239626e-08 -0.0012503451392374041 -5.5890108163628416e-08 9.6605499715688571e-08 -0.0010003094588849103 -5.5767148648560032e-08 9.657636162177825e-08 -0.0012503441414194721 -9.6597270730570934e-08 5.5728264358292964e-08 -0.0012503439263323605 -4.957594530188591e-08 5.2973369267418951e-08 -0.0010003090191562979 -2.4204763569332552e-08 7.1404022061011911e-08 -0.0012503455722689446 -2.4316836455266371e-08 7.1462615452308846e-08 -0.0010003097077926767 -5.5767148648560032e-08 9.657636162177825e-08 -0.0012503441414194721 -4.957594530188591e-08 5.2973369267418951e-08 -0.0010003090191562979 -2.4204763569332552e-08 7.1404022061011911e-08 -0.0012503455722689446 -5.5767148648560032e-08 9.657636162177825e-08 -0.0012503441414194721 -4.957594530188591e-08 5.2973369267418945e-08 -0.0010003090191562979 -4.9223593650060508e-08 5.3022284907963747e-08 -0.0012503455686359017 -9.6597270730570934e-08 5.5728264358292964e-08 -0.0012503439263323605 -1.1151718968280675e-07 -4.2842112943710859e-12 -0.0012503436924650572 -5.0387799794482672e-08 5.4617615559808273e-09 -0.0012503440847124066 -5.0682426580535445e-08 5.2364809212170371e-09 -0.0010003092099210365 -9.6597270730570934e-08 5.5728264358292964e-08 -0.0012503439263323605 -9.6699058605032587e-08 5.5734645664588157e-08 -0.0010003099531871132 -1.1151718968280675e-07 -4.2842112943662093e-12 -0.0012503436924650574 -5.0682426580535445e-08 5.2364809212170371e-09 -0.0010003092099210365 -9.6597270730570934e-08 5.5728264358292964e-08 -0.0012503439263323605 -9.6699058605032587e-08 5.5734645664588157e-08 -0.0010003099531871132 -5.0682426580535445e-08 5.2364809212170371e-09 -0.0010003092099210365 -4.957594530188591e-08 5.2973369267418951e-08 -0.0010003090191562979 -9.6699058605032587e-08 5.5734645664588157e-08 -0.0010003099531871132 -1.1160525698435658e-07 -1.066850898372204e-10 -0.0010003101361513739 -1.1151718968280675e-07 -4.2842112943705407e-12 -0.0012503436924650572 -5.0682426580535445e-08 5.2364809212170371e-09 -0.0010003092099210365 -1.1160525698435658e-07 -1.0668508983722053e-10 -0.0010003101361513737 -1.1151718968280675e-07 -4.2842112943705407e-12 -0.0012503436924650572 -5.0682426580535445e-08 5.2364809212170371e-09 -0.0010003092099210365 -6.6158895658038198e-08 -4.0524642609492099e-08 -0.0010003084963546007 -1.1160525698435658e-07 -1.0668508983722053e-10 -0.0010003101361513737 -1.1151718968280675e-07 -4.2842112943705407e-12 -0.0012503436924650572 -6.6158895658038198e-08 -4.0524642609492099e-08 -0.0010003084963546007 -9.6575161760702705e-08 -5.57820568234144e-08 -0.0012503432487501031 -1.1151718968280675e-07 -4.2842112943705407e-12 -0.0012503436924650572 -5.0387799794482666e-08 5.4617615559808331e-09 -0.0012503440847124068 -5.0682426580535445e-08 5.2364809212170371e-09 -0.0010003092099210365 -6.6158895658038198e-08 -4.0524642609492099e-08 -0.0010003084963546007 -1.1151718968280675e-07 -4.2842112943705407e-12 -0.0012503436924650572 -5.0387799794482666e-08 5.4617615559808331e-09 -0.0012503440847124068 -6.6158895658038198e-08 -4.0524642609492099e-08 -0.0010003084963546007 -6.5824277720894991e-08 -4.0327441323831707e-08 -0.0012503449557537748 -5.0387799794482666e-08 5.4617615559808331e-09 -0.0012503440847124068 -5.0682426580535445e-08 5.2364809212170371e-09 -0.0010003092099210365 -1.5339774109116142e-08 -5.5591866745867067e-08 -0.001000308475025609 -6.6158895658038198e-08 -4.0524642609492099e-08 -0.0010003084963546007 -5.0387799794482666e-08 5.4617615559808331e-09 -0.0012503440847124068 -5.0682426580535445e-08 5.2364809212170371e-09 -0.0010003092099210365 4.8028579426755534e-09 1.3932324094917235e-09 -0.0010003092096622882 -1.5339774109116162e-08 -5.5591866745867067e-08 -0.001000308475025609 -5.0387799794482666e-08 5.4617615559808331e-09 -0.0012503440847124068 -5.0682426580535445e-08 5.2364809212170371e-09 -0.0010003092099210365 4.8028579426755558e-09 1.3932324094917243e-09 -0.001000309209662288 -2.0028507822028517e-08 3.5794560736786695e-08 -0.0010003093960996227 -5.0387799794482666e-08 5.4617615559808331e-09 -0.0012503440847124068 -5.0682426580535445e-08 5.2364809212170371e-09 -0.0010003092099210365 -4.957594530188591e-08 5.2973369267418951e-08 -0.0010003090191562979 -2.0028507822028517e-08 3.5794560736786695e-08 -0.0010003093960996227 -2.4316836455266371e-08 7.1462615452308846e-08 -0.0010003097077926767 -4.957594530188591e-08 5.2973369267418951e-08 -0.0010003090191562979 -1.9819443779558821e-08 3.5827338348239626e-08 -0.0012503451392374041 -2.0028507822028517e-08 3.5794560736786695e-08 -0.0010003093960996227 -5.0387799794482666e-08 5.4617615559808331e-09 -0.0012503440847124068 -4.957594530188591e-08 5.2973369267418951e-08 -0.0010003090191562979 -1.9819443779558821e-08 3.5827338348239626e-08 -0.0012503451392374041 -2.0028507822028517e-08 3.5794560736786695e-08 -0.0010003093960996227 -2.4204763569332552e-08 7.1404022061011911e-08 -0.0012503455722689446 -4.9575945301885916e-08 5.2973369267418951e-08 -0.0010003090191562979 -4.9223593650060508e-08 5.3022284907963747e-08 -0.0012503455686359017 -1.9819443779558821e-08 3.5827338348239626e-08 -0.0012503451392374041 -9.6597270730570934e-08 5.5728264358292964e-08 -0.0012503439263323605 -5.0387799794482666e-08 5.4617615559808331e-09 -0.0012503440847124068 -5.0682426580535445e-08 5.2364809212170371e-09 -0.0010003092099210365 -4.957594530188591e-08 5.2973369267418951e-08 -0.0010003090191562979 -5.0387799794482666e-08 5.4617615559808331e-09 -0.0012503440847124068 -4.957594530188591e-08 5.2973369267418951e-08 -0.0010003090191562979 -4.9223593650060508e-08 5.3022284907963747e-08 -0.0012503455686359017 -1.9819443779558821e-08 3.5827338348239626e-08 -0.0012503451392374041 -9.6597270730570934e-08 5.5728264358292964e-08 -0.0012503439263323605 -5.0387799794482666e-08 5.4617615559808331e-09 -0.0012503440847124068 -4.957594530188591e-08 5.2973369267418951e-08 -0.0010003090191562979 -4.9223593650060508e-08 5.3022284907963747e-08 -0.0012503455686359017 9.1395822057105806e-09 5.7056244758848489e-08 -0.0012503457480731199 -2.4316836455266371e-08 7.1462615452308846e-08 -0.0010003097077926767 -1.9819443779558821e-08 3.5827338348239626e-08 -0.0012503451392374041 -2.0028507822028517e-08 3.5794560736786695e-08 -0.0010003093960996227 9.1395822057105806e-09 5.7056244758848489e-08 -0.0012503457480731199 -1.9819443779558821e-08 3.5827338348239626e-08 -0.0012503451392374041 4.9472447986843343e-09 1.4927605076673169e-09 -0.0012503445052008666 -2.0028507822028517e-08 3.5794560736786695e-08 -0.0010003093960996227 -5.0387799794482666e-08 5.4617615559808331e-09 -0.0012503440847124068 -1.9819443779558821e-08 3.5827338348239626e-08 -0.0012503451392374041 4.9472447986843343e-09 1.4927605076673169e-09 -0.0012503445052008666 -2.0028507822028517e-08 3.5794560736786695e-08 -0.0010003093960996227 9.1395822057105806e-09 5.7056244758848489e-08 -0.0012503457480731199 9.2841779467489306e-09 5.7052968845771548e-08 -0.0010003108655308969 4.9472447986843343e-09 1.4927605076673169e-09 -0.0012503445052008666 -2.0028507822028517e-08 3.5794560736786695e-08 -0.0010003093960996227 -5.0387799794482666e-08 5.4617615559808331e-09 -0.0012503440847124068 4.9472447986843343e-09 1.4927605076673169e-09 -0.0012503445052008666 4.8028579426755376e-09 1.393232409491732e-09 -0.0010003092096622878 -1.4914730821961561e-08 -5.5373804705516817e-08 -0.0012503436630551951 -5.0387799794482666e-08 5.4617615559808331e-09 -0.0012503440847124068 4.9472447986843343e-09 1.4927605076673169e-09 -0.0012503445052008666 4.8028579426755376e-09 1.3932324094917051e-09 -0.001000309209662288 -2.0028507822028517e-08 3.5794560736786695e-08 -0.0010003093960996227 4.9472447986843343e-09 1.4927605076673169e-09 -0.0012503445052008666 4.8028579426755385e-09 1.3932324094917322e-09 -0.001000309209662288 2.1371211884152983e-08 -3.6561087922628815e-08 -0.0010003085992952197 -1.4914730821961561e-08 -5.5373804705516817e-08 -0.0012503436630551951 -5.0387799794482666e-08 5.4617615559808331e-09 -0.0012503440847124068 4.8028579426755376e-09 1.3932324094917345e-09 -0.001000309209662288 -1.5339774109116195e-08 -5.559186674586706e-08 -0.001000308475025609 -1.4914730821961561e-08 -5.5373804705516817e-08 -0.0012503436630551951 4.9472447986843343e-09 1.4927605076673169e-09 -0.0012503445052008666 5.3697367475039809e-08 -2.0389796853786133e-08 -0.0012503451134631837 2.1371211884152986e-08 -3.6561087922628822e-08 -0.0010003085992952197 2.1566939032671822e-08 -3.636645168659521e-08 -0.0012503448469703493 4.9472447986843343e-09 1.4927605076673169e-09 -0.0012503445052008666 5.3697367475039809e-08 -2.0389796853786133e-08 -0.0012503451134631837 4.8028579426755385e-09 1.3932324094917322e-09 -0.001000309209662288 2.1371211884152989e-08 -3.6561087922628815e-08 -0.0010003085992952197 4.9472447986843343e-09 1.4927605076673169e-09 -0.0012503445052008666 5.3697367475039809e-08 -2.0389796853786133e-08 -0.0012503451134631837 5.570066941951333e-08 3.1866305337541568e-08 -0.0010003118905836906 4.8028579426755385e-09 1.3932324094917322e-09 -0.001000309209662288 4.9472447986843343e-09 1.4927605076673169e-09 -0.0012503445052008666 5.3697367475039809e-08 -2.0389796853786133e-08 -0.0012503451134631837 5.5588811167464924e-08 3.1955843364876288e-08 -0.0012503479267366995 5.570066941951333e-08 3.1866305337541568e-08 -0.0010003118905836906 5.572468214277043e-08 9.6603660048720071e-08 -0.0012503465007591699 9.1395822057105856e-09 5.7056244758848483e-08 -0.0012503457480731199 5.5588811167464924e-08 3.1955843364876288e-08 -0.0012503479267366995 5.570066941951333e-08 3.1866305337541568e-08 -0.0010003118905836906 9.1395822057105806e-09 5.7056244758848489e-08 -0.0012503457480731199 9.2841779467489306e-09 5.7052968845771548e-08 -0.0010003108655308969 4.9472447986843343e-09 1.4927605076673169e-09 -0.0012503445052008666 5.5700669419513311e-08 3.1866305337541568e-08 -0.0010003118905836904 9.1395822057105806e-09 5.7056244758848489e-08 -0.0012503457480731199 4.9472447986843343e-09 1.4927605076673169e-09 -0.0012503445052008666 5.5588811167464924e-08 3.1955843364876288e-08 -0.0012503479267366995 5.570066941951333e-08 3.1866305337541568e-08 -0.0010003118905836906 9.2841779467489306e-09 5.7052968845771548e-08 -0.0010003108655308969 4.9472447986843343e-09 1.4927605076673169e-09 -0.0012503445052008666 5.570066941951333e-08 3.1866305337541561e-08 -0.0010003118905836906 4.8028579426755385e-09 1.3932324094917322e-09 -0.001000309209662288 5.3697367475039809e-08 -2.0389796853786133e-08 -0.0012503451134631837 5.570066941951335e-08 3.1866305337541568e-08 -0.0010003118905836906 5.3647496866275931e-08 -2.0497250081268664e-08 -0.0010003101033559643 4.802857942675555e-09 1.3932324094917291e-09 -0.001000309209662288 5.3697367475039809e-08 -2.0389796853786133e-08 -0.0012503451134631837 5.3647496866275931e-08 -2.0497250081268664e-08 -0.0010003101033559643 4.8028579426755591e-09 1.3932324094917409e-09 -0.001000309209662288 2.1371211884152999e-08 -3.6561087922628828e-08 -0.0010003085992952197 9.1395822057105806e-09 5.7056244758848489e-08 -0.0012503457480731199 -2.4316836455266371e-08 7.1462615452308846e-08 -0.0010003097077926767 9.284177946748934e-09 5.7052968845771548e-08 -0.0010003108655308971 -2.0028507822028517e-08 3.5794560736786695e-08 -0.0010003093960996227 9.2841779467489306e-09 5.7052968845771548e-08 -0.0010003108655308969 4.9472447986843261e-09 1.4927605076673175e-09 -0.0012503445052008664 4.8028579426755385e-09 1.3932324094917322e-09 -0.001000309209662288 -2.0028507822028517e-08 3.5794560736786695e-08 -0.0010003093960996227 9.2841779467489306e-09 5.7052968845771548e-08 -0.0010003108655308969 1.0870337221934634e-08 5.7028204953269227e-08 -0.00075027890328412399 4.8028579426755385e-09 1.3932324094917322e-09 -0.001000309209662288 -1.9290632859786371e-08 3.6142341124980069e-08 -0.00075027598246758744 1.0870337221934634e-08 5.7028204953269227e-08 -0.00075027890328412399 4.8028579426755302e-09 1.3932324094917328e-09 -0.001000309209662288 4.8976384880050845e-09 1.8458338208642549e-09 -0.00075027574667114528 -1.9290632859786371e-08 3.6142341124980069e-08 -0.00075027598246758744 9.2841779467489306e-09 5.7052968845771548e-08 -0.0010003108655308969 -2.3150430250319303e-08 7.1581218292504254e-08 -0.00075027681421648527 1.0870337221934637e-08 5.7028204953269227e-08 -0.0007502789032841241 -1.9290632859786371e-08 3.6142341124980069e-08 -0.00075027598246758744 -5.0682426580535445e-08 5.2364809212170371e-09 -0.0010003092099210365 4.8028579426755385e-09 1.3932324094917322e-09 -0.001000309209662288 -2.0028507822028517e-08 3.5794560736786695e-08 -0.0010003093960996227 -1.9290632859786371e-08 3.6142341124980069e-08 -0.00075027598246758744 9.2841779467489306e-09 5.7052968845771548e-08 -0.0010003108655308969 -2.3150430250319303e-08 7.1581218292504254e-08 -0.00075027681421648527 -2.0028507822028517e-08 3.5794560736786695e-08 -0.0010003093960996227 -1.9290632859786371e-08 3.6142341124980069e-08 -0.00075027598246758744 9.2841779467489306e-09 5.7052968845771548e-08 -0.0010003108655308969 4.8028579426755385e-09 1.3932324094917322e-09 -0.001000309209662288 -2.0028507822028517e-08 3.5794560736786695e-08 -0.0010003093960996227 -1.9290632859786371e-08 3.6142341124980069e-08 -0.00075027598246758744 4.8028579426755385e-09 1.3932324094917322e-09 -0.001000309209662288 4.8976384880050845e-09 1.8458338208642549e-09 -0.00075027574667114528 2.0983291308914957e-08 -3.6311535099406849e-08 -0.00075027479642057813 -1.5339774109116175e-08 -5.5591866745867054e-08 -0.001000308475025609 -5.0682426580535445e-08 5.2364809212170371e-09 -0.0010003092099210365 4.8976384880050837e-09 1.8458338208642572e-09 -0.00075027574667114528 -1.6514619347032347e-08 -5.5258126422613693e-08 -0.00075027529645470422 -1.5339774109116175e-08 -5.5591866745867054e-08 -0.001000308475025609 -5.0682426580535445e-08 5.2364809212170371e-09 -0.0010003092099210365 4.8028579426755385e-09 1.3932324094917322e-09 -0.001000309209662288 4.8976384880050837e-09 1.8458338208642549e-09 -0.00075027574667114517 -1.5339774109116175e-08 -5.5591866745867054e-08 -0.001000308475025609 -5.0682426580535445e-08 5.2364809212170371e-09 -0.0010003092099210365 4.8028579426755385e-09 1.3932324094917322e-09 -0.001000309209662288 4.8976384880050829e-09 1.8458338208642278e-09 -0.00075027574667114528 -1.9290632859786371e-08 3.6142341124980069e-08 -0.00075027598246758744 5.3647496866275931e-08 -2.0497250081268664e-08 -0.0010003101033559643 4.8028579426755385e-09 1.3932324094917322e-09 -0.001000309209662288 4.897638488005068e-09 1.8458338208642262e-09 -0.00075027574667114539 2.0983291308914964e-08 -3.6311535099406849e-08 -0.00075027479642057824 5.3647496866275931e-08 -2.0497250081268664e-08 -0.0010003101033559643 5.3659635485249457e-08 -1.9712139887736218e-08 -0.00075027713252304618 4.8976384880051052e-09 1.8458338208642638e-09 -0.00075027574667114528 2.0983291308914974e-08 -3.6311535099406862e-08 -0.00075027479642057824 5.3647496866275931e-08 -2.0497250081268664e-08 -0.0010003101033559643 4.8028579426755385e-09 1.3932324094917322e-09 -0.001000309209662288 2.0983291308914964e-08 -3.6311535099406849e-08 -0.00075027479642057824 2.1371211884152989e-08 -3.6561087922628815e-08 -0.0010003085992952197 5.3647496866275931e-08 -2.0497250081268664e-08 -0.0010003101033559643 4.8028579426755385e-09 1.3932324094917322e-09 -0.001000309209662288 5.6585132448300951e-08 3.2001109339560786e-08 -0.00075028200690552261 4.8976384880050945e-09 1.8458338208642715e-09 -0.00075027574667114539 5.3647496866275931e-08 -2.0497250081268664e-08 -0.0010003101033559643 5.6585132448300971e-08 3.2001109339560786e-08 -0.00075028200690552271 5.3659635485249457e-08 -1.9712139887736218e-08 -0.00075027713252304618 4.8976384880051019e-09 1.8458338208642518e-09 -0.00075027574667114528 5.570066941951333e-08 3.1866305337541568e-08 -0.0010003118905836906 5.3647496866275931e-08 -2.0497250081268664e-08 -0.0010003101033559643 4.8028579426755385e-09 1.3932324094917322e-09 -0.001000309209662288 5.6585132448300951e-08 3.2001109339560786e-08 -0.00075028200690552261 9.2841779467489306e-09 5.7052968845771548e-08 -0.0010003108655308969 5.5759784545069991e-08 9.669299649234198e-08 -0.0010003137506441055 5.570066941951333e-08 3.1866305337541568e-08 -0.0010003118905836906 5.6585132448300951e-08 3.2001109339560786e-08 -0.00075028200690552261 9.2841779467489306e-09 5.7052968845771548e-08 -0.0010003108655308969 1.0870337221934634e-08 5.7028204953269227e-08 -0.00075027890328412399 4.8028579426755385e-09 1.3932324094917322e-09 -0.001000309209662288 5.6585132448300931e-08 3.2001109339560786e-08 -0.00075028200690552261 1.0870337221934634e-08 5.7028204953269227e-08 -0.00075027890328412399 4.8028579426755385e-09 1.3932324094917322e-09 -0.001000309209662288 5.6585132448300951e-08 3.200110933956078e-08 -0.0007502820069055225 4.8976384880050845e-09 1.8458338208642549e-09 -0.00075027574667114528 9.2841779467489306e-09 5.7052968845771548e-08 -0.0010003108655308969 5.570066941951333e-08 3.1866305337541574e-08 -0.0010003118905836906 4.8028579426755385e-09 1.3932324094917322e-09 -0.001000309209662288 5.6585132448300951e-08 3.2001109339560786e-08 -0.00075028200690552261 5.7241913884178313e-08 3.4702006978312205e-08 -0.00050025569006567313 1.2954610733142013e-08 5.6980233314405702e-08 -0.0005002458618424189 1.0870337221934634e-08 5.7028204953269227e-08 -0.00075027890328412399 4.8976384880050845e-09 1.8458338208642549e-09 -0.00075027574667114528 5.7241913884178313e-08 3.4702006978312205e-08 -0.00050025569006567313 1.0870337221934653e-08 5.7028204953269221e-08 -0.00075027890328412399 5.7209558131025355e-08 9.5796128536919224e-08 -0.00075028569304355056 5.6585132448300951e-08 3.2001109339560786e-08 -0.00075028200690552261 5.7241913884178313e-08 3.4702006978312205e-08 -0.00050025569006567313 1.0870337221934645e-08 5.7028204953269208e-08 -0.00075027890328412399 5.6585132448300951e-08 3.2001109339560786e-08 -0.00075028200690552261 4.8976384880050845e-09 1.8458338208642549e-09 -0.00075027574667114528 2.1896962331894854e-08 -3.3945748210187888e-08 -0.00050023617907913015 5.2855182073321385e-09 3.3977405201627314e-09 -0.00050024015126507978 5.3659635485249437e-08 -1.9712139887736232e-08 -0.00075027713252304629 4.8976384880050845e-09 1.8458338208642549e-09 -0.00075027574667114528 2.1896962331894854e-08 -3.3945748210187888e-08 -0.00050023617907913015 5.365963548524947e-08 -1.9712139887736188e-08 -0.00075027713252304618 4.8976384880050804e-09 1.84583382086425e-09 -0.00075027574667114528 2.0983291308914964e-08 -3.6311535099406849e-08 -0.00075027479642057824 5.2855182073321385e-09 3.3977405201627314e-09 -0.00050024015126507978 5.7241913884178313e-08 3.4702006978312205e-08 -0.00050025569006567313 5.3659635485249437e-08 -1.9712139887736198e-08 -0.00075027713252304618 4.8976384880050845e-09 1.8458338208642549e-09 -0.00075027574667114528 5.7241913884178313e-08 3.4702006978312205e-08 -0.00050025569006567313 5.6585132448300951e-08 3.2001109339560786e-08 -0.00075028200690552261 5.3659635485249477e-08 -1.9712139887736218e-08 -0.00075027713252304629 4.8976384880050754e-09 1.8458338208642738e-09 -0.00075027574667114539 -1.983943086492959e-08 3.6185946767029223e-08 -0.00050023853632976604 5.2855182073321385e-09 3.3977405201627314e-09 -0.00050024015126507978 4.8976384880050845e-09 1.8458338208642549e-09 -0.00075027574667114528 -5.0701442039059476e-08 5.2386630177892783e-09 -0.00075027636228658455 5.2855182073321385e-09 3.3977405201627314e-09 -0.00050024015126507978 4.8976384880050845e-09 1.8458338208642549e-09 -0.00075027574667114528 -5.0701442039059489e-08 5.2386630177892676e-09 -0.00075027636228658455 -1.6514619347032344e-08 -5.525812642261368e-08 -0.00075027529645470433 -1.7763088572694871e-08 -5.5698635139338912e-08 -0.00050024072692774217 5.2855182073321385e-09 3.3977405201627314e-09 -0.00050024015126507978 -5.0701442039059509e-08 5.2386630177892924e-09 -0.00075027636228658465 -1.651461934703233e-08 -5.5258126422613687e-08 -0.00075027529645470433 2.1896962331894854e-08 -3.3945748210187888e-08 -0.00050023617907913015 5.2855182073321385e-09 3.3977405201627314e-09 -0.00050024015126507978 4.8976384880050639e-09 1.8458338208642444e-09 -0.00075027574667114528 -1.6514619347032307e-08 -5.5258126422613674e-08 -0.00075027529645470433 -1.983943086492959e-08 3.6185946767029223e-08 -0.00050023853632976604 -2.5386091934359945e-08 6.9258134957566942e-08 -0.00050024056826672816 1.0870337221934634e-08 5.7028204953269227e-08 -0.00075027890328412399 -1.9290632859786371e-08 3.6142341124980069e-08 -0.00075027598246758744 -1.983943086492959e-08 3.6185946767029223e-08 -0.00050023853632976604 4.8976384880050845e-09 1.8458338208642549e-09 -0.00075027574667114528 -1.9290632859786371e-08 3.6142341124980069e-08 -0.00075027598246758744 -5.0701442039059476e-08 5.2386630177892783e-09 -0.00075027636228658455 -1.983943086492959e-08 3.6185946767029223e-08 -0.00050023853632976604 1.2954610733142013e-08 5.6980233314405702e-08 -0.0005002458618424189 1.0870337221934634e-08 5.7028204953269227e-08 -0.00075027890328412399 4.8976384880050845e-09 1.8458338208642549e-09 -0.00075027574667114528 -1.983943086492959e-08 3.6185946767029223e-08 -0.00050023853632976604 1.0870337221934634e-08 5.7028204953269227e-08 -0.00075027890328412399 4.8976384880050845e-09 1.8458338208642549e-09 -0.00075027574667114528 -1.9290632859786371e-08 3.6142341124980069e-08 -0.00075027598246758744 -5.1284875863106154e-08 5.0052426183993973e-08 -0.00050023973439031915 -4.8816830438797602e-08 5.3218745131490982e-08 -0.00075027600863015478 -9.5744675234072738e-08 5.7470418783861315e-08 -0.00075027825011892574 -5.0701442039059476e-08 5.2386630177892783e-09 -0.00075027636228658455 -5.1284875863106154e-08 5.0052426183993973e-08 -0.00050023973439031915 -2.3150430250319303e-08 7.1581218292504254e-08 -0.00075027681421648527 -1.9290632859786371e-08 3.6142341124980069e-08 -0.00075027598246758744 -4.8816830438797602e-08 5.3218745131490982e-08 -0.00075027600863015478 -5.0932247060171042e-08 3.031684046920254e-09 -0.00050024263792330774 -5.1284875863106154e-08 5.0052426183993973e-08 -0.00050023973439031915 -9.5744675234072738e-08 5.7470418783861315e-08 -0.00075027825011892574 -5.0701442039059476e-08 5.2386630177892783e-09 -0.00075027636228658455 -5.1284875863106154e-08 5.0052426183993973e-08 -0.00050023973439031915 -1.983943086492959e-08 3.6185946767029223e-08 -0.00050023853632976604 -1.9290632859786371e-08 3.6142341124980069e-08 -0.00075027598246758744 -5.0701442039059476e-08 5.2386630177892783e-09 -0.00075027636228658455 -5.1284875863106154e-08 5.0052426183993973e-08 -0.00050023973439031915 -1.9290632859786384e-08 3.6142341124980049e-08 -0.00075027598246758755 -4.8816830438797602e-08 5.3218745131490982e-08 -0.00075027600863015478 -5.0701442039059476e-08 5.2386630177892783e-09 -0.00075027636228658455 -5.0932247060171042e-08 3.031684046920254e-09 -0.00050024263792330774 -9.5744675234072738e-08 5.7470418783861315e-08 -0.00075027825011892574 -1.1167803932505964e-07 1.9377224298391523e-09 -0.00075027954691668009 -5.0701442039059476e-08 5.2386630177892783e-09 -0.00075027636228658455 -5.0932247060171042e-08 3.031684046920254e-09 -0.00050024263792330774 -1.013265133837739e-07 4.3164032121556724e-08 -0.00050024815173480269 -9.5744675234072738e-08 5.7470418783861315e-08 -0.00075027825011892574 -1.1167803932505964e-07 1.9377224298391523e-09 -0.00075027954691668009 -9.6699058605032587e-08 5.5734645664588157e-08 -0.0010003099531871132 -1.1160525698435658e-07 -1.066850898372211e-10 -0.0010003101361513737 -5.0682426580535451e-08 5.2364809212170313e-09 -0.0010003092099210363 -5.0701442039059476e-08 5.2386630177892783e-09 -0.00075027636228658455 -9.6699058605032587e-08 5.5734645664588157e-08 -0.0010003099531871132 -4.8816830438797628e-08 5.3218745131490982e-08 -0.00075027600863015467 -9.5744675234072738e-08 5.7470418783861315e-08 -0.00075027825011892574 -5.0701442039059476e-08 5.2386630177892783e-09 -0.00075027636228658455 -1.1160525698435658e-07 -1.0668508983722053e-10 -0.0010003101361513737 -9.5744675234072751e-08 5.7470418783861328e-08 -0.00075027825011892574 -1.1167803932505964e-07 1.9377224298391523e-09 -0.00075027954691668009 -5.0701442039059476e-08 5.2386630177892783e-09 -0.00075027636228658455 -9.6699058605032587e-08 5.5734645664588157e-08 -0.0010003099531871132 -1.1160525698435658e-07 -1.0668508983722133e-10 -0.0010003101361513737 -9.5744675234072738e-08 5.7470418783861315e-08 -0.00075027825011892574 -5.0701442039059476e-08 5.2386630177892783e-09 -0.00075027636228658455 -2.4316836455266371e-08 7.1462615452308846e-08 -0.0010003097077926767 -4.957594530188591e-08 5.2973369267418951e-08 -0.0010003090191562979 -2.0028507822028517e-08 3.5794560736786695e-08 -0.0010003093960996227 -4.8816830438797602e-08 5.3218745131490982e-08 -0.00075027600863015478 -9.6699058605032587e-08 5.5734645664588157e-08 -0.0010003099531871132 -5.0682426580535445e-08 5.2364809212170371e-09 -0.0010003092099210365 -4.957594530188591e-08 5.2973369267418951e-08 -0.0010003090191562979 -4.8816830438797602e-08 5.3218745131490982e-08 -0.00075027600863015478 -2.3150430250319303e-08 7.1581218292504254e-08 -0.00075027681421648527 -2.0028507822028517e-08 3.5794560736786695e-08 -0.0010003093960996227 -1.9290632859786371e-08 3.6142341124980069e-08 -0.00075027598246758744 -4.8816830438797602e-08 5.3218745131490982e-08 -0.00075027600863015478 -5.0682426580535445e-08 5.2364809212170371e-09 -0.0010003092099210365 -4.957594530188591e-08 5.2973369267418951e-08 -0.0010003090191562979 -2.0028507822028517e-08 3.5794560736786695e-08 -0.0010003093960996227 -4.8816830438797602e-08 5.3218745131490982e-08 -0.00075027600863015478 -5.0682426580535445e-08 5.2364809212170371e-09 -0.0010003092099210365 -1.9290632859786387e-08 3.6142341124980095e-08 -0.00075027598246758744 -4.8816830438797602e-08 5.3218745131490982e-08 -0.00075027600863015478 -5.0701442039059476e-08 5.2386630177892783e-09 -0.00075027636228658455 -5.0682426580535445e-08 5.2364809212170371e-09 -0.0010003092099210365 -2.0028507822028517e-08 3.5794560736786695e-08 -0.0010003093960996227 -1.9290632859786371e-08 3.6142341124980069e-08 -0.00075027598246758744 -4.8816830438797602e-08 5.3218745131490982e-08 -0.00075027600863015478 -9.6699058605032587e-08 5.5734645664588157e-08 -0.0010003099531871132 -5.0682426580535445e-08 5.2364809212170371e-09 -0.0010003092099210365 -4.8816830438797602e-08 5.3218745131490982e-08 -0.00075027600863015478 -5.0701442039059476e-08 5.2386630177892783e-09 -0.00075027636228658455 -5.0682426580535445e-08 5.2364809212170371e-09 -0.0010003092099210365 4.8976384880051127e-09 1.8458338208642491e-09 -0.00075027574667114528 -5.0701442039059476e-08 5.2386630177892783e-09 -0.00075027636228658455 -1.6514619347032304e-08 -5.52581264226137e-08 -0.00075027529645470433 -5.0682426580535445e-08 5.2364809212170371e-09 -0.0010003092099210365 4.8976384880051085e-09 1.8458338208642398e-09 -0.00075027574667114528 -1.9290632859786371e-08 3.6142341124980069e-08 -0.00075027598246758744 -5.0701442039059476e-08 5.2386630177892783e-09 -0.00075027636228658455 -5.0682426580535445e-08 5.2364809212170371e-09 -0.0010003092099210365 -5.0701442039059476e-08 5.2386630177892783e-09 -0.00075027636228658455 -6.6854302365844364e-08 -4.0015068630784099e-08 -0.0007502766404854787 -1.6514619347032301e-08 -5.5258126422613707e-08 -0.00075027529645470444 -1.1160525698435658e-07 -1.0668508983722053e-10 -0.0010003101361513737 -1.1167803932505964e-07 1.9377224298391523e-09 -0.00075027954691668009 -6.6854302365844377e-08 -4.0015068630784099e-08 -0.0007502766404854787 -9.6578755873673105e-08 -5.5901428175213116e-08 -0.0010003086428431193 -1.1160525698435658e-07 -1.0668508983722053e-10 -0.0010003101361513737 -5.0682426580535445e-08 5.2364809212170371e-09 -0.0010003092099210365 -6.6854302365844377e-08 -4.0015068630784099e-08 -0.0007502766404854787 -6.6158895658038198e-08 -4.0524642609492099e-08 -0.0010003084963546007 -1.1160525698435658e-07 -1.0668508983722053e-10 -0.0010003101361513737 -1.1167803932505964e-07 1.9377224298391523e-09 -0.00075027954691668009 -5.0701442039059462e-08 5.238663017789299e-09 -0.00075027636228658455 -6.685430236584439e-08 -4.0015068630784119e-08 -0.0007502766404854787 -1.1160525698435658e-07 -1.0668508983722053e-10 -0.0010003101361513737 -5.0682426580535445e-08 5.2364809212170371e-09 -0.0010003092099210365 -5.0701442039059476e-08 5.2386630177892783e-09 -0.00075027636228658455 -6.6854302365844377e-08 -4.0015068630784099e-08 -0.0007502766404854787 -6.5683348630353143e-08 -4.3493399705118859e-08 -0.0005002454410581457 -1.0916644725098241e-07 -1.3238989244960683e-08 -0.00050025386220562936 -1.1167803932505964e-07 1.9377224298391523e-09 -0.00075027954691668009 -9.7770367953387412e-08 -5.4076971546156669e-08 -0.00075027636963191538 -6.5683348630353143e-08 -4.3493399705118859e-08 -0.0005002454410581457 -5.0932247060171042e-08 3.031684046920254e-09 -0.00050024263792330774 -1.1167803932505964e-07 1.9377224298391523e-09 -0.00075027954691668009 -5.0701442039059476e-08 5.2386630177892783e-09 -0.00075027636228658455 -6.5683348630353143e-08 -4.3493399705118859e-08 -0.0005002454410581457 -1.1167803932505964e-07 1.9377224298391523e-09 -0.00075027954691668009 -5.0701442039059469e-08 5.2386630177892883e-09 -0.00075027636228658465 -6.6854302365844377e-08 -4.0015068630784099e-08 -0.0007502766404854787 -1.7763088572694871e-08 -5.5698635139338912e-08 -0.00050024072692774217 -6.5683348630353143e-08 -4.3493399705118859e-08 -0.0005002454410581457 -5.0701442039059469e-08 5.2386630177893089e-09 -0.00075027636228658465 -1.651461934703233e-08 -5.5258126422613687e-08 -0.00075027529645470433 -6.5683348630353143e-08 -4.3493399705118859e-08 -0.0005002454410581457 -5.0701442039059515e-08 5.2386630177892676e-09 -0.00075027636228658455 -6.6854302365844377e-08 -4.0015068630784099e-08 -0.0007502766404854787 -1.6514619347032291e-08 -5.5258126422613707e-08 -0.00075027529645470433 -1.7763088572694871e-08 -5.5698635139338912e-08 -0.00050024072692774217 -6.5683348630353143e-08 -4.3493399705118859e-08 -0.0005002454410581457 -5.7170960326111917e-08 -9.5808094098703218e-08 -0.00075027803755020768 -1.651461934703233e-08 -5.5258126422613687e-08 -0.00075027529645470433 -6.5683348630353143e-08 -4.3493399705118859e-08 -0.0005002454410581457 -6.6854302365844377e-08 -4.0015068630784099e-08 -0.0007502766404854787 -5.717096032611193e-08 -9.5808094098703231e-08 -0.00075027803755020768 -1.6514619347032291e-08 -5.525812642261366e-08 -0.00075027529645470433 -6.5683348630353143e-08 -4.3493399705118859e-08 -0.0005002454410581457 -6.6854302365844377e-08 -4.0015068630784099e-08 -0.0007502766404854787 -9.7770367953387399e-08 -5.4076971546156682e-08 -0.00075027636963191538 -5.7170960326111943e-08 -9.5808094098703218e-08 -0.00075027803755020768 -6.5683348630353143e-08 -4.3493399705118859e-08 -0.0005002454410581457 -1.1167803932505964e-07 1.9377224298391523e-09 -0.00075027954691668009 -6.6854302365844377e-08 -4.0015068630784099e-08 -0.0007502766404854787 -9.7770367953387412e-08 -5.4076971546156669e-08 -0.00075027636963191538 -8.7987115773929424e-08 -6.6310499983682112e-08 -0.00050024670705173821 -6.5683348630353143e-08 -4.3493399705118853e-08 -0.0005002454410581457 -9.7770367953387412e-08 -5.4076971546156669e-08 -0.00075027636963191538 -5.7170960326111917e-08 -9.5808094098703218e-08 -0.00075027803755020768 -6.6854302365844377e-08 -4.0015068630784099e-08 -0.0007502766404854787 -9.7770367953387412e-08 -5.4076971546156669e-08 -0.00075027636963191538 -5.5764371570457762e-08 -9.6693859255075896e-08 -0.0010003092010078809 -9.6578755873673092e-08 -5.5901428175213122e-08 -0.0010003086428431193 -1.1167803932505964e-07 1.9377224298391523e-09 -0.00075027954691668009 -6.6854302365844377e-08 -4.0015068630784099e-08 -0.0007502766404854787 -9.7770367953387412e-08 -5.4076971546156669e-08 -0.00075027636963191538 -9.6578755873673105e-08 -5.5901428175213116e-08 -0.0010003086428431193 -1.1160525698435658e-07 -1.0668508983722053e-10 -0.0010003101361513737 -6.6854302365844404e-08 -4.0015068630784099e-08 -0.00075027664048547859 -6.6158895658038211e-08 -4.0524642609492105e-08 -0.0010003084963546007 -9.6578755873673105e-08 -5.5901428175213116e-08 -0.0010003086428431193 -6.6854302365844377e-08 -4.0015068630784099e-08 -0.0007502766404854787 -5.5764371570457782e-08 -9.6693859255075896e-08 -0.0010003092010078809 -6.6158895658038198e-08 -4.0524642609492099e-08 -0.0010003084963546007 -9.6578755873673105e-08 -5.5901428175213129e-08 -0.0010003086428431193 -6.6854302365844377e-08 -4.0015068630784099e-08 -0.0007502766404854787 -1.5339774109116145e-08 -5.5591866745867041e-08 -0.001000308475025609 -5.5764371570457769e-08 -9.6693859255075896e-08 -0.0010003092010078807 -6.6158895658038198e-08 -4.0524642609492099e-08 -0.0010003084963546007 -5.0682426580535445e-08 5.2364809212170371e-09 -0.0010003092099210365 -6.6854302365844364e-08 -4.0015068630784099e-08 -0.0007502766404854787 -1.5339774109116175e-08 -5.5591866745867054e-08 -0.001000308475025609 -6.6158895658038198e-08 -4.0524642609492099e-08 -0.0010003084963546007 -6.6854302365844377e-08 -4.0015068630784099e-08 -0.0007502766404854787 -1.651461934703233e-08 -5.5258126422613687e-08 -0.00075027529645470433 -1.5339774109116175e-08 -5.5591866745867054e-08 -0.001000308475025609 -5.5764371570457756e-08 -9.6693859255075909e-08 -0.0010003092010078809 -5.0682426580535445e-08 5.2364809212170371e-09 -0.0010003092099210365 -6.6854302365844377e-08 -4.0015068630784099e-08 -0.00075027664048547859 -1.6514619347032294e-08 -5.5258126422613667e-08 -0.00075027529645470422 -1.5339774109116175e-08 -5.5591866745867054e-08 -0.001000308475025609 -6.6854302365844377e-08 -4.0015068630784099e-08 -0.0007502766404854787 -5.7170960326111917e-08 -9.5808094098703218e-08 -0.00075027803755020768 -1.651461934703233e-08 -5.5258126422613687e-08 -0.00075027529645470433 -5.5764371570457756e-08 -9.6693859255075909e-08 -0.0010003092010078809 -6.6854302365844377e-08 -4.0015068630784099e-08 -0.0007502766404854787 -9.7770367953387412e-08 -5.4076971546156669e-08 -0.00075027636963191538 -5.7170960326111917e-08 -9.5808094098703218e-08 -0.00075027803755020768 -5.5764371570457756e-08 -9.6693859255075909e-08 -0.0010003092010078809 -5.7170960326111917e-08 -9.5808094098703218e-08 -0.00075027803755020768 -1.6514619347032327e-08 -5.5258126422613687e-08 -0.00075027529645470433 8.9153821941340984e-11 -1.1161007358268343e-07 -0.0010003082451150228 -5.5764371570457756e-08 -9.6693859255075909e-08 -0.0010003092010078809 -1.7763088572694871e-08 -5.5698635139338912e-08 -0.00050024072692774217 -4.4958311441776943e-08 -1.0091920827682727e-07 -0.000500251450020365 -5.7170960326111897e-08 -9.5808094098703231e-08 -0.00075027803755020768 -1.9358064731067245e-09 -1.116519540794478e-07 -0.00075027486002764859 2.1585568608155909e-08 -7.384229229133834e-08 -0.00050023705327713439 -1.7763088572694871e-08 -5.5698635139338912e-08 -0.00050024072692774217 -1.9358064731067414e-09 -1.1165195407944778e-07 -0.00075027486002764859 -1.651461934703233e-08 -5.5258126422613687e-08 -0.00075027529645470433 -1.7763088572694871e-08 -5.5698635139338912e-08 -0.00050024072692774217 -5.717096032611191e-08 -9.5808094098703231e-08 -0.00075027803755020768 -1.9358064731067509e-09 -1.1165195407944779e-07 -0.00075027486002764859 -1.651461934703233e-08 -5.5258126422613687e-08 -0.00075027529645470433 2.1585568608155909e-08 -7.384229229133834e-08 -0.00050023705327713439 -1.9358064731067414e-09 -1.1165195407944778e-07 -0.00075027486002764859 -1.651461934703233e-08 -5.5258126422613687e-08 -0.00075027529645470433 1.9446258870483048e-08 -7.5921511202779287e-08 -0.00075027448187290138 2.1585568608155909e-08 -7.384229229133834e-08 -0.00050023705327713439 2.1896962331894854e-08 -3.3945748210187888e-08 -0.00050023617907913015 -1.651461934703233e-08 -5.5258126422613687e-08 -0.00075027529645470433 1.9446258870483048e-08 -7.5921511202779287e-08 -0.00075027448187290138 2.1896962331894854e-08 -3.3945748210187888e-08 -0.00050023617907913015 4.8976384880050647e-09 1.845833820864245e-09 -0.00075027574667114528 -1.6514619347032334e-08 -5.525812642261366e-08 -0.00075027529645470433 2.0983291308914964e-08 -3.6311535099406849e-08 -0.00075027479642057824 2.1896962331894854e-08 -3.3945748210187888e-08 -0.00050023617907913015 -1.651461934703232e-08 -5.5258126422613713e-08 -0.00075027529645470433 2.0983291308914964e-08 -3.6311535099406849e-08 -0.00075027479642057824 1.9446258870483048e-08 -7.5921511202779287e-08 -0.00075027448187290138 5.1804561570856699e-08 -5.3006081235865537e-08 -0.00050023741580114064 5.3659635485249424e-08 -1.9712139887736215e-08 -0.00075027713252304618 4.9127848986623136e-08 -5.6860671824684439e-08 -0.00075027501178935845 2.0983291308914987e-08 -3.6311535099406836e-08 -0.00075027479642057824 2.1896962331894854e-08 -3.3945748210187888e-08 -0.00050023617907913015 5.1804561570856699e-08 -5.3006081235865537e-08 -0.00050023741580114064 5.3659635485249457e-08 -1.9712139887736218e-08 -0.00075027713252304618 2.0983291308914964e-08 -3.6311535099406849e-08 -0.00075027479642057824 5.1804561570856699e-08 -5.3006081235865537e-08 -0.00050023741580114064 4.9127848986623136e-08 -5.6860671824684439e-08 -0.00075027501178935845 2.0983291308914964e-08 -3.6311535099406849e-08 -0.00075027479642057824 1.9446258870483048e-08 -7.5921511202779287e-08 -0.00075027448187290138 2.1896962331894854e-08 -3.3945748210187888e-08 -0.00050023617907913015 5.1804561570856699e-08 -5.3006081235865537e-08 -0.00050023741580114064 2.0983291308914964e-08 -3.6311535099406849e-08 -0.00075027479642057824 1.9446258870483048e-08 -7.5921511202779287e-08 -0.00075027448187290138 2.1585568608155909e-08 -7.384229229133834e-08 -0.00050023705327713439 1.3426881953530946e-08 -1.0928213917655399e-07 -0.00050024183603021978 5.4070236637140555e-08 -9.7714493793847059e-08 -0.00075027449352672892 -1.9358064731067414e-09 -1.1165195407944778e-07 -0.00075027486002764859 2.1585568608155909e-08 -7.384229229133834e-08 -0.00050023705327713439 5.4070236637140555e-08 -9.7714493793847059e-08 -0.00075027449352672892 -1.9358064731067414e-09 -1.1165195407944778e-07 -0.00075027486002764859 1.9446258870483048e-08 -7.5921511202779287e-08 -0.00075027448187290138 5.1804561570856699e-08 -5.3006081235865537e-08 -0.00050023741580114064 5.4070236637140581e-08 -9.7714493793847046e-08 -0.00075027449352672892 4.9127848986623143e-08 -5.6860671824684446e-08 -0.00075027501178935845 1.9446258870483048e-08 -7.5921511202779287e-08 -0.00075027448187290138 2.1585568608155909e-08 -7.384229229133834e-08 -0.00050023705327713439 5.1804561570856699e-08 -5.3006081235865537e-08 -0.00050023741580114064 5.4070236637140555e-08 -9.7714493793847059e-08 -0.00075027449352672892 1.9446258870483048e-08 -7.5921511202779287e-08 -0.00075027448187290138 5.5908109733372678e-08 -9.6594255920686111e-08 -0.0010003084806338512 1.9446258870483048e-08 -7.5921511202779287e-08 -0.00075027448187290138 8.9153821941325746e-11 -1.1161007358268341e-07 -0.001000308245115023 2.0274635876134214e-08 -7.6104497793517836e-08 -0.0010003081774328528 5.4070236637140555e-08 -9.7714493793847059e-08 -0.00075027449352672892 5.5908109733372678e-08 -9.6594255920686111e-08 -0.0010003084806338512 4.9127848986623136e-08 -5.6860671824684439e-08 -0.00075027501178935845 1.9446258870483048e-08 -7.5921511202779287e-08 -0.00075027448187290138 5.5908109733372678e-08 -9.6594255920686111e-08 -0.0010003084806338512 4.9127848986623136e-08 -5.6860671824684439e-08 -0.00075027501178935845 1.9446258870483048e-08 -7.5921511202779287e-08 -0.00075027448187290138 2.0274635876134214e-08 -7.6104497793517836e-08 -0.0010003081774328528 5.5908109733372678e-08 -9.6594255920686111e-08 -0.0010003084806338512 4.9127848986623136e-08 -5.6860671824684439e-08 -0.00075027501178935845 4.9635755845927529e-08 -5.7089733855232141e-08 -0.0010003085425841917 2.0274635876134214e-08 -7.6104497793517836e-08 -0.0010003081774328528 5.4070236637140555e-08 -9.7714493793847059e-08 -0.00075027449352672892 5.5908109733372678e-08 -9.6594255920686111e-08 -0.0010003084806338512 -1.9358064731067443e-09 -1.1165195407944778e-07 -0.00075027486002764859 1.9446258870483048e-08 -7.5921511202779287e-08 -0.00075027448187290138 5.5908109733372678e-08 -9.6594255920686111e-08 -0.0010003084806338512 -1.9358064731067543e-09 -1.1165195407944778e-07 -0.00075027486002764859 1.9446258870483048e-08 -7.5921511202779287e-08 -0.00075027448187290138 8.9153821941325746e-11 -1.1161007358268341e-07 -0.001000308245115023 4.9127848986623136e-08 -5.6860671824684439e-08 -0.00075027501178935845 2.0983291308914964e-08 -3.6311535099406849e-08 -0.00075027479642057824 2.1371211884152989e-08 -3.6561087922628815e-08 -0.0010003085992952197 2.0274635876134214e-08 -7.6104497793517836e-08 -0.0010003081774328528 5.3647496866275931e-08 -2.0497250081268664e-08 -0.0010003101033559643 4.9127848986623136e-08 -5.6860671824684439e-08 -0.00075027501178935845 2.0983291308914964e-08 -3.6311535099406849e-08 -0.00075027479642057824 2.1371211884152989e-08 -3.6561087922628815e-08 -0.0010003085992952197 5.3647496866275931e-08 -2.0497250081268664e-08 -0.0010003101033559643 5.3659635485249457e-08 -1.9712139887736218e-08 -0.00075027713252304618 4.9127848986623136e-08 -5.6860671824684439e-08 -0.00075027501178935845 2.0983291308914964e-08 -3.6311535099406849e-08 -0.00075027479642057824 5.3647496866275931e-08 -2.0497250081268664e-08 -0.0010003101033559643 4.9127848986623136e-08 -5.6860671824684439e-08 -0.00075027501178935845 4.9635755845927529e-08 -5.7089733855232141e-08 -0.0010003085425841917 2.1371211884152989e-08 -3.6561087922628815e-08 -0.0010003085992952197 4.9127848986623136e-08 -5.6860671824684439e-08 -0.00075027501178935845 4.9635755845927529e-08 -5.7089733855232141e-08 -0.0010003085425841917 2.1371211884152989e-08 -3.6561087922628815e-08 -0.0010003085992952197 2.0274635876134214e-08 -7.6104497793517836e-08 -0.0010003081774328528 4.9127848986623136e-08 -5.6860671824684439e-08 -0.00075027501178935845 2.0983291308914964e-08 -3.6311535099406849e-08 -0.00075027479642057824 1.9446258870483048e-08 -7.5921511202779287e-08 -0.00075027448187290138 2.0274635876134214e-08 -7.6104497793517836e-08 -0.0010003081774328528 4.8028579426755385e-09 1.3932324094917322e-09 -0.001000309209662288 2.0983291308914971e-08 -3.6311535099406849e-08 -0.00075027479642057824 -1.5339774109116175e-08 -5.5591866745867054e-08 -0.001000308475025609 2.1371211884152989e-08 -3.6561087922628815e-08 -0.0010003085992952197 4.8976384880050845e-09 1.8458338208642549e-09 -0.00075027574667114528 -1.651461934703233e-08 -5.5258126422613687e-08 -0.00075027529645470433 2.0983291308914964e-08 -3.6311535099406849e-08 -0.00075027479642057824 -1.5339774109116175e-08 -5.5591866745867054e-08 -0.001000308475025609 2.0983291308914964e-08 -3.6311535099406849e-08 -0.00075027479642057824 -1.5339774109116162e-08 -5.559186674586708e-08 -0.0010003084750256088 2.1371211884152989e-08 -3.6561087922628815e-08 -0.0010003085992952197 2.0274635876134214e-08 -7.6104497793517836e-08 -0.0010003081774328528 -1.651461934703233e-08 -5.5258126422613687e-08 -0.00075027529645470433 2.0983291308914964e-08 -3.6311535099406849e-08 -0.00075027479642057824 1.9446258870483048e-08 -7.5921511202779287e-08 -0.00075027448187290138 -1.5339774109116175e-08 -5.5591866745867054e-08 -0.001000308475025609 2.0983291308914964e-08 -3.6311535099406849e-08 -0.00075027479642057824 1.9446258870483048e-08 -7.5921511202779287e-08 -0.00075027448187290138 -1.5339774109116175e-08 -5.5591866745867054e-08 -0.001000308475025609 2.0274635876134214e-08 -7.6104497793517836e-08 -0.0010003081774328528 1.9446258870483048e-08 -7.5921511202779287e-08 -0.00075027448187290138 8.9153821941325746e-11 -1.1161007358268341e-07 -0.001000308245115023 -1.5339774109116175e-08 -5.5591866745867054e-08 -0.001000308475025609 2.0274635876134214e-08 -7.6104497793517836e-08 -0.0010003081774328528 -1.9358064731067414e-09 -1.1165195407944778e-07 -0.00075027486002764859 -1.651461934703233e-08 -5.5258126422613687e-08 -0.00075027529645470433 1.9446258870483048e-08 -7.5921511202779287e-08 -0.00075027448187290138 8.9153821941325746e-11 -1.1161007358268341e-07 -0.001000308245115023 -1.651461934703233e-08 -5.5258126422613687e-08 -0.00075027529645470433 1.9446258870483048e-08 -7.5921511202779287e-08 -0.00075027448187290138 8.9153821941312072e-11 -1.1161007358268343e-07 -0.001000308245115023 -1.5339774109116175e-08 -5.5591866745867054e-08 -0.001000308475025609 -5.7170960326111917e-08 -9.5808094098703218e-08 -0.00075027803755020768 -1.9358064731067381e-09 -1.1165195407944776e-07 -0.00075027486002764859 -1.651461934703233e-08 -5.5258126422613687e-08 -0.00075027529645470433 8.9153821941326289e-11 -1.1161007358268341e-07 -0.001000308245115023 -1.651461934703233e-08 -5.5258126422613687e-08 -0.00075027529645470433 8.9153821941307781e-11 -1.1161007358268345e-07 -0.001000308245115023 -1.5339774109116175e-08 -5.5591866745867054e-08 -0.001000308475025609 -5.5764371570457736e-08 -9.6693859255075909e-08 -0.0010003092010078809 8.9153821941325746e-11 -1.1161007358268341e-07 -0.001000308245115023 -1.5339774109116175e-08 -5.5591866745867054e-08 -0.001000308475025609 2.0274635876134214e-08 -7.6104497793517836e-08 -0.0010003081774328528 3.6623842578064127e-11 -1.1151676077946643e-07 -0.0012503426497287046 8.9153821941325746e-11 -1.1161007358268341e-07 -0.001000308245115023 -1.5339774109116175e-08 -5.5591866745867054e-08 -0.001000308475025609 3.6623842578064127e-11 -1.1151676077946643e-07 -0.0012503426497287046 -5.5764371570457756e-08 -9.6693859255075909e-08 -0.0010003092010078809 -1.5339774109116175e-08 -5.5591866745867054e-08 -0.001000308475025609 2.1371211884152989e-08 -3.6561087922628815e-08 -0.0010003085992952197 2.0274635876134214e-08 -7.6104497793517836e-08 -0.0010003081774328528 -1.4914730821961561e-08 -5.5373804705516817e-08 -0.0012503436630551951 4.8028579426755385e-09 1.3932324094917322e-09 -0.001000309209662288 -1.5339774109116175e-08 -5.5591866745867054e-08 -0.001000308475025609 2.1371211884152989e-08 -3.6561087922628815e-08 -0.0010003085992952197 -1.4914730821961561e-08 -5.5373804705516817e-08 -0.0012503436630551951 5.3697367475039809e-08 -2.0389796853786133e-08 -0.0012503451134631837 5.3647496866275931e-08 -2.0497250081268664e-08 -0.0010003101033559643 4.9635755845927529e-08 -5.7089733855232141e-08 -0.0010003085425841917 2.1371211884152989e-08 -3.6561087922628815e-08 -0.0010003085992952197 4.9635755845927529e-08 -5.7089733855232141e-08 -0.0010003085425841917 2.1371211884152989e-08 -3.6561087922628815e-08 -0.0010003085992952197 2.0274635876134214e-08 -7.6104497793517836e-08 -0.0010003081774328528 2.0477424388992147e-08 -7.5862835845883199e-08 -0.0012503439425033411 5.5908109733372678e-08 -9.6594255920686111e-08 -0.0010003084806338512 5.579505639605492e-08 -9.6561378183840436e-08 -0.0012503433877071185 4.9635755845927529e-08 -5.7089733855232141e-08 -0.0010003085425841917 2.0274635876134214e-08 -7.6104497793517836e-08 -0.0010003081774328528 5.5908109733372678e-08 -9.6594255920686111e-08 -0.0010003084806338512 5.579505639605492e-08 -9.6561378183840436e-08 -0.0012503433877071185 8.9153821941322489e-11 -1.1161007358268341e-07 -0.0010003082451150228 2.0274635876134214e-08 -7.6104497793517836e-08 -0.0010003081774328528 5.579505639605492e-08 -9.6561378183840436e-08 -0.0012503433877071185 4.9635755845927529e-08 -5.7089733855232141e-08 -0.0010003085425841917 2.0477424388992147e-08 -7.5862835845883199e-08 -0.0012503439425033411 4.9624511185364143e-08 -5.6830243754995526e-08 -0.0012503452093417561 5.579505639605492e-08 -9.6561378183840436e-08 -0.0012503433877071185 4.9635755845927529e-08 -5.7089733855232141e-08 -0.0010003085425841917 2.0274635876134214e-08 -7.6104497793517836e-08 -0.0010003081774328528 2.0477424388992147e-08 -7.5862835845883199e-08 -0.0012503439425033411 5.579505639605492e-08 -9.6561378183840436e-08 -0.0012503433877071185 2.0274635876134214e-08 -7.6104497793517836e-08 -0.0010003081774328528 2.0477424388992147e-08 -7.5862835845883199e-08 -0.0012503439425033411 3.6623842578064127e-11 -1.1151676077946643e-07 -0.0012503426497287046 5.579505639605492e-08 -9.6561378183840436e-08 -0.0012503433877071185 8.9153821941313377e-11 -1.1161007358268341e-07 -0.001000308245115023 2.0274635876134214e-08 -7.6104497793517836e-08 -0.0010003081774328528 3.6623842578064127e-11 -1.1151676077946643e-07 -0.0012503426497287046 4.9635755845927529e-08 -5.7089733855232141e-08 -0.0010003085425841917 2.0477424388992147e-08 -7.5862835845883199e-08 -0.0012503439425033411 4.9624511185364143e-08 -5.6830243754995526e-08 -0.0012503452093417561 2.1566939032671822e-08 -3.636645168659521e-08 -0.0012503448469703493 4.9635755845927529e-08 -5.7089733855232141e-08 -0.0010003085425841917 2.1371211884152989e-08 -3.6561087922628815e-08 -0.0010003085992952197 2.0477424388992147e-08 -7.5862835845883199e-08 -0.0012503439425033411 2.1566939032671822e-08 -3.636645168659521e-08 -0.0012503448469703493 5.3697367475039809e-08 -2.0389796853786133e-08 -0.0012503451134631837 4.9635755845927529e-08 -5.7089733855232141e-08 -0.0010003085425841917 4.9624511185364143e-08 -5.6830243754995526e-08 -0.0012503452093417561 2.1566939032671822e-08 -3.636645168659521e-08 -0.0012503448469703493 5.3697367475039809e-08 -2.0389796853786133e-08 -0.0012503451134631837 4.9635755845927529e-08 -5.7089733855232141e-08 -0.0010003085425841917 2.1371211884152989e-08 -3.6561087922628815e-08 -0.0010003085992952197 2.1566939032671822e-08 -3.636645168659521e-08 -0.0012503448469703493 2.1371211884152989e-08 -3.6561087922628815e-08 -0.0010003085992952197 2.0274635876134214e-08 -7.6104497793517836e-08 -0.0010003081774328528 2.0477424388992147e-08 -7.5862835845883199e-08 -0.0012503439425033411 -1.4914730821961561e-08 -5.5373804705516817e-08 -0.0012503436630551951 2.1371211884152989e-08 -3.6561087922628815e-08 -0.0010003085992952197 2.0477424388992147e-08 -7.5862835845883199e-08 -0.0012503439425033411 2.1566939032671822e-08 -3.636645168659521e-08 -0.0012503448469703493 -1.4914730821961561e-08 -5.5373804705516817e-08 -0.0012503436630551951 4.9472447986843343e-09 1.4927605076673169e-09 -0.0012503445052008666 2.1371211884152996e-08 -3.6561087922628815e-08 -0.0010003085992952197 2.1566939032671815e-08 -3.6366451686595204e-08 -0.0012503448469703493 -1.4914730821961561e-08 -5.5373804705516817e-08 -0.0012503436630551951 -1.5339774109116175e-08 -5.5591866745867054e-08 -0.001000308475025609 -1.4914730821961561e-08 -5.5373804705516817e-08 -0.0012503436630551951 3.6623842578055907e-11 -1.1151676077946646e-07 -0.0012503426497287049 -5.5716022894702401e-08 -9.6605784459120798e-08 -0.0012503430101345617 -1.5339774109116175e-08 -5.5591866745867054e-08 -0.001000308475025609 2.0274635876134214e-08 -7.6104497793517836e-08 -0.0010003081774328528 -1.4914730821961561e-08 -5.5373804705516817e-08 -0.0012503436630551951 3.6623842578055157e-11 -1.1151676077946646e-07 -0.0012503426497287049 2.0274635876134214e-08 -7.6104497793517836e-08 -0.0010003081774328528 2.0477424388992147e-08 -7.5862835845883199e-08 -0.0012503439425033411 -1.4914730821961561e-08 -5.5373804705516817e-08 -0.0012503436630551951 3.6623842578064127e-11 -1.1151676077946643e-07 -0.0012503426497287046 -1.5339774109116175e-08 -5.5591866745867054e-08 -0.001000308475025609 3.6623842578055383e-11 -1.1151676077946642e-07 -0.0012503426497287049 -5.5716022894702401e-08 -9.6605784459120798e-08 -0.0012503430101345615 -5.5764371570457756e-08 -9.6693859255075909e-08 -0.0010003092010078809 -1.5339774109116175e-08 -5.5591866745867054e-08 -0.001000308475025609 -5.5716022894702414e-08 -9.6605784459120785e-08 -0.0012503430101345617 -5.5764371570457762e-08 -9.6693859255075909e-08 -0.0010003092010078809 -6.6158895658038198e-08 -4.0524642609492099e-08 -0.0010003084963546007 -5.5716022894702414e-08 -9.6605784459120785e-08 -0.0012503430101345617 -5.5764371570457756e-08 -9.6693859255075909e-08 -0.0010003092010078809 -6.6158895658038211e-08 -4.0524642609492099e-08 -0.0010003084963546007 -9.6578755873673105e-08 -5.5901428175213116e-08 -0.0010003086428431193 -1.5339774109116175e-08 -5.5591866745867054e-08 -0.001000308475025609 -1.4914730821961561e-08 -5.5373804705516817e-08 -0.0012503436630551951 -5.5716022894702421e-08 -9.6605784459120785e-08 -0.0012503430101345617 -6.6158895658038198e-08 -4.0524642609492099e-08 -0.0010003084963546007 -1.4914730821961561e-08 -5.5373804705516817e-08 -0.0012503436630551951 -5.5716022894702421e-08 -9.6605784459120785e-08 -0.0012503430101345617 -6.6158895658038198e-08 -4.0524642609492085e-08 -0.0010003084963546005 -6.5824277720894991e-08 -4.0327441323831707e-08 -0.0012503449557537748 -5.0387799794482666e-08 5.4617615559808331e-09 -0.0012503440847124068 -1.5339774109116139e-08 -5.5591866745867047e-08 -0.001000308475025609 -1.4914730821961561e-08 -5.5373804705516817e-08 -0.0012503436630551951 -6.6158895658038198e-08 -4.0524642609492099e-08 -0.0010003084963546007 -5.0387799794482666e-08 5.4617615559808331e-09 -0.0012503440847124068 -1.4914730821961561e-08 -5.5373804705516817e-08 -0.0012503436630551951 -6.6158895658038198e-08 -4.0524642609492099e-08 -0.0010003084963546007 -6.5824277720894991e-08 -4.0327441323831707e-08 -0.0012503449557537748 -1.1151718968280675e-07 -4.2842112943705407e-12 -0.0012503436924650572 -6.6158895658038225e-08 -4.0524642609492099e-08 -0.0010003084963546007 -6.5824277720895004e-08 -4.0327441323831713e-08 -0.0012503449557537748 -9.6575161760702705e-08 -5.57820568234144e-08 -0.0012503432487501031 -5.5716022894702414e-08 -9.6605784459120785e-08 -0.0012503430101345617 -6.6158895658038198e-08 -4.0524642609492099e-08 -0.0010003084963546007 -6.5824277720894991e-08 -4.0327441323831707e-08 -0.0012503449557537745 -9.6575161760702705e-08 -5.57820568234144e-08 -0.0012503432487501031 -5.5716022894702414e-08 -9.6605784459120785e-08 -0.0012503430101345617 -6.6158895658038211e-08 -4.0524642609492112e-08 -0.0010003084963546007 -9.6575161760702705e-08 -5.57820568234144e-08 -0.0012503432487501031 -9.6578755873673105e-08 -5.5901428175213116e-08 -0.0010003086428431193 -1.1160525698435658e-07 -1.0668508983722053e-10 -0.0010003101361513737 -6.6158895658038198e-08 -4.0524642609492099e-08 -0.0010003084963546007 -9.6575161760702705e-08 -5.57820568234144e-08 -0.0012503432487501031 -9.6578755873673105e-08 -5.5901428175213116e-08 -0.0010003086428431193 
</DataArray>
</PointData>
<CellData Scalars="" Vectors="" Tensors="effective_stress,">
<DataArray type="Float64" Name="effective_stress" NumberOfComponents="9" format="ascii">
-3329.125925470792 -0.15910108223802111 -1.2979292269794769 -0.15910108223802111 -3329.6551893813376 -0.79599818827500712 -1.2979292269794769 -0.79599818827500712 -9999.0516373828759 -3329.2604940461802 -0.077245195219560303 -1.5429209347307733 -0.077245195219560303 -3329.832159650387 -0.29992155331046888 -1.5429209347307733 -0.29992155331046888 -9999.1295220939846 -3327.5279526639788 1.5865406153777841 -2.7500561803626624 1.5865406153777841 -3327.1118337287912 -1.1687950214518423 -2.7500561803626624 -1.1687950214518423 -10000.76915019411 -3327.9975759377844 1.6883312442025622 -2.1791739829966281 1.6883312442025622 -3330.436963034485 -2.3247578988466771 -2.1791739829966281 -2.3247578988466771 -10001.717838338986 -3334.0571003091977 -0.35683796786668198 -1.0815009326749987 -0.35683796786668198 -3330.5678968619063 -1.1839829511882272 -1.0815009326749987 -1.1839829511882272 -9999.1330167784636 -3332.7168060600948 1.4998112575562672 -0.72014679376320601 1.4998112575562672 -3331.2663488526255 0.031515314191892685 -0.72014679376320601 0.031515314191892685 -9998.9725562138665 -3330.3546080750325 0.047869695847623503 -1.1543824921827763 0.047869695847623503 -3330.4630385638297 -0.36241085659366945 -1.1543824921827763 -0.36241085659366945 -9999.5607703295591 -3330.0723465646238 0.22854608604221405 -1.1126248154969289 0.22854608604221405 -3329.9294206117042 -0.22194924812879435 -1.1126248154969289 -0.22194924812879435 -9999.3568004639255 -3329.6537401929791 -0.4851931924143944 -0.60070371913798226 -0.4851931924143944 -3328.0646567026597 -0.51470583919854107 -0.60070371913798226 -0.51470583919854107 -9997.7273119075962 -3333.048271109943 0.96187583689621547 -1.2826773571282017 0.96187583689621547 -3330.4584019011468 0.16726779940236702 -1.2826773571282017 0.16726779940236702 -9999.1743809364598 -3326.8805595824488 2.0303742497687316 -3.5401933312788358 2.0303742497687316 -3328.0624791218688 -0.24180798961824657 -3.5401933312788358 -0.24180798961824657 -9997.0334723597662 -3331.1863264501344 0.19322432984935217 0.0058077362083480688 0.19322432984935217 -3329.9883593666 -1.3278488499893237 0.0058077362083480688 -1.3278488499893237 -9999.5196576770468 -3332.8887299896278 0.69275686368428668 2.3645829632968396 0.69275686368428668 -3330.0788338209204 -0.69581692813724505 2.3645829632968396 -0.69581692813724505 -9999.9678771754989 -3331.5192163692109 1.1949512121680974 3.0333394887188661 1.1949512121680974 -3328.6692551537676 0.17731038948204514 3.0333394887188661 0.17731038948204514 -9998.0238853664323 -3332.5910345313691 -0.48947441120374408 3.4766766807994274 -0.48947441120374408 -3332.8796539686114 -1.751416789735883 3.4766766807994274 -1.751416789735883 -9999.3444396106825 -3333.5278417519949 0.035270810664553287 2.7401188054818908 0.035270810664553287 -3334.8531535689381 -0.33056273334713193 2.7401188054818908 -0.33056273334713193 -10000.07201631592 -3332.0261131901539 -0.94357274292703175 0.79429328639798769 -0.94357274292703175 -3335.1667885380989 -0.78828576728344046 0.79429328639798769 -0.78828576728344046 -10003.043715227821 -3333.6245713722196 1.9423507887769265 -0.49785684891685378 1.9423507887769265 -3334.8255847125442 -0.12102647590654669 -0.49785684891685378 -0.12102647590654669 -10004.032293766151 -3335.4128820226965 0.55486169870502 -1.1829884993198205 0.55486169870502 -3334.7582840622108 -2.1335812124024054 -1.1829884993198205 -2.1335812124024054 -10001.489996128936 -3334.7263549864538 1.7138980933240062 -0.64076291342280456 1.7138980933240062 -3332.3182537960606 -0.3190014356341635 -0.64076291342280456 -0.3190014356341635 -10003.680906940588 -3336.2966634404543 0.47300825552790615 -0.40596577000117229 0.47300825552790615 -3336.6733519366239 -0.76129340411044044 -0.40596577000117229 -0.76129340411044044 -10004.487993640028 -3331.9685871562297 -1.792822395953521 -0.67883771377810742 -1.792822395953521 -3330.380725784416 -0.39877553720866787 -0.67883771377810742 -0.39877553720866787 -10000.90421306491 -3327.2427579953223 -1.7845757817681018 -1.2307259730605438 -1.7845757817681018 -3325.7879678118961 1.3799356538147549 -1.2307259730605438 1.3799356538147549 -9997.4836676746672 -3330.5374396747789 -0.96654901363543866 0.019022004543772564 -0.96654901363543866 -3327.6411911790569 0.80995296209666434 0.019022004543772564 0.80995296209666434 -9999.861542543209 -3332.9301096012591 -1.4612203149401515 -0.18053009898449091 -1.4612203149401515 -3331.5109235713767 -1.1086159314409088 -0.18053009898449091 -1.1086159314409088 -10002.355748088918 -3330.1935323356342 0.11874331531915683 0.010454768964336836 0.11874331531915683 -3329.3934885171516 -0.77782043377328591 0.010454768964336836 -0.77782043377328591 -10001.142245008956 -3330.3490193211137 0.048844231925885939 0.43995925088484 0.048844231925885939 -3329.4045621614841 -0.9198620873157779 0.43995925088484 -0.9198620873157779 -10001.269930724213 -3330.4947457407879 0.21850315591613856 0.29561907555580547 0.21850315591613856 -3330.2897523708452 -1.2214705101614527 0.29561907555580547 -1.2214705101614527 -10001.527659881471 -3330.4919323580243 0.18361060986625122 0.47469811858309185 0.18361060986625122 -3330.6599322609786 -0.97338330368529569 0.47469811858309185 -0.97338330368529569 -10001.619501508314 -3330.5173172412237 0.083245822009911263 0.62412664334260626 0.083245822009911263 -3330.8193268716209 -0.34744725998137937 0.62412664334260626 -0.34744725998137937 -10002.25391577317 -3330.4903804260925 0.058577239568034664 0.73560246733677559 0.058577239568034664 -3330.9675733584854 -0.56248925738145772 0.73560246733677559 -0.56248925738145772 -10002.284243191105 -3329.7936314999492 0.34535115956314266 0.60286527985999783 0.34535115956314266 -3329.7859848166713 -1.1198488016616466 0.60286527985999783 -1.1198488016616466 -10001.140393874914 -3329.3761001277539 0.07649202302689817 -0.041926756665361609 0.07649202302689817 -3328.913777848617 -0.64670472351190256 -0.041926756665361609 -0.64670472351190256 -9997.5492369797794 -3329.0831014464775 0.34535115956314333 1.4774789248517664 0.34535115956314333 -3329.0754547631996 0.46228378797150071 1.4774789248517664 0.46228378797150071 -9999.0088037144942 -3330.6554208672833 -0.23171382315059663 0.47773038166178594 -0.23171382315059663 -3330.5851588011001 0.18778771312281606 0.47773038166178594 0.18778771312281606 -10000.376116306363 -3330.9581701283614 -0.7167027692843253 0.87536798659857595 -0.7167027692843253 -3330.872574758107 0.10847615564307489 0.87536798659857595 0.10847615564307489 -10000.015694183414 -3330.3510969998447 -0.16463600222912622 0.46943149068829371 -0.16463600222912622 -3330.3057690784112 -0.00029420140572256059 0.46943149068829371 -0.00029420140572256059 -9999.7222244813602 -3329.9730589983096 0.07649202302689817 1.3299817292286207 0.07649202302689817 -3329.5107367191731 0.42276203322944639 1.3299817292286207 0.42276203322944639 -9999.3401135914464 -3329.545681712827 0.058577239568034664 0.94495510470460431 0.058577239568034664 -3330.0228746452199 -0.17911920885035215 0.94495510470460431 -0.17911920885035215 -9999.4501470513078 -3329.462822941844 0.4568329120834913 0.51115667234262219 0.4568329120834913 -3329.9960350946972 0.24568374708150031 0.51115667234262219 0.24568374708150031 -9999.9306858984019 -3330.2928496821132 0.097722433785723956 0.25711024825886852 0.097722433785723956 -3330.3880596309305 0.081345839602363412 0.25711024825886852 0.081345839602363412 -10000.370723295318 -3329.5726185279582 0.083245822009911263 0.83347928071088973 0.083245822009911263 -3329.8746281583553 0.035922788550635687 0.83347928071088973 0.035922788550635687 -9999.4198196333746 -3330.2203390802542 0.050547884958220157 0.22945476388485986 0.050547884958220157 -3330.3756392726041 0.13469454235564626 0.22945476388485986 0.13469454235564626 -10000.349490555271 -3330.2858776156581 0.03024734816812974 0.094052504968203721 0.03024734816812974 -3330.3168547025898 0.13170485372756957 0.094052504968203721 0.13170485372756957 -10000.114882316338 -3329.9161664383691 0.21850315591613823 -0.33853125038785947 0.21850315591613823 -3329.7111730684264 0.013996871750350692 -0.33853125038785947 0.013996871750350692 -9999.791921974218 -3330.3861701485193 0.072737941528771166 -0.076248347111686599 0.072737941528771166 -3329.8184967587399 0.20138288813905092 -0.076248347111686599 0.20138288813905092 -10000.251662693876 -3330.9079866683965 -0.22630243103396364 -0.11873435004054045 -0.22630243103396364 -3330.5879404144953 0.14252489111640898 -0.11873435004054045 0.14252489111640898 -10000.574477737779 -3329.9857067723046 0.18361060986625166 0.17586217912003121 0.18361060986625166 -3330.1537066752589 0.25322411154138535 0.17586217912003121 0.25322411154138535 -10000.100824751156 -3330.2674353575471 0.037130220523899693 0.18091284665570129 0.037130220523899693 -3330.3274571022357 0.25203685438253842 0.18091284665570129 0.25203685438253842 -10000.11292235172 -3329.5699670865397 0.11874331531915683 0.64012041064142977 0.11874331531915683 -3328.769923268057 1.1983051244055787 0.64012041064142977 1.1983051244055787 -9999.271549261668 -3330.3883914286921 -0.21453676607083705 0.38920272934228706 -0.21453676607083705 -3330.6149103366552 0.23889917700944352 0.38920272934228706 0.23889917700944352 -10000.316796830602 -3330.8491206815056 0.87882485576149882 0.76161185213823046 0.87882485576149882 -3329.9994583095386 0.87558983505277865 0.76161185213823046 0.87558983505277865 -9999.6813094098379 -3329.7949973897485 0.12805944698679506 0.29314725891799753 0.12805944698679506 -3330.9243020639428 0.07252622043415613 0.29314725891799753 0.07252622043415613 -10000.24579625269 -3329.6910358488963 0.048844231925886161 0.41181804670213751 0.048844231925886161 -3328.7465786892672 0.80287382710321253 0.41181804670213751 0.80287382710321253 -9999.2959803075591 -3330.0673072498262 -0.052661999267424875 0.18667571175592457 -0.052661999267424875 -3330.5162780336314 0.24315816689704661 0.18667571175592457 0.24315816689704661 -10000.110095557638 -3330.1811612283518 -0.21453676607083683 -0.1314021373000287 -0.21453676607083683 -3330.4076801363153 -0.029223695159089402 -0.1314021373000287 -0.029223695159089402 -9999.6951062295811 -3329.9007859104813 -0.052661999267424653 -0.1833195721364973 -0.052661999267424653 -3330.349756694286 -0.11914733088087814 -0.1833195721364973 -0.11914733088087814 -9999.6105315396053 -3330.1141369397301 0.037130220523899471 -0.05292957936944731 0.037130220523899471 -3330.1741586844182 -0.0072738810503665263 -0.05292957936944731 -0.0072738810503665263 -9999.6530270982694 -3330.1026643199521 0.030247348168130017 -0.12563442414466408 0.030247348168130017 -3330.1336414068828 -0.15374215522388113 -0.12563442414466408 -0.15374215522388113 -9999.5652424292202 -3329.9344010529267 0.050547884958220157 0.11951414904251578 0.050547884958220157 -3330.089701245276 0.023460264994355384 0.11951414904251578 0.023460264994355384 -9999.491676473288 -3330.0069116547866 0.097722433785724067 0.14716963341561495 0.097722433785724067 -3330.1021216036033 -0.029888437762565445 0.14716963341561495 -0.029888437762565445 -9999.5129092133357 -3330.301547114178 -0.16463600222912622 -0.033990963256655959 -0.16463600222912622 -3330.2562191927445 0.031925856217185355 -0.033990963256655959 0.031925856217185355 -9999.5735748243605 -3330.4026856106284 -0.23171382315059641 -0.083033342966700729 -0.23171382315059641 -3330.3324235444443 0.018784990079439012 -0.083033342966700729 0.018784990079439012 -9999.617910536399 -3330.412602068508 -0.12670985199519391 -0.045510779777941934 -0.12670985199519391 -3330.1252297032834 0.18519192109852156 -0.045510779777941934 0.18519192109852156 -9999.3540422710394 -3330.5019375835582 -0.0012087099057443984 -0.17245977632592258 -0.0012087099057443984 -3330.0910565725335 0.16218798158297432 -0.17245977632592258 0.16218798158297432 -9999.3678328671122 -3329.8081381905431 0.36603942937996914 1.0008629571011625 0.36603942937996914 -3330.4080250406478 0.19070280142204865 1.0008629571011625 0.19070280142204865 -9998.9909278278683 -3329.9045579047147 0.22854608604221405 1.0826639008828352 0.22854608604221405 -3329.7616319517956 0.10890185756602477 1.0826639008828352 0.10890185756602477 -9998.8534344841992 -3329.0927053862711 -0.077245195219560303 0.65236778164921816 -0.077245195219560303 -3329.6643709904779 0.030929552383895498 0.65236778164921816 0.030929552383895498 -9998.6261561142583 -3330.2805887648751 0.059767092821650963 0.33860414566834152 0.059767092821650963 -3330.1794914647085 -0.24555678930482827 0.33860414566834152 -0.24555678930482827 -9999.356716400498 -3330.4214468745158 -0.12670985199519391 0.3660112343268338 -0.12670985199519391 -3330.1340745092916 -0.15336670446413336 0.3660112343268338 -0.15336670446413336 -9999.3805766890564 -3330.4903893773858 -0.28530050242195171 0.54396814095298396 -0.28530050242195171 -3329.6838186987361 -0.07483085173953441 0.54396814095298396 -0.07483085173953441 -9999.601559980827 -3330.8386950017812 -0.31568232631444548 0.5898378863707876 -0.31568232631444548 -3330.965530314591 0.079462651459834888 0.5898378863707876 0.079462651459834888 -10000.009064290889 -3330.5107823895655 -0.0012087099057441764 0.23906223778067215 -0.0012087099057441764 -3330.0999013785404 -0.1763706439814996 0.23906223778067215 -0.1763706439814996 -9999.394367285131 -3329.4699364799749 0.0042911744607761482 0.58474143188095695 0.0042911744607761482 -3331.1346200276403 -0.54145795220938453 0.58474143188095695 -0.54145795220938453 -9999.412675810272 -3330.6278378632032 0.069899123955170561 0.3311327411338425 0.069899123955170561 -3330.2552408696702 -0.36280154771156958 0.3311327411338425 -0.36280154771156958 -9999.4624660263216 -3329.0879966762031 -0.15910108223802111 0.75935981077759607 -0.15910108223802111 -3329.6172605867487 -0.89503766558209463 0.75935981077759607 -0.89503766558209463 -9998.9378509991075 -3330.6599937283218 0.069899123955170561 -0.047997316907640197 0.069899123955170561 -3330.2873967347887 0.070722601310990285 -0.047997316907640197 0.070722601310990285 -9999.5589336216835 -3330.1382638729528 0.12668128163876685 0.042917729893815704 0.12668128163876685 -3330.1504338130071 0.024824164805067994 0.042917729893815704 0.024824164805067994 -9999.5296531973836 -3330.3669017379916 0.059767092821651074 0.092994850302147825 0.059767092821651074 -3330.265804437825 0.054280033495160751 0.092994850302147825 0.054280033495160751 -9999.6156553198489 -3330.1549217185393 0.082170608738987683 0.049091609545030224 0.082170608738987683 -3330.1730127474184 0.10417897085881123 0.049091609545030224 0.10417897085881123 -9999.5394623923821 -3330.260487098999 0.17192524318289071 0.13118810660489544 0.17192524318289071 -3330.2621157235981 0.20233598486129267 0.13118810660489544 0.20233598486129267 -9999.3201410740076 -3330.281369488901 0.17192524318289074 0.41336269657313096 0.17192524318289074 -3330.2829981134996 -0.27043060732376034 0.41336269657313096 -0.27043060732376034 -9999.3827882437035 -3329.4614637591339 -0.37582993759855365 0.7297560286560838 -0.37582993759855365 -3329.7103849535251 -0.74184666283190381 0.7297560286560838 -0.74184666283190381 -9998.6425195735719 -3330.6864541873861 0.48712572718265273 0.19702758822768374 0.48712572718265273 -3331.0174868013723 0.067715112842051894 0.19702758822768374 0.067715112842051894 -10000.019949643509 -3330.7829331868688 -1.0327864593653171 0.63035523338112398 -1.0327864593653171 -3330.9891941611704 -0.85350603180177131 0.63035523338112398 -0.85350603180177131 -9999.2925892324165 -3330.4496503656223 0.047869695847623267 0.34694048057212967 0.047869695847623267 -3330.5580808544196 0.017835788568845601 0.34694048057212967 0.017835788568845601 -9999.8458972013304 -3329.9178442956513 0.25923153395216919 0.21686471356133552 0.25923153395216919 -3330.002305974112 0.42164264453913347 0.21686471356133552 0.42164264453913347 -9999.5740019637633 -3330.0204254170344 0.20703271206199678 0.17770330154462499 0.20703271206199678 -3330.2820187655284 -0.081711231744975521 0.17770330154462499 -0.081711231744975521 -9999.6695754419598 -3330.2790630028358 0.048535530615605005 -0.19990663302451139 0.048535530615605005 -3330.5048269185909 -0.26612417445721803 -0.19990663302451139 -0.26612417445721803 -10000.06399263373 -3329.6323827262272 0.14049017410191006 0.58731054434201724 0.14049017410191006 -3329.8128021032048 0.051196815553339547 0.58731054434201724 0.051196815553339547 -9999.4552606036777 -3329.9933744854047 0.093396177424755589 0.11361761506077528 0.093396177424755589 -3330.1414757666485 -0.29076077622084995 0.11361761506077528 -0.29076077622084995 -10000.320947917886 -3330.2405440080888 0.071728144259458837 -0.13875771096536482 0.071728144259458837 -3330.3740537008121 -0.16361478344219904 -0.13875771096536482 -0.16361478344219904 -10000.021669580599 -3330.3426442815808 -0.097160952721885074 0.13774215057310357 -0.097160952721885074 -3329.931769205873 -0.25031866602967057 0.13774215057310357 -0.25031866602967057 -10000.355838726735 -3330.2248924412579 0.15837539089248431 -0.043617303403152619 0.15837539089248431 -3330.3740544514385 -0.16576003248337656 -0.043617303403152619 -0.16576003248337656 -10000.017756876548 -3328.852401072329 0.61802100313652653 0.37891287240563543 0.61802100313652653 -3329.5818789271102 0.055895816927659325 0.37891287240563543 0.055895816927659325 -9999.2025343961795 -3330.8743096252347 -0.64383330195258215 0.17313932893694073 -0.64383330195258215 -3329.86646436708 -0.85552172193172282 0.17313932893694073 -0.85552172193172282 -9999.2722502250181 -3329.3618321533563 -0.2159806865690892 0.73184088348943988 -0.2159806865690892 -3329.2974339230673 -0.76695134065448656 0.73184088348943988 -0.76695134065448656 -9998.5143739145133 -3330.3905405479304 0.061649400504552788 0.21064894459061634 0.061649400504552788 -3330.4017208778864 -0.096305785659751564 0.21064894459061634 -0.096305785659751564 -9999.7920297527744 -3329.76171412035 -0.36700405387774238 0.4018044254535198 -0.36700405387774238 -3329.6900669655806 -0.64868479260502454 0.4018044254535198 -0.64868479260502454 -9998.9500019984225 -3330.2287509367461 0.061649400504552788 0.12717376130615321 0.061649400504552788 -3330.2399312667021 0.25067452805251378 0.12717376130615321 0.25067452805251378 -9999.306660919221 -3330.0123295015501 0.15837539089248431 0.23759696596789581 0.15837539089248431 -3330.1614915117307 0.24134131733080721 0.23759696596789581 0.24134131733080721 -9999.3800680574241 -3330.1644701124387 0.048535530615605005 0.014200434419763042 0.048535530615605005 -3330.3902340281938 -0.050356055367956287 0.014200434419763042 -0.050356055367956287 -9999.7202139625369 -3330.0763274570972 0.071728144259458837 0.071109450023868703 0.071728144259458837 -3330.2098371498205 0.082161130486611 0.071109450023868703 0.082161130486611 -9999.5290199276242 -3330.0257476390889 0.066086428576593859 -0.17338845234189648 0.066086428576593859 -3330.2695709180298 -0.1000656026735669 -0.17338845234189648 -0.1000656026735669 -9999.5936765081315 -3329.8649654519486 0.016804238788800774 -0.201843966555316 0.016804238788800774 -3330.2645494052113 -0.070851828355444013 -0.201843966555316 -0.070851828355444013 -9999.4670934377937 -3330.218302567062 0.046277148176121885 -0.14967389189359892 0.046277148176121885 -3330.3290103346199 -0.28282878423488 -0.14967389189359892 -0.28282878423488 -9999.6429942229333 -3330.1640240831566 0.070585621925317699 -0.1078841872549674 0.070585621925317699 -3330.1663526767979 -0.18944020895378344 -0.1078841872549674 -0.18944020895378344 -9999.5887601875002 -3330.3138239752507 0.095803411679663553 -0.23392820193384978 0.095803411679663553 -3330.369887263515 -0.095839674160743016 -0.23392820193384978 -0.095839674160743016 -9999.69077467854 -3330.9727054723039 -0.11976372791312462 -0.98961096315542818 -0.11976372791312462 -3330.5710829586137 -0.010048422003819724 -0.98961096315542818 -0.010048422003819724 -9999.99751780519 -3330.3675245747868 -0.1142019605718847 -0.42741303271213837 -0.1142019605718847 -3330.0575626479917 0.069431255670110659 -0.42741303271213837 0.069431255670110659 -9998.9244805748294 -3330.0331687353646 0.095803411679663553 -0.3968568828449861 0.095803411679663553 -3330.0892320236289 0.12590399741930014 -0.3968568828449861 0.12590399741930014 -9998.8488089588827 -3330.399189277342 0.27006749829215881 -0.69673793052288602 0.27006749829215881 -3330.3804719534774 -0.067443914568684704 -0.69673793052288602 -0.067443914568684704 -9999.9592472484528 -3329.9467343840029 0.22188079297418206 -0.1630772585313025 0.22188079297418206 -3329.9849483114936 -0.33886411076673539 -0.1630772585313025 -0.33886411076673539 -9999.8680077713907 -3329.7637771277323 0.3998197619602159 -0.25735381851745842 0.3998197619602159 -3329.6908125039117 -0.47446695209509926 -0.25735381851745842 -0.47446695209509926 -9999.6279793486556 -3329.9431196757114 0.046277148176121885 -0.30340566947370462 0.046277148176121885 -3330.0538274432693 -0.02791800964041613 -0.30340566947370462 -0.02791800964041613 -9998.8174455488825 -3330.1630021197889 0.119480591299472 -0.28915065736259749 0.119480591299472 -3330.5833253643495 -0.6206037210085924 -0.28915065736259749 -0.6206037210085924 -10000.071668968551 -3330.2157117162355 0.18245714582488803 -0.33883552002589568 0.18245714582488803 -3330.9109636417729 -0.6565562987643716 -0.33883552002589568 -0.6565562987643716 -10000.046000780249 -3330.4417560709744 0.070585621925317754 0.033071316855057376 0.070585621925317754 -3330.4440846646148 -0.018473289697794826 0.033071316855057376 -0.018473289697794826 -10000.421956150954 -3329.9660856678165 0.46820721892427647 0.088429370528047002 0.46820721892427647 -3329.5903711480278 0.55082538202714204 0.088429370528047002 0.55082538202714204 -9999.6534461447063 -3329.1581520103027 0.20158328516900173 0.44328633916029503 0.20158328516900173 -3330.0724394915223 -0.0067404507813080272 0.44328633916029503 -0.0067404507813080272 -9999.3656558372513 -3330.8568244797802 0.03210077420347137 0.53162594736113533 0.03210077420347137 -3330.3164745727258 -0.1229420060949451 0.53162594736113533 -0.1229420060949451 -10000.057656703872 -3330.2610051388938 0.12668128163876685 0.048914077297013137 0.12668128163876685 -3330.273175078948 0.042922959760289814 0.048914077297013137 0.042922959760289814 -9999.8978769952064 -3330.4868243501282 0.082170608738987683 -0.12475957576043584 0.082170608738987683 -3330.5049153790073 0.012183059031485755 -0.12475957576043584 0.012183059031485755 -10000.535170287154 -3330.3327030334949 0.066086428576593859 -0.33899050777472439 0.066086428576593859 -3330.5765263124358 -0.14194303889962612 -0.33899050777472439 -0.14194303889962612 -10000.514542691353 -3329.907114156822 0.20791585268391199 -0.7643840977234504 0.20791585268391199 -3330.2069936579383 -0.062721928293740348 -0.7643840977234504 -0.062721928293740348 -9999.792858894436 -3328.9345642923336 -0.19756150314279752 -1.1524827865059706 -0.19756150314279752 -3329.8860393811201 0.0013207145835849587 -1.1524827865059706 0.0013207145835849587 -9999.3167216158272 -3330.6568213377209 0.17319570521027638 -0.20083669902942347 0.17319570521027638 -3330.3284239217687 -0.32850292288821947 -0.20083669902942347 -0.32850292288821947 -10000.533546669742 -3329.4436025664659 0.0048238608860775578 -0.92882084113625751 0.0048238608860775578 -3329.810123270348 -0.30070748832713434 -0.92882084113625751 -0.30070748832713434 -9999.4250021566677 -3330.8876917852344 0.25923153395216941 0.15571498550343676 0.25923153395216941 -3330.9721534636947 0.99275783026359932 0.15571498550343676 0.99275783026359932 -10002.483544432507 -3330.8088146286336 0.20791585268391222 -0.78462028450121579 0.20791585268391222 -3331.1086941297499 0.31624391815057606 -0.78462028450121579 0.31624391815057606 -10002.497960309871 -3329.6592504854361 0.20703271206199686 0.138585319251888 0.20703271206199686 -3329.9208438339301 0.027316439552350857 0.138585319251888 0.027316439552350857 -9998.5860506471672 -3329.3728938540739 0.119480591299472 0.88569908112981466 0.119480591299472 -3329.7932170986346 -0.33118369602470921 0.88569908112981466 -0.33118369602470921 -9997.7013441714043 -3330.7606014429816 0.22188079297418195 -0.094456780104337668 0.22188079297418195 -3330.7988153704728 -0.93231690664924827 -0.094456780104337668 -0.93231690664924827 -10002.309608948324 -3329.6799053184786 0.253979489831617 0.43675485179574025 0.253979489831617 -3329.567461030404 0.22295436804065361 0.43675485179574025 0.22295436804065361 -9997.7216580204476 -3329.6573830743337 0.27006749829215881 0.48965155274527206 0.27006749829215881 -3329.6386657504686 0.32071608687056141 0.48965155274527206 0.32071608687056141 -9997.7338286394261 -3333.0466813021253 0.98547547716412942 -0.85336348063582346 0.98547547716412942 -3331.2026658932023 0.83501209626184192 -0.85336348063582346 0.83501209626184192 -10000.147822051837 -3334.8939867813883 -0.16848372460447347 -1.2469403940432986 -0.16848372460447347 -3334.6042632572289 0.076780827435603438 -1.2469403940432986 0.076780827435603438 -10001.065589576978 -3334.9267954371321 -0.20352253632624276 0.47284404248952416 -0.20352253632624276 -3334.8277244440437 -1.7113111423862799 0.47284404248952416 -1.7113111423862799 -10001.385834578003 -3330.1477129965638 -0.012481019243637245 -1.4528119177174106 -0.012481019243637245 -3332.1644668516574 -3.381154842006671 -1.4528119177174106 -3.381154842006671 -9999.2690720293813 -3332.2734654843512 -1.6324346139759978 -0.4744412386562975 -1.6324346139759978 -3332.5461446690188 -1.194763610019371 -0.4744412386562975 -1.194763610019371 -9999.8959296056673 -3334.4096091095707 -0.017029846578268924 -0.41092702155664274 -0.017029846578268924 -3332.8732531338469 -3.6862980740982669 -0.41092702155664274 -3.6862980740982669 -10000.767920168564 -3331.9157665930975 -1.1842725183801845 -0.0096159052377515764 -1.1842725183801845 -3332.0656148142994 -0.55348933735717765 -0.0096159052377515764 -0.55348933735717765 -9998.9721128375368 -3330.4928976849042 0.23071288863365469 0.38991865361549571 0.23071288863365469 -3332.4779118073698 3.2577823900719522 0.38991865361549571 3.2577823900719522 -9999.433729440394 -3330.0449422260613 1.0439389368269008 3.559252260124051 1.0439389368269008 -3330.8055411823116 -1.148061338642604 3.559252260124051 -1.148061338642604 -9998.9036479194183 -3333.333173334589 -0.8757944413439398 -3.1458301422958828 -0.8757944413439398 -3330.9498915128961 0.99503588712867763 -3.1458301422958828 0.99503588712867763 -10000.156251464878 -3334.3975216994745 0.073111687033889206 -2.4628633400604896 0.073111687033889206 -3335.6187556060881 0.072772443582988622 -2.4628633400604896 0.072772443582988622 -10001.589554579397 -3332.1568226279242 1.2251866937802234 -0.47284906045004615 1.2251866937802234 -3335.3274246210553 -0.10476512906988678 -0.47284906045004615 -0.10476512906988678 -10003.88964493252 -3332.9824424863295 -0.61810398937827515 -3.7852975626682563 -0.61810398937827515 -3333.8915441119752 0.2539688073062476 -3.7852975626682563 0.2539688073062476 -10000.409523716902 -3334.2346691101338 1.9290942803526963 0.99077651775496633 1.9290942803526963 -3334.304627124538 0.15769630206523289 0.99077651775496633 0.15769630206523289 -10004.153407178943 -3334.6794671492753 0.64052411852763591 1.6721325588618767 0.64052411852763591 -3333.7701764380731 2.5640510693953074 1.6721325588618767 2.5640510693953074 -9999.512786897134 -3331.0242935343736 -1.7792825153561793 2.0668202814686083 -1.7792825153561793 -3332.407913037488 2.5551515546671624 2.0668202814686083 2.5551515546671624 -9998.2584276432644 -3336.7628205101532 0.48959717502778749 0.93501141283608158 0.48959717502778749 -3337.0400642876452 0.064212283826119876 0.93501141283608158 0.064212283826119876 -10005.469304319724 -3330.2782601265608 0.14049017410191009 -0.11667940508323227 0.14049017410191009 -3330.4586795035384 1.2266406369926699 -0.11667940508323227 1.2266406369926699 -10001.392892804679 -3330.6103545884357 -0.3670040538777426 -0.03648906702255772 -0.3670040538777426 -3330.5387074336659 1.2248324857540069 -0.03648906702255772 1.2248324857540069 -10001.495923402679 -3330.3619435023188 0.093396177424755589 -0.36961126037613212 0.093396177424755589 -3330.510044783563 0.80262841271996876 -0.36961126037613212 0.80262841271996876 -10001.426654968624 -3334.8829844662032 -0.32433042942964901 -1.5265669238229425 -0.32433042942964901 -3334.628327934357 -0.38380975325368993 -1.5265669238229425 -0.38380975325368993 -9999.7782041004375 -3333.0194338668389 -0.16603781328608913 0.18808643294800431 -0.16603781328608913 -3332.2039619923462 4.0480971881091499 0.18808643294800431 4.0480971881091499 -9998.7062249650953 -3333.3875071262814 0.26717574295577767 -0.091025010109353932 0.26717574295577767 -3333.6009572414191 0.46059051899106751 -0.091025010109353932 0.46059051899106751 -9999.1474920922246 -3325.3942213733144 2.4771182061352714 0.11700503614338231 2.4771182061352714 -3326.3576996795778 0.71198979670589324 0.11700503614338231 0.71198979670589324 -9996.0384966912661 -3329.867055647655 -1.1756170928796137 -0.27208534029432485 -1.1756170928796137 -3332.6845970340455 -0.80120343247699566 -0.27208534029432485 -0.80120343247699566 -9998.038289170725 -3330.8244324964385 -0.61427263624427764 -0.73903538148662395 -0.61427263624427764 -3333.6383632772381 -0.24962155238191475 -0.73903538148662395 -0.24962155238191475 -9999.2162153714598 -3329.6641842689082 -0.37582993759855365 -0.96734334789653076 -0.37582993759855365 -3329.9131054632994 -0.42464290337511557 -0.96734334789653076 -0.42464290337511557 -9999.2506811028943 -3328.7821595953124 -0.21598068656908914 -0.36792343504305336 -0.21598068656908914 -3328.7177613650238 0.35282631268637488 -0.36792343504305336 0.35282631268637488 -9996.7753562403832 -3329.9862832552931 -0.23231257368669658 -0.81561664852791427 -0.23231257368669658 -3330.8175699257577 0.6725280408446892 -0.81561664852791427 0.6725280408446892 -9998.3014797233045 -3327.9883929058869 0.58049020572051413 -0.15124405721504619 0.58049020572051413 -3329.167358376455 1.1838883229061761 -0.15124405721504619 1.1838883229061761 -9996.959885890743 -3329.7128991300378 -0.65376375657378127 2.2512593318664553 -0.65376375657378127 -3332.1112631958854 3.3570508705025905 2.2512593318664553 3.3570508705025905 -9998.1269886516384 -3328.755143529082 -1.3556653296754231 2.0796661132297478 -1.3556653296754231 -3328.8464020498805 0.65097492706501425 2.0796661132297478 0.65097492706501425 -9997.0713344648993 -3334.898495921841 -0.72728138818162447 0.72169755284489145 -0.72728138818162447 -3332.3702583815088 1.1285296946777756 0.72169755284489145 1.1285296946777756 -10003.549969839525 -3326.9257603801157 -1.030144514606679 1.2754662852221372 -1.030144514606679 -3328.839469556191 0.58227993712398529 1.2754662852221372 0.58227993712398529 -9999.1447177774644 -3332.0817151519086 -1.75376413687789 1.2795491874084055 -1.75376413687789 -3330.7395526397918 0.58285106988345836 1.2795491874084055 0.58285106988345836 -10000.908727241313 -3333.4735677832 -1.3683104452596673 0.43761253972524439 -1.3683104452596673 -3331.9195314755425 1.5134886120074467 0.43761253972524439 1.5134886120074467 -10003.081056078374 -3330.6680585457266 -0.87833757177347005 -0.13015207410332019 -0.87833757177347005 -3328.3239277178741 -1.1402511196095615 -0.13015207410332019 -1.1402511196095615 -9999.9514068592889 -3330.3770284050061 -0.0051381992632770768 -0.43257251473096403 -0.0051381992632770768 -3329.5337235098013 0.88794617039866353 -0.43257251473096403 0.88794617039866353 -10001.186345875854 -3330.2667509175999 -0.21170039662487411 -0.054497585415219874 -0.21170039662487411 -3329.5764535802909 0.9408328103072563 -0.054497585415219874 0.9408328103072563 -10001.169459021627 -3329.4181104495151 -0.21170039662487411 0.38379590706085764 -0.21170039662487411 -3328.7278131122061 -0.93268446805268468 0.38379590706085764 -0.93268446805268468 -9998.6235376173681 -3329.5409849788716 0.06813730293242648 -0.79760451454535541 0.06813730293242648 -3328.8941092656009 -1.2577484016137532 -0.79760451454535541 -1.2577484016137532 -9999.2346974938373 -3329.4311610216719 -0.063451895046724882 -0.19028979975337279 -0.063451895046724882 -3330.3060349533653 -0.18970843012880323 -0.19028979975337279 -0.18970843012880323 -9999.9381326483162 -3331.3548843249391 0.0082122084582036958 -0.33493926632581861 0.0082122084582036958 -3329.4043965778264 -0.76594260905130795 -0.33493926632581861 -0.76594260905130795 -9999.8157441584099 -3330.3301356676047 0.0062857410869012753 -0.047050441881538063 0.0062857410869012753 -3330.6151163364948 -0.21990164434464532 -0.047050441881538063 -0.21990164434464532 -10000.104333154397 -3330.0239599684933 -0.053688244778407945 -0.21652264077420114 -0.053688244778407945 -3330.5409367765574 -0.24360809632480596 -0.21652264077420114 -0.24360809632480596 -10000.009244339637 -3329.7439348192329 -0.0051381992632766327 -0.40304316847232258 -0.0051381992632766327 -3328.9006299240282 -0.77546925647015996 -0.40304316847232258 -0.77546925647015996 -9999.2870651185331 -3329.6557913623878 0.075703281027167613 -0.26420451576177584 0.075703281027167613 -3330.7320136435169 -0.089547817155107623 -0.26420451576177584 -0.089547817155107623 -10000.100784906033 -3330.2089645715723 -0.17988603417022786 0.054148804963915609 -0.17988603417022786 -3330.4466689214296 -0.018951991331050522 0.054148804963915609 -0.018951991331050522 -9999.6651707226229 -3329.8772568468939 -0.053688244778407945 0.15393297975424503 -0.053688244778407945 -3330.394233654958 0.10301592822361272 0.15393297975424503 0.10301592822361272 -9999.5691349748377 -3330.1175727278969 0.0062857410869012753 0.23416382749132936 0.0062857410869012753 -3330.402553396787 0.18719970546953846 0.23416382749132936 0.18719970546953846 -9999.4666443352726 -3330.7986484883181 0.85130421368326825 -0.81766818340065583 0.85130421368326825 -3330.1290683898146 -1.0046063865984252 -0.81766818340065583 -1.0046063865984252 -9999.4596486254777 -3330.2996831923856 -0.20125787993820987 -0.06733424463072879 -0.20125787993820987 -3330.274814550593 -0.083088869399944087 -0.06733424463072879 -0.083088869399944087 -9999.456433055806 -3330.4425455154678 -0.1142019605718847 -0.094892452891144785 -0.1142019605718847 -3330.1325835886728 -0.19981298130153391 -0.094892452891144785 -0.19981298130153391 -9999.1495433968776 -3330.1494894860516 -0.24637137849877933 0.018897626407124335 -0.24637137849877933 -3330.2464209907566 -0.069911034573578945 0.018897626407124335 -0.069911034573578945 -9999.4117862392632 -3330.0926130243702 0.016804238788800774 -0.50520342216805147 0.016804238788800774 -3330.4921969776328 -0.22750570493917621 -0.50520342216805147 -0.22750570493917621 -10000.150036155059 -3330.3920595476079 -0.66222312387763926 -0.84922599201945559 -0.66222312387763926 -3330.5751687755178 -0.11911827191079283 -0.84922599201945559 -0.11911827191079283 -9999.853377778245 -3328.9325941255856 0.21554176383769263 -1.4885007529674112 0.21554176383769263 -3329.0314352681653 -0.59373863260702819 -1.4885007529674112 -0.59373863260702819 -9998.7187267543814 -3330.4099930936459 -0.17988603417022786 -0.44066682395168755 -0.17988603417022786 -3330.6476974435031 -0.30524074295863102 -0.44066682395168755 -0.30524074295863102 -10000.268256288844 -3330.4258994998495 -0.24637137849877933 -0.51840640459340648 -0.24637137849877933 -3330.5228310045545 -0.25762724244441415 -0.51840640459340648 -0.25762724244441415 -10000.241016280659 -3329.9586258300969 0.253979489831617 -1.5154642448233062 0.253979489831617 -3329.8461815420224 -0.015810399558041865 -1.5154642448233062 -0.015810399558041865 -9998.5578195552989 -3330.4191880233466 -0.20125787993820987 -0.59541251581504184 -0.20125787993820987 -3330.3943193815539 -0.080330848821176914 -0.59541251581504184 -0.080330848821176914 -9999.814947548688 -3329.8741302767212 0.025117376162206273 -1.5098805686227479 0.025117376162206273 -3329.4037921178297 -0.59700586635699437 -1.5098805686227479 -0.59700586635699437 -9999.0472000045811 -3329.7792383137248 0.29648747162298988 -1.1672551585315887 0.29648747162298988 -3330.464093173091 -0.42920162738664658 -1.1672551585315887 -0.42920162738664658 -9998.6674505839728 -3330.9153301291926 -0.10019519305597557 -0.85858609995966617 -0.10019519305597557 -3329.9907934071571 0.23210686565835204 -0.85858609995966617 0.23210686565835204 -9999.8381015815485 -3329.8172366155459 0.025117376162206273 -0.13378735906439942 0.025117376162206273 -3329.3468984566543 0.54697407004823617 -0.13378735906439942 0.54697407004823617 -9998.8765190210579 -3330.383727911259 0.068137302932427257 -0.25286048718226084 0.068137302932427257 -3329.7368521979884 0.66951151066405146 -0.25286048718226084 0.66951151066405146 -10001.762926291 -3330.2920867929533 0.0048238608860773358 -0.68662611869513057 0.0048238608860773358 -3330.6586074968359 0.95949668675348221 -0.68662611869513057 0.95949668675348221 -10001.970454836133 -3329.9346188686827 0.21554176383769219 -0.69502824013216014 0.21554176383769219 -3330.0334600112624 0.94032792564576084 -0.69502824013216014 0.94032792564576084 -10001.724800983673 -3332.5344796652485 0.86798105332348952 -2.4072984448342618 0.86798105332348952 -3329.8496216961398 0.19953926199393213 -2.4072984448342618 0.19953926199393213 -9999.6815105933547 -3333.0463682766976 0.50107857522531396 -2.1727132983041608 0.50107857522531396 -3330.2992647721157 0.26095663912358935 -2.1727132983041608 0.26095663912358935 -9999.880229669383 -3327.3805900672628 -1.7354448951847283 1.1457385682467316 -1.7354448951847283 -3326.3950173721105 -1.7715100701463125 1.1457385682467316 -1.7715100701463125 -9997.4877232670224 -3329.3664964208642 -0.51958534121677646 0.21894461897256856 -0.51958534121677646 -3327.5847004906932 -0.48256242643751257 0.21894461897256856 -0.48256242643751257 -9997.0347443676364 -3332.4525399352588 1.3823681445572842 -0.66681617482850086 1.3823681445572842 -3332.1025398286201 1.1797819010082677 -0.66681617482850086 1.1797819010082677 -10000.224255193976 -3332.431042655006 1.0494671217176679 -0.42311582034211281 1.0494671217176679 -3330.7338347558025 0.27968693406905443 -0.42311582034211281 0.27968693406905443 -9998.5881644924484 -3331.135703572852 0.20381861323329897 -0.51938528346016266 0.20381861323329897 -3329.8244392953047 0.51361593121291826 -0.51938528346016266 0.51361593121291826 -9999.2838571242191 -3328.8074352286949 0.66368621502147473 2.0620893505440563 0.66368621502147473 -3328.1717590861335 0.56430988944202909 2.0620893505440563 0.56430988944202909 -9999.6048008844882 -3328.6132523697261 1.1486257863912277 2.6460135689062119 1.1486257863912277 -3329.464794835113 0.24379258276415042 2.6460135689062119 0.24379258276415042 -9997.3164569409564 -3329.4276045037973 -0.01056820747917675 -0.66907847118409336 -0.01056820747917675 -3330.9087232835022 0.50312962170482933 -0.66907847118409336 0.50312962170482933 -9998.9248105482438 -3329.1510980509879 -0.12131632402338055 -0.75734137495965115 -0.12131632402338055 -3329.565398753894 -0.024676864660520437 -0.75734137495965115 -0.024676864660520437 -9998.2857419134889 -3330.4120703652661 -0.027778442076783927 0.098050408756535035 -0.027778442076783927 -3330.1251243613415 -0.20206950358618769 0.098050408756535035 -0.20206950358618769 -9999.1400598024957 -3326.7867633857418 -1.1872804589184804 -1.2865272603994526 -1.1872804589184804 -3328.5117319066412 -0.4962450163621952 -1.2865272603994526 -0.4962450163621952 -9999.141508652845 -3330.4750947133466 -0.20749382318871645 0.093503351556137204 -0.20749382318871645 -3329.5542675603115 -0.97543137634738741 0.093503351556137204 -0.97543137634738741 -10001.338875921978 -3330.6602928871862 -0.41272703457465543 0.1009369289067763 -0.41272703457465543 -3330.1657576343009 -1.2010117669405531 0.1009369289067763 -1.2010117669405531 -10001.538047983935 -3328.8977050693939 -1.4864019872285219 -1.4799935168326819 -1.4864019872285219 -3328.8938319063186 -0.51752328195544239 -1.4799935168326819 -0.51752328195544239 -9998.308032583056 -3331.7584962155997 -1.7058672557644152 -0.97747729865204747 -1.7058672557644152 -3332.9402860466594 -2.1551779584607402 -0.97747729865204747 -2.1551779584607402 -10000.121900173273 -3330.2140326214012 -0.79848635908806476 -1.4039122324875351 -0.79848635908806476 -3332.6723427756247 -2.8262967075091621 -1.4039122324875351 -2.8262967075091621 -9999.5817421883839 -3328.2537223467534 0.39477567298915484 -0.29054630323525998 0.39477567298915484 -3329.4027199635675 -1.4360240837295351 -0.29054630323525998 -1.4360240837295351 -9998.2742589167083 -3329.33443370336 -0.40631047572635948 -0.17737242448898893 -0.40631047572635948 -3330.4373185741701 -1.5443962285413937 -0.17737242448898893 -1.5443962285413937 -9997.5637961984321 -3330.2120517961357 -0.057116597278507888 -0.017628824435154122 -0.057116597278507888 -3332.9193315160992 -1.9858808851868777 -0.017628824435154122 -1.9858808851868777 -9998.4037039571067 -3330.2828703067598 -0.40491652629320896 0.47056578654155601 -0.40491652629320896 -3333.2665420683134 -1.7112361730393815 0.47056578654155601 -1.7112361730393815 -9999.834557701477 -3329.4252547734209 1.0291128769071174 1.6112267533096265 1.0291128769071174 -3330.7933113145232 1.335432598248246 1.6112267533096265 1.335432598248246 -10000.414643827768 -3327.4729867626374 1.5119203910478554 0.68988893039113464 1.5119203910478554 -3327.5146659426405 -0.71426830941345543 0.68988893039113464 -0.71426830941345543 -9996.3677713053676 -3328.8723775393701 -0.12131632402338055 1.1948777216584858 -0.12131632402338055 -3329.2866782422757 0.21408790293817503 1.1948777216584858 0.21408790293817503 -9997.4495803786376 -3328.8086671537671 -0.15810670472013172 1.0403460138445553 -0.15810670472013172 -3329.179717975886 0.47838773587591277 1.0403460138445553 0.47838773587591277 -9997.4069127156399 -3329.4959664242442 -0.33710760959754593 0.13055994431306317 -0.33710760959754593 -3329.2252943592512 -0.77155932549521822 0.13055994431306317 -0.77155932549521822 -9998.6275198035819 -3329.2114425017949 -0.39331366938897588 0.59522353867532729 -0.39331366938897588 -3329.6945412010637 -0.3216251730896289 0.59522353867532729 -0.3216251730896289 -9997.6363123589417 -3330.4656268229264 0.021274272687034079 -0.22100940002519565 0.021274272687034079 -3330.4837447433511 -0.025650826153650996 -0.22100940002519565 -0.025650826153650996 -10000.122429989086 -3329.3745310083655 -0.33710760959754615 -0.99064631991495844 -0.33710760959754615 -3329.1038589433724 0.48521815545063873 -0.99064631991495844 0.48521815545063873 -9998.2632135559434 -3330.9507938261568 0.42078744139624924 -0.0023207890872072312 0.42078744139624924 -3330.8716134551823 -0.63004227769803833 -0.0023207890872072312 -0.63004227769803833 -10000.340688917851 -3330.1893068916056 0.15192964676654006 -0.39011181857040356 0.15192964676654006 -3330.1449272173618 -0.025064816879421414 -0.39011181857040356 -0.025064816879421414 -9998.9017672963801 -3329.5049623557093 -0.39331366938897588 -0.84421480698620144 -0.39331366938897588 -3329.9880610549781 0.080524219763432825 -0.84421480698620144 0.080524219763432825 -9998.5168719206813 -3330.3370494245846 -0.027778442076783927 -0.23447017106445855 -0.027778442076783927 -3330.05010342066 0.067174733385456875 -0.23447017106445855 0.067174733385456875 -9998.9149969804475 -3330.2642810584184 -0.84166759583557038 -0.46095832736955344 -0.84166759583557038 -3330.6502484602847 0.76934616932157951 -0.46095832736955344 0.76934616932157951 -9998.8722484476857 -3329.1810320210438 -0.15810670472013172 -0.76697322980589888 -0.15810670472013172 -3329.5520828431627 0.67056172166439865 -0.76697322980589888 0.67056172166439865 -9998.52400731747 -3330.4134170057123 0.015966783440686333 -0.2879233582816596 0.015966783440686333 -3330.1135016663202 0.15859719063519151 -0.2879233582816596 0.15859719063519151 -9998.9499384371429 -3330.512563216238 0.015966783440686333 0.011479187077384267 0.015966783440686333 -3330.2126478768459 -0.2057985574747363 0.011479187077384267 -0.2057985574747363 -9999.2473770687211 -3330.1430907992299 0.021274272687034079 -0.20906257757951607 0.021274272687034079 -3330.1612087196545 -0.3748664929644292 -0.20906257757951607 -0.3748664929644292 -9999.1548219179967 -3330.2935221992611 0.15192964676654006 -0.1894510931606419 0.15192964676654006 -3330.2491425250173 -0.42906690826112026 -0.1894510931606419 -0.42906690826112026 -9999.2144132193462 -3330.0267556416238 0.134411385587348 -0.25480638898079633 0.134411385587348 -3330.1048110463216 -0.28700602939909459 -0.25480638898079633 -0.28700602939909459 -9999.4149903480975 -3330.0944853937453 -0.016454089697489613 -0.25738950391132676 -0.016454089697489613 -3330.3484925044668 -0.20861845808758517 -0.25738950391132676 -0.20861845808758517 -9999.4928431506632 -3329.8484816086402 -0.41272703457465543 -0.33185229218997847 -0.41272703457465543 -3329.3539463557549 0.74198594520936467 -0.33185229218997847 0.74198594520936467 -9999.1026141482962 -3330.2595958658881 0.134411385587348 0.027022355292501743 0.134411385587348 -3330.3376512705863 0.13874891320654115 0.027022355292501743 0.13874891320654115 -10000.113511020892 -3330.7596517776483 -0.81009223964378563 -0.31632583285045257 -0.81009223964378563 -3329.783188310972 0.76137401053256326 -0.31632583285045257 0.76137401053256326 -9999.4377171793512 -3329.3268202377781 0.56538543281593789 -0.20084572316773119 0.56538543281593789 -3329.61809851304 -0.00047221488523518929 -0.20084572316773119 -0.00047221488523518929 -9999.621316785222 -3330.3273256180114 -0.016454089697489613 0.024439240360152326 -0.016454089697489613 -3330.5813327287328 0.21713648451623158 0.024439240360152326 0.21713648451623158 -10000.19136382346 -3329.6632834348002 -0.20749382318871668 -0.33928586953879858 -0.20749382318871668 -3328.742456281765 0.96756633580355356 -0.33928586953879858 0.96756633580355356 -9998.9034420863372 -3331.48208296146 0.011973956853962076 0.28266707126931578 0.011973956853962076 -3329.3181895381272 0.78215884462929353 0.28266707126931578 0.78215884462929353 -9999.8866447979162 -3329.8015351421891 -0.08610920235049524 -0.25187063915291219 -0.08610920235049524 -3330.3333920135374 -0.13014247936735046 -0.25187063915291219 -0.13014247936735046 -9999.5816276773476 -3330.2674345371361 -0.0036016631405659805 -0.0023593542628077557 -0.0036016631405659805 -3330.1510746945878 -0.0011476205363578629 -0.0023593542628077557 -0.0011476205363578629 -9999.5708642120044 -3330.157283046452 0.023243527933943131 -0.04523470121785067 0.023243527933943131 -3330.1304748808907 -0.057945936521718977 -0.04523470121785067 -0.057945936521718977 -9999.5043005791085 -3330.1953779033283 -0.023276026252516013 -0.050724305057883612 -0.023276026252516013 -3330.1208574913635 -0.021958043238555547 -0.050724305057883612 -0.021958043238555547 -9999.4786943879262 -3330.2403819913288 -0.046594678284936075 -0.036640205256844638 -0.046594678284936075 -3330.1676592897766 -0.0043710685840778751 -0.036640205256844638 -0.0043710685840778751 -9999.501645859531 -3330.1940020954062 -0.013176665886507566 -0.051495313244231511 -0.013176665886507566 -3330.1140469313159 0.0014390803644346306 -0.051495313244231511 0.0014390803644346306 -9999.4766477959347 -3330.2687610559396 -0.013176665886507344 -0.10018760989987641 -0.013176665886507344 -3330.1888058918494 -0.073514881976734614 -0.10018760989987641 -0.073514881976734614 -9999.7009246775415 -3330.2701368638636 -0.023276026252516235 -0.099416601713528507 -0.023276026252516235 -3330.1956164518997 -0.096912005574267823 -0.099416601713528507 -0.096912005574267823 -9999.702971269533 -3330.0142151032169 0.12208616477086665 -0.22212715681871487 0.12208616477086665 -3330.2222851030438 -0.24619910271576373 -0.22212715681871487 -0.24619910271576373 -9999.4412237276774 -3330.3210365879395 -0.056228609516425387 -0.12194362431728223 -0.056228609516425387 -3330.1799575273481 -0.15413001372508006 -0.12194362431728223 -0.15413001372508006 -9999.631414526335 -3330.2951155001019 -0.023190703942544688 -0.037622863457727362 -0.023190703942544688 -3330.348442640231 -0.28651598735007155 -0.037622863457727362 -0.28651598735007155 -9999.6670555325945 -3330.2531579777306 -0.035209073882199016 -0.096858513117695111 -0.035209073882199016 -3330.2074909802959 -0.12280595175343478 -0.096858513117695111 -0.12280595175343478 -9999.621328237019 -3330.1617172870974 -0.024281622893494531 -0.08717049107508501 -0.024281622893494531 -3330.1637896920256 -0.11622491408525093 -0.08717049107508501 -0.11622491408525093 -9999.2919380730964 -3330.2293433104387 0.18629440439712541 -0.083285149365110556 0.18629440439712541 -3329.9726746803581 -0.23825622070944519 -0.083285149365110556 -0.23825622070944519 -9999.1292515359746 -3330.1718532450368 -0.03055508177912436 -0.051248330501039163 -0.03055508177912436 -3330.1546130087145 -0.051662476148521819 -0.051248330501039163 -0.051662476148521819 -9999.2921778917516 -3330.1582776192636 -0.038144992041683867 -0.031029022327857092 -0.038144992041683867 -3330.1774748144353 -0.086244115404042532 -0.031029022327857092 -0.086244115404042532 -9999.294499436739 -3330.2442766359509 -0.053342362312462921 -0.042482314605877036 -0.053342362312462921 -3330.2116819204311 0.011900723941835167 -0.042482314605877036 0.011900723941835167 -9999.4098385859179 -3330.2050660930163 -0.030555081779124249 -0.057841790458041942 -0.030555081779124249 -3330.187825856694 0.0079202531169357826 -0.057841790458041942 0.0079202531169357826 -9999.3918164356837 -3330.1958323345043 -0.024281622893494587 -0.079112388885732798 -0.024281622893494587 -3330.1979047394325 -0.053934038207444246 -0.079112388885732798 -0.053934038207444246 -9999.394283215308 -3330.2537162884582 0.018458945371642527 -0.015094752391632937 0.018458945371642527 -3330.2573513369898 -0.092770000295786303 -0.015094752391632937 -0.092770000295786303 -9999.5601280036353 -3330.1690311574584 -0.035209073882199182 -0.083188863814939396 -0.035209073882199182 -3330.1233641600247 -0.04266785205436463 -0.083188863814939396 -0.04266785205436463 -9999.3689477761945 -3330.1850980437011 -0.00058121890132478704 -0.045927618515634094 -0.00058121890132478704 -3330.1772270753736 -0.031030879366880981 -0.045927618515634094 -0.031030879366880981 -9999.4200372187042 -3330.226899755573 -0.00058121890132478704 -0.035329627733517555 -0.00058121890132478704 -3330.2190287872454 -0.029981260508066043 -0.035329627733517555 -0.029981260508066043 -9999.545442354327 -3330.2154723994536 -0.0077977039875028464 -0.034186723682068987 -0.0077977039875028464 -3330.1994371047294 -0.033139913519335096 -0.034186723682068987 -0.033139913519335096 -9999.5376875946677 -3330.2148327509185 -0.0077977039875028464 -0.0331537223282794 -0.0077977039875028464 -3330.1987974561944 -0.042860281596404093 -0.0331537223282794 -0.042860281596404093 -9999.5357686490534 -3330.2477209115259 -0.010145857296550598 -0.023312503410124918 -0.010145857296550598 -3330.2250619897277 -0.010636832991622214 -0.023312503410124918 -0.010636832991622214 -9999.5645779904444 -3330.2009503810496 -0.010145857296550598 -0.03487399061123142 -0.010145857296550598 -3330.1782914592513 -0.0111643358695801 -0.03487399061123142 -0.0111643358695801 -9999.424266399008 -3330.1957043148595 -0.013090503453692448 -0.025547563518557581 -0.013090503453692448 -3330.1849932155819 -0.027115580816825968 -0.025547563518557581 -0.027115580816825968 -9999.4246303215405 -3330.2758895192492 -0.014605202909434234 0.01538992897621938 -0.014605202909434234 -3330.2728646855539 0.020529411260213237 0.01538992897621938 0.020529411260213237 -9999.6717269848305 -3330.2412203737513 -0.0091967691684683439 -0.028174799463158706 -0.0091967691684683439 -3330.2215460983298 -0.017121979540206667 -0.028174799463158706 -0.017121979540206667 -9999.5496518366417 -3330.2809375556699 -0.011787450789872311 0.027500053165567806 -0.011787450789872311 -3330.2635361411394 -0.00018286743488715729 0.027500053165567806 -0.00018286743488715729 -9999.6706568578302 -3330.2497996136844 -0.0094296838774307612 -0.0054447532020276412 -0.0094296838774307612 -3330.2304250661764 -0.020964181642739277 -0.0054447532020276412 -0.020964181642739277 -9999.6203930772754 -3330.2708240272641 -0.005713668690392304 0.0016220108127527055 -0.005713668690392304 -3330.2610898652329 -0.046693140669958666 0.0016220108127527055 -0.046693140669958666 -9999.667516906753 -3330.2598532780157 -0.0030449712802780859 -0.0026035332266474143 -0.0030449712802780859 -3330.2474913062124 -0.028816483871196397 -0.0026035332266474143 -0.028816483871196397 -9999.6271730533626 -3330.2516660201727 -0.0057439757804680358 0.01382606284096255 -0.0057439757804680358 -3330.2283213984374 -0.035687185045389924 0.01382606284096255 -0.035687185045389924 -9999.6755554401389 -3330.2554305791782 -0.0013473270050758934 0.012502069166657748 -0.0013473270050758934 -3330.238485031492 0.0044909143689437769 0.012502069166657748 0.0044909143689437769 -9999.679037488153 -3330.2332236162347 2.978565165623337e-05 -0.016811792884254828 2.978565165623337e-05 -3330.2071496844928 -0.035158332608261844 -0.016811792884254828 -0.035158332608261844 -9999.6104302324893 -3330.23089189452 -0.0086607496053950905 -0.022838469525595428 -0.0086607496053950905 -3330.2169769124557 -0.017900061770887987 -0.022838469525595428 -0.017900061770887987 -9999.5817572381929 -3330.209647133659 -0.0032231075445035007 -0.029026886459178058 -0.0032231075445035007 -3330.1982079919781 -0.010203636920778081 -0.029026886459178058 -0.010203636920778081 -9999.5529902758499 -3330.2132558065296 0.0013208431284501554 -0.036075273372262018 0.0013208431284501554 -3330.1927874003613 -0.034429008399456507 -0.036075273372262018 -0.034429008399456507 -9999.5713008381717 -3330.2057503897267 0.0013208431284503774 -0.028116993587900652 0.0013208431284503774 -3330.1852819835549 -0.037815374875208363 -0.028116993587900652 -0.037815374875208363 -9999.5487845877615 -3330.21715255046 -0.0032231075445041668 -0.036985166250815382 -0.0032231075445041668 -3330.2057134087809 -0.0068172704450262245 -0.036985166250815382 -0.0068172704450262245 -9999.5755065262638 -3330.2266603818662 -0.003300304706309154 -0.021986214564094553 -0.003300304706309154 -3330.2161768063579 -0.0042538549678283744 -0.021986214564094553 -0.0042538549678283744 -9999.6076117393022 -3330.3978591241403 -0.051068926243198698 0.050341193941676465 -0.051068926243198698 -3329.8739994155831 -0.27226531738597259 0.050341193941676465 -0.27226531738597259 -9999.1340389303805 -3330.1814877620036 -0.038144992041683812 -0.041602250998039381 -0.038144992041683812 -3330.2006849571753 -0.038273907481197966 -0.041602250998039381 -0.038273907481197966 -9999.36412986496 -3330.1962817089443 -0.035238392848493116 -0.043672208446878358 -0.035238392848493116 -3330.2443173870251 -0.016314372978740721 -0.043672208446878358 -0.016314372978740721 -9999.4037432222503 -3330.2339234734773 -0.013090503453692448 -0.014222755164155387 -0.013090503453692448 -3330.2232123741978 -0.026509346704187919 -0.014222755164155387 -0.026509346704187919 -9999.5392877973936 -3330.2419639675627 -0.013382946496547254 -0.019158022983901901 -0.013382946496547254 -3330.2313762767189 -0.017742355203154148 -0.019158022983901901 -0.017742355203154148 -9999.5647173262041 -3330.2481377459972 -0.014346905264246368 -0.024297103370372497 -0.014346905264246368 -3330.2532647169373 0.0097734406735980883 -0.024297103370372497 0.0097734406735980883 -9999.621435356501 -3330.2597125294124 -0.010257830268827095 -0.019416381233895663 -0.010257830268827095 -3330.2541886173276 0.0039790837781765731 -0.019416381233895663 0.0039790837781765731 -9999.6245600274488 -3330.2196274271992 -0.015783074295462052 -0.032528044268474332 -0.015783074295462052 -3330.2206177298103 -0.027628143372567138 -0.032528044268474332 -0.027628143372567138 -9999.5350651247281 -3330.2106895140532 -0.011225179471780811 -0.004228887159115402 -0.011225179471780811 -3330.2279148747984 -0.029267546044138726 -0.004228887159115402 -0.029267546044138726 -9999.570253508442 -3330.2445653908544 -0.010646624807941985 0.0025911766497301869 -0.010646624807941985 -3330.2596311330999 0.012534563000372145 0.0025911766497301869 0.012534563000372145 -9999.6548650065888 -3330.2381074303175 -0.011913357816479841 -0.018270499946083874 -0.011913357816479841 -3330.2575750093765 0.025311805184173863 -0.018270499946083874 0.025311805184173863 -9999.6527364855283 -3330.2094960242339 -0.01130099177873678 -0.029205074155470356 -0.01130099177873678 -3330.2399415901582 0.0090234113831684226 -0.029205074155470356 0.0090234113831684226 -9999.6084441443672 -3330.23025509543 0.0002173318416697767 -0.0084978782269899966 0.0002173318416697767 -3330.2547067578635 -0.012764219645760022 -0.0084978782269899966 -0.012764219645760022 -9999.6500563389272 -3330.1987333712441 -0.014442632727589277 -0.034381920369014551 -0.014442632727589277 -3330.2224800010172 -0.010799586088978685 -0.034381920369014551 -0.010799586088978685 -9999.5659057542944 -3330.2297439261583 -0.017429396650052054 -0.043994089119223645 -0.017429396650052054 -3330.233394767869 -0.012268504375242628 -0.043994089119223645 -0.012268504375242628 -9999.5763870847368 -3330.2324388192374 -0.01106613989534444 -0.033661932327959221 -0.01106613989534444 -3330.2227808075495 -0.026281999933416955 -0.033661932327959221 -0.026281999933416955 -9999.5388087421743 -3330.2486718407308 0.00050073907041486843 -0.078564082208686159 0.00050073907041486843 -3330.2270752169916 0.0039947931400092784 -0.078564082208686159 0.0039947931400092784 -9999.517678323522 -3330.2114942980279 -0.0077788229380142959 -0.10550357523970888 -0.0077788229380142959 -3330.2116305735035 -0.037526563106439426 -0.10550357523970888 -0.037526563106439426 -9999.3743679030449 -3330.1695882642834 -0.023705840326704974 -0.082098583749484533 -0.023705840326704974 -3330.2015819061162 -0.065312794286001008 -0.082098583749484533 -0.065312794286001008 -9999.3613792277611 -3330.2234320107709 -0.026058348702821421 -0.13097132220536878 -0.026058348702821421 -3330.2127776256784 -0.02993448102279217 -0.13097132220536878 -0.02993448102279217 -9999.4886475112216 -3330.2049995853067 -0.017429396650051832 -0.066172327376989415 -0.017429396650051832 -3330.2086504270192 -0.010716605685956893 -0.066172327376989415 -0.010716605685956893 -9999.5021540621747 -3330.1631876696301 0.0029355697463104846 -0.052089742366661085 0.0029355697463104846 -3330.2001018249721 -0.01372878654365195 -0.052089742366661085 -0.01372878654365195 -9999.5206082466939 -3330.1864067559763 -0.014442632727589277 -0.050963451018105843 -0.014442632727589277 -3330.2101533857458 -0.011159243837028043 -0.050963451018105843 -0.011159243837028043 -9999.5289259084711 -3330.1178887334336 -0.007498627687090198 -0.094490767723982572 -0.007498627687090198 -3330.1721819347877 -0.024359573330002604 -0.094490767723982572 -0.024359573330002604 -9999.4521127691623 -3330.1382345160055 -0.016731795593091681 -0.083471887923224131 -0.016731795593091681 -3330.1875057188627 -0.01336030051288617 -0.083471887923224131 -0.01336030051288617 -9999.4801766178134 -3330.1964683102815 -0.010565394438504461 -0.037357366498326883 -0.010565394438504461 -3330.2169103584292 -0.019492621857352788 -0.037357366498326883 -0.019492621857352788 -9999.5331305402178 -3330.1826633560177 -0.0074986276870906421 -0.036903553611409734 -0.0074986276870906421 -3330.2369565573727 0.0072701745630183723 -0.036903553611409734 0.0072701745630183723 -9999.6464366369219 -3330.2352341510395 -0.0092425624750052116 -0.020131528410274768 -0.0092425624750052116 -3330.2311902020338 -0.0030022609698789893 -0.020131528410274768 -0.0030022609698789893 -9999.6581377468428 -3329.7554030036154 0.077319279557506504 -0.18710027267388796 0.077319279557506504 -3330.0392611049137 -0.037215282161923824 -0.18710027267388796 -0.037215282161923824 -9999.3833807506344 -3330.1637521374478 0.0089131170856801556 -0.03922411827261385 0.0089131170856801556 -3330.247458870218 0.001975993796804687 -0.03922411827261385 0.001975993796804687 -9999.6443344104882 -3330.1828802235523 -0.24709469971511355 0.0027456269272079226 -0.24709469971511355 -3329.8660871322563 -0.31572818078711862 0.0027456269272079226 -0.31572818078711862 -9999.0180029597941 -3330.245479859328 -0.026058348702821199 -0.13098324402926664 -0.026058348702821199 -3330.2348254742365 -0.02863955574503052 -0.13098324402926664 -0.02863955574503052 -9999.554791056893 -3330.3658774299056 0.044001822361465104 -0.1923248149223582 0.044001822361465104 -3330.4088019423425 0.044184699294419261 -0.1923248149223582 0.044184699294419261 -9999.6283845665639 -3329.863922504268 -0.35875536092331739 0.20485480518073018 -0.35875536092331739 -3330.0502761813323 -0.18380504009473952 0.20485480518073018 -0.18380504009473952 -9999.2913582914625 -3330.1977300922554 0.014186049027420378 -0.038909962837351486 0.014186049027420378 -3330.2088466861042 -0.058401391670486191 -0.038909962837351486 -0.058401391670486191 -9999.4812392966996 -3330.1991364059686 0.008987739062867206 0.007245193241033121 0.008987739062867206 -3330.1975332392667 0.037916631281404989 0.007245193241033121 0.037916631281404989 -9999.6416420724963 -3330.179758853049 0.047170659592953412 0.016430402680271072 0.047170659592953412 -3330.2402845126153 0.0086558865477854852 0.016430402680271072 0.0086558865477854852 -9999.6465424999878 -3330.1662419376871 0.030202591179652849 0.0036143391571386019 0.030202591179652849 -3330.13459094261 0.02602272291733243 0.0036143391571386019 0.02602272291733243 -9999.6167398786492 -3329.8105929919302 -0.062732720963898148 0.22869429603451863 -0.062732720963898148 -3330.3765754487267 0.11347384147484263 0.22869429603451863 0.11347384147484263 -9999.5480544595375 -3330.2348290508617 -0.0054987366533592041 0.07584060589215369 -0.0054987366533592041 -3330.2142451779846 0.047512033164366585 0.07584060589215369 0.047512033164366585 -9999.6547432183979 -3330.1343665111453 0.0048535092201467123 -0.036779823352844687 0.0048535092201467123 -3330.1902487862335 -0.011891224825376412 -0.036779823352844687 -0.011891224825376412 -9999.5109396973894 -3330.1610177428884 0.008987739062867206 -0.050011537654427229 0.008987739062867206 -3330.1594145761865 -0.019175870209437562 -0.050011537654427229 -0.019175870209437562 -9999.5272860832629 -3330.197492689007 -0.0092425624750056556 -0.074289809435867937 -0.0092425624750056556 -3330.1934487400013 -0.048851620960704167 -0.074289809435867937 -0.048851620960704167 -9999.5449133607472 -3330.1671367049148 0.003406986099626641 -0.026472983630810631 0.003406986099626641 -3330.1991716539815 -0.014516616261971649 -0.026472983630810631 -0.014516616261971649 -9999.5252612944932 -3330.145498559159 0.010390254693698919 -0.034104470676538767 0.010390254693698919 -3330.1986959316564 -0.015516551124164835 -0.034104470676538767 -0.015516551124164835 -9999.515834495749 -3330.2451968251116 0.0040538669066647604 -0.014247632734623039 0.0040538669066647604 -3330.1878530360191 -0.014173071520417579 -0.014247632734623039 -0.014173071520417579 -9999.5554404687755 -3330.1981413776393 0.00053593828371722996 0.0072147069295169786 0.00053593828371722996 -3330.2100417298498 -0.0098042467652703635 0.0072147069295169786 -0.0098042467652703635 -9999.5357299816424 -3330.1738800955518 -0.0054987366533594262 0.030208221955035697 -0.0054987366533594262 -3330.1532962226756 -0.017849194397513202 0.030208221955035697 -0.017849194397513202 -9999.4718963524756 -3330.2109762990276 0.00053593828371678587 0.018693410096602747 0.00053593828371678587 -3330.2228766512399 -0.0066176526706840377 0.018693410096602747 -0.0066176526706840377 -9999.5742347458145 -3330.1894301504981 0.003406986099626641 -0.014711991920194123 0.003406986099626641 -3330.2214650995647 -0.011633445988991298 -0.014711991920194123 -0.011633445988991298 -9999.592141631234 -3330.2203210885509 -0.010565394438504461 -0.020165823563729646 -0.010565394438504461 -3330.2407631366987 -0.018299758576176828 -0.020165823563729646 -0.018299758576176828 -9999.6046888750279 -3330.233267135518 -0.0025481817947274887 -0.024931831627327483 -0.0025481817947274887 -3330.2570901663821 0.025581030840839958 -0.024931831627327483 0.025581030840839958 -9999.6742386456026 -3330.2108345548531 0.0067383775855566208 -0.01383938887011027 0.0067383775855566208 -3330.246385900422 -0.013405330511886859 -0.01383938887011027 -0.013405330511886859 -9999.6431209894217 -3330.219278010607 0.00015638016694696777 0.00537369972516899 0.00015638016694696777 -3330.2321123380461 -0.0088237787604157347 0.00537369972516899 -0.0088237787604157347 -9999.6022654058834 -3330.2050905215292 0.0032066391094205393 -0.030962592871219385 0.0032066391094205393 -3330.2357410147888 0.0097980408972944133 -0.030962592871219385 0.0097980408972944133 -9999.6390237596788 -3330.2302627236368 -0.0043438426052793133 -0.014867477930238238 -0.0043438426052793133 -3330.2568155179633 0.026988873065420194 -0.014867477930238238 0.026988873065420194 -9999.6734188805276 -3330.2173522081775 0.004652855992605287 -0.0016395531456510071 0.004652855992605287 -3330.2312357419887 0.00075378200926934369 -0.0016395531456510071 0.00075378200926934369 -9999.6079733665465 -3330.2130795686026 0.0019520645145138654 0.0093186010126373731 0.0019520645145138654 -3330.2193130981395 -0.0059602194733088254 0.0093186010126373731 -0.0059602194733088254 -9999.5738696749322 -3330.2074720491692 0.0045824109276291214 0.019308066457597306 0.0045824109276291214 -3330.2143275734743 0.003075660475587938 0.019308066457597306 0.003075660475587938 -9999.5712214139057 -3330.2067407592458 0.003267164637234185 0.014823814783085254 0.003267164637234185 -3330.2099143121741 0.00063537820187775651 0.014823814783085254 0.00063537820187775651 -9999.5560408906385 -3330.2078672610533 0.0094026317399142079 0.016340128519686914 0.0094026317399142079 -3330.2091949333808 -0.017623239746171748 0.016340128519686914 -0.017623239746171748 -9999.5561426713903 -3330.223709109121 0.0040540146557308532 0.03499022479809355 0.0040540146557308532 -3330.2114601176054 0.0033268741390202194 0.03499022479809355 0.0033268741390202194 -9999.560669429462 -3330.2167140303191 0.010219698975322225 -0.00079915195738067268 0.010219698975322225 -3330.2255086624155 -0.0093658679361396935 -0.00079915195738067268 -0.0093658679361396935 -9999.6063820521886 -3330.2370776851676 0.0093692388915126712 -0.0029102932016940031 0.0093692388915126712 -3330.2448773092801 0.022101631730038207 -0.0029102932016940031 0.022101631730038207 -9999.6691353877468 -3330.2306072763276 0.0076666794426726304 0.00049627280168351717 0.0076666794426726304 -3330.2263682375014 -0.0097968843128910521 0.00049627280168351717 -0.0097968843128910521 -9999.6100702574622 -3330.2083172368257 0.017165297214480707 0.0030536741962805536 0.017165297214480707 -3330.2098456719395 -0.0082925949445780134 0.0030536741962805536 -0.0082925949445780134 -9999.600367106199 -3330.2138076534011 0.012514782997954138 0.0035365335265851172 0.012514782997954138 -3330.2236396571807 -0.0020862529745500069 0.0035365335265851172 -0.0020862529745500069 -9999.6051882066531 -3330.1995742154122 0.008027961672258721 -0.0053276742328307591 0.008027961672258721 -3330.2199258097626 0.0067779547417785579 -0.0053276742328307591 0.0067779547417785579 -9999.6007013853014 -3330.2120386680981 0.0074146715191498735 -0.01459460701153148 0.0074146715191498735 -3330.24013471324 -0.009411251940036891 -0.01459460701153148 -0.009411251940036891 -9999.6378146047136 -3330.2175263252648 0.0043321766797379535 -0.016021486335375812 0.0043321766797379535 -3330.2430957952456 -0.011803256991697708 -0.016021486335375812 -0.011803256991697708 -9999.6399267895031 -3330.2440951771532 0.0022548968804235736 0.011888986864505569 0.0022548968804235736 -3330.264693176654 -0.0092683712209691294 0.011888986864505569 -0.0092683712209691294 -9999.6788464085766 -3330.2086145978246 0.0088961502466602393 0.0047686894758953713 0.0088961502466602393 -3330.2229873960932 0.0065502994766575284 0.0047686894758953713 0.0065502994766575284 -9999.603726877489 -3330.2361886929721 0.006763499531774908 0.001307684273342602 0.006763499531774908 -3330.2556611676027 -0.027006752348029295 0.001307684273342602 -0.027006752348029295 -9999.6746117852745 -3330.2306686790744 0.0063932128235315577 -0.028224216810485814 0.0063932128235315577 -3330.25380138945 -0.026340859862102661 -0.028224216810485814 -0.026340859862102661 -9999.6727668372623 -3330.2314755204643 0.00088806071752556281 -0.0092596514623437542 0.00088806071752556281 -3330.2484625878351 -0.0087709278450347483 -0.0092596514623437542 -0.0087709278450347483 -9999.6447557864522 -3330.2413592896974 0.0058552361576916893 -0.0016209833047469147 0.0058552361576916893 -3330.2565158597772 -0.019086018386587966 -0.0016209833047469147 -0.019086018386587966 -9999.6492400467469 -3330.2360641494943 0.010135472724168586 -0.0057605552174209151 0.010135472724168586 -3330.2477711553311 -0.02206418806235888 -0.0057605552174209151 -0.02206418806235888 -9999.6457300855836 -3330.1952833334872 0.006012563669326676 -0.034457331399607938 0.006012563669326676 -3330.2336869126702 -0.017516418656214228 -0.034457331399607938 -0.017516418656214228 -9999.6033273023058 -3330.2231729166506 0.011541323582365502 -0.0057026712572678662 0.011541323582365502 -3330.221583180135 -0.0093459662020904943 -0.0057026712572678662 -0.0093459662020904943 -9999.6210403101504 -3330.2286850342898 0.0085104627122339349 -0.0056715890395935276 0.0085104627122339349 -3330.2364700678008 -0.0089464567718096077 -0.0056715890395935276 -0.0089464567718096077 -9999.6261400614749 -3330.2252812578699 0.0068605103840309045 0.0033660754997981712 0.0068605103840309045 -3330.2175909051221 -0.012462084663638962 0.0033660754997981712 -0.012462084663638962 -9999.6205693267038 -3330.2062945800462 0.016346082181403321 -0.00013928669068263844 0.016346082181403321 -3330.2118516514183 -0.0066942072517122142 -0.00013928669068263844 -0.0066942072517122142 -9999.6108042107371 -3330.23997951821 0.0057922506959419695 -0.0067658931184269022 0.0057922506959419695 -3330.2368113844532 0.0064984885830199346 -0.0067658931184269022 0.0064984885830199346 -9999.660786896653 -3330.2224403989476 0.0085651982595880138 -0.020032535307109356 0.0085651982595880138 -3330.2150118666887 -0.02288718775525922 -0.020032535307109356 -0.02288718775525922 -9999.6192143523658 -3330.2309022588179 0.0048819769202709997 -0.024560661289797281 0.0048819769202709997 -3330.2413236880147 -0.033006312518409686 -0.024560661289797281 -0.033006312518409686 -9999.6279077726649 -3330.2467024427006 0.00051788600234212168 -0.033524729189593927 0.00051788600234212168 -3330.2536195828634 -0.045536585745139746 -0.033524729189593927 -0.045536585745139746 -9999.6596189400225 -3330.2751429170166 -0.0097055237225602276 -0.032422814416349865 -0.0097055237225602276 -3330.2727687243096 0.021088595058245119 -0.032422814416349865 0.021088595058245119 -9999.6715163439585 -3330.2390889495 0.002450804684343999 -0.031171235754300142 0.002450804684343999 -3330.2474346635972 -0.01774580191727182 -0.031171235754300142 -0.01774580191727182 -9999.617715644039 -3330.252770259176 0.0039994892513268709 -0.052009386628924403 0.0039994892513268709 -3330.2625455421694 -0.015110580513464811 -0.052009386628924403 -0.015110580513464811 -9999.6633673839679 -3330.2359035413683 0.0076946094620532184 -0.030753860230106511 0.0076946094620532184 -3330.2460976237271 -0.02281222026431351 -0.030753860230106511 -0.02281222026431351 -9999.6303515772306 -3330.2239734941668 0.003160384661999735 -0.028826356981880963 0.003160384661999735 -3330.2361106458902 -0.027953583465091469 -0.028826356981880963 -0.027953583465091469 -9999.615357942319 -3330.2122393990394 0.0093459626226117254 -0.027811640306026675 0.0093459626226117254 -3330.2092894146481 -0.025685968859761488 -0.027811640306026675 -0.025685968859761488 -9999.605719110732 -3330.1897072167194 0.0029355697463109287 -0.038465602847281843 0.0029355697463109287 -3330.2266213720613 -0.012103736502467655 -0.038465602847281843 -0.012103736502467655 -9999.6001668879617 -3330.2099724131876 0.0096755209829078037 -0.025458405547396978 0.0096755209829078037 -3330.2379357462523 -0.023181865215065045 -0.025458405547396978 -0.023181865215065045 -9999.6218283258131 -3330.0815229726413 -0.0044326382296095979 -0.095957926492701517 -0.0044326382296095979 -3330.1632240153485 -0.020868217358611219 -0.095957926492701517 -0.020868217358611219 -9999.4599283060888 -3330.1653112817676 0.026608178272724103 -0.057374001735297497 0.026608178272724103 -3330.2259116396417 -0.05248364025533192 -0.057374001735297497 -0.05248364025533192 -9999.5465721017754 -3330.1066360976602 0.0089131170856803776 -0.090181731062330073 0.0089131170856803776 -3330.1903428304286 -0.028668265436863294 -0.090181731062330073 -0.028668265436863294 -9999.472986291119 -3330.1943255289334 0.012514782997954124 -0.010230156447505578 0.012514782997954124 -3330.2041575327112 -0.009727066608320456 -0.010230156447505578 -0.009727066608320456 -9999.5467418332591 -3330.1971358550236 0.016617432349249728 -0.037568326495602378 0.016617432349249728 -3330.2300173830245 -0.028678166811005212 -0.037568326495602378 -0.028678166811005212 -9999.5539093773587 -3330.1848803259418 0.0096755209829075817 -0.03722189645486651 0.0096755209829075817 -3330.2128436590065 -0.029145978369342629 -0.03722189645486651 -0.029145978369342629 -9999.5465520640828 -3330.2242438595658 0.010618800328693556 0.012510766206105473 0.010618800328693556 -3330.1925644573403 -0.022364640637533739 0.012510766206105473 -0.022364640637533739 -9999.5529684506546 -3330.1199907353985 0.031830486915658596 0.019608254320701235 0.031830486915658596 -3330.1621675153328 -0.012912014869471022 0.019608254320701235 -0.012912014869471022 -9999.5098252595053 -3330.1894932337909 0.017165297214480693 -0.0021384235549248842 0.017165297214480693 -3330.1910216689084 -0.017331022227153881 -0.0021384235549248842 -0.017331022227153881 -9999.5438950971002 -3330.1937466959134 0.02986035077293768 -0.0017604722145279084 0.02986035077293768 -3330.2120394688955 -0.012473095481254859 -0.0017604722145279084 -0.012473095481254859 -9999.5502129126253 -3330.1664788432172 0.026283827397609705 -0.034231747300509596 0.026283827397609705 -3330.1642937989091 -0.043190471980778966 -0.034231747300509596 -0.043190471980778966 -9999.5314595319578 -3330.1621955494393 0.033036968810708944 -0.04437012138623686 0.033036968810708944 -3330.1494686469287 -0.05263195204679505 -0.04437012138623686 -0.05263195204679505 -9999.5102771463644 -3330.1961429646708 0.0093459626226117809 -0.023304307422222337 0.0093459626226117809 -3330.1931929802795 -0.030446049539023079 -0.023304307422222337 -0.030446049539023079 -9999.5574298076208 -3330.19091984839 0.013998386229919333 -0.057565370918382541 0.013998386229919333 -3330.2255261668033 -0.095334747336892178 -0.057565370918382541 -0.095334747336892178 -9999.5528778752196 -3330.1927312995667 0.018931911431329537 -0.061645709563890705 0.018931911431329537 -3330.2371232458718 -0.091238172907537773 -0.061645709563890705 -0.091238172907537773 -9999.5398247336343 -3330.1556211068182 0.0031603846619998738 -0.04128413881699089 0.0031603846619998738 -3330.1677582585398 -0.03118367986269277 -0.04128413881699089 -0.03118367986269277 -9999.4103007802696 -3330.1942196606233 -0.01106613989534444 -0.044986740682361415 -0.01106613989534444 -3330.1845616489354 -0.026888234047873993 -0.044986740682361415 -0.026888234047873993 -9999.4241512663211 -3330.2304866743871 0.011540631204236207 -0.092160339530892088 0.011540631204236207 -3330.2152105117384 -0.021133304860541102 -0.092160339530892088 -0.021133304860541102 -9999.5101658556232 -3330.2206156093453 0.030499228926406073 -0.084760015236497566 0.030499228926406073 -3330.2448319665309 -0.050571981619214057 -0.084760015236497566 -0.050571981619214057 -9999.5651282653926 -3330.1637454025586 0.0076946094620532184 -0.044471858693214017 0.0076946094620532184 -3330.1739394849192 -0.025936648264178075 -0.044471858693214017 -0.025936648264178075 -9999.413877160805 -3330.2975101473221 0.083030936952977613 -0.23530030010806513 0.083030936952977613 -3330.27615279773 -0.035240996894572163 -0.23530030010806513 -0.035240996894572163 -9999.5781304597658 -3330.188284155287 -0.0077788229380140739 -0.094930346571345581 -0.0077788229380140739 -3330.1884204307626 -0.08549677103110298 -0.094930346571345581 -0.08549677103110298 -9999.3047374748276 -3330.1253335921037 0.030499228926405962 -0.092253360441645782 0.030499228926405962 -3330.1495499492903 -0.080549264650471741 -0.092253360441645782 -0.080549264650471741 -9999.2792822136653 -3330.2420689413229 0.0067547106756831246 -0.089313674099685159 0.0067547106756831246 -3330.2635152255707 -0.15209675334972417 -0.089313674099685159 -0.15209675334972417 -9999.6462429105741 -3330.2374823298369 0.033036968810708944 -0.056390553441815428 0.033036968810708944 -3330.2247554273263 -0.073707641327928286 -0.056390553441815428 -0.073707641327928286 -9999.7361374875618 -3330.2024502520608 0.032039383170000726 -0.13615536401357531 0.032039383170000726 -3330.2124048448641 -0.256775135801945 -0.13615536401357531 -0.256775135801945 -9999.6235606430855 -3330.1040113919826 0.018931911431329655 -0.070240947123238584 0.018931911431329655 -3330.1484033382876 -0.11678200550966267 -0.070240947123238584 -0.11678200550966267 -9999.2736650108818 -3330.2579607988828 0.010180973359355416 0.0088025281329464633 0.010180973359355416 -3330.3474800858421 0.031009703001473099 0.0088025281329464633 0.031009703001473099 -9999.6712070900321 -3330.2086035960156 0.043303879260028301 0.0039824228850875443 0.043303879260028301 -3330.2179714423846 -0.030944617254135665 0.0039824228850875443 -0.030944617254135665 -9999.6264906284523 -3330.0919075132279 0.093363086381553217 0.043179721542401239 0.093363086381553217 -3330.1170097279446 0.0058436091426301573 0.043179721542401239 0.0058436091426301573 -9999.5378802090308 -3330.1365456597869 0.043283193878431714 0.1048304341675248 0.043283193878431714 -3330.2018046745879 -0.065597073477874801 0.1048304341675248 -0.065597073477874801 -9999.6044344524453 -3330.1481746614745 0.010416782102343314 -0.041389248486666474 0.010416782102343314 -3330.3972712184186 -0.057028165980227641 -0.041389248486666474 -0.057028165980227641 -9999.7178993973503 -3330.2354602943406 0.038975321935548785 0.0173580137470708 0.038975321935548785 -3330.246552266095 0.00056122625937859993 0.0173580137470708 0.00056122625937859993 -9999.7020410674886 -3329.9013664207405 0.017609948148241263 -0.22782875175835215 0.017609948148241263 -3330.133625896925 -0.035762542314841994 -0.22782875175835215 -0.035762542314841994 -9999.4434628029194 -3330.2184199041503 0.026608178272724103 -0.048792954396049026 0.026608178272724103 -3330.2790202620263 -0.047030363332396519 -0.048792954396049026 -0.047030363332396519 -9999.7058979689245 -3330.2413307568577 -0.0088065754632400371 0.075862611377033318 -0.0088065754632400371 -3330.2322634917673 0.047859066204182454 0.075862611377033318 0.047859066204182454 -9999.6608732233435 -3330.2063881679514 0.018525769548914717 0.020459102568565868 0.018525769548914717 -3330.2582870890074 0.020010680623272492 0.020459102568565868 0.020010680623272492 -9999.6586434754281 -3330.360138664837 -0.068945691260517125 0.097439554678203422 -0.068945691260517125 -3330.2958526393513 0.081567432883673519 0.097439554678203422 0.081567432883673519 -9999.6214766019402 -3330.1569625436287 0.052833289214581095 0.034404843232550775 0.052833289214581095 -3330.3804818838616 -0.016485603142427863 0.034404843232550775 -0.016485603142427863 -9999.7158990342505 -3330.1900559775349 0.028153279007438095 0.037586065018331283 0.028153279007438095 -3330.2174177980769 0.048722135077696294 0.037586065018331283 0.048722135077696294 -9999.6443431050902 -3330.2075883099815 -0.01036480886133824 0.049100940521384473 -0.01036480886133824 -3330.2032626715381 0.037843179937226523 0.049100940521384473 0.037843179937226523 -9999.5601915212719 -3329.9670097894877 0.14967421054534805 0.17485642736937734 0.14967421054534805 -3330.2205645305403 0.18458993487001862 0.17485642736937734 0.18458993487001862 -9999.3835063841107 -3330.197291702827 0.003267164637234185 0.013903123543059337 0.003267164637234185 -3330.2004652557553 -0.00075906146685156273 0.013903123543059337 -0.00075906146685156273 -9999.5276937213821 -3330.1803818015487 -0.0088065754632400371 0.030230227439915325 -0.0088065754632400371 -3330.1713145364574 -0.017502161352240364 0.030230227439915325 -0.017502161352240364 -9999.4780263574175 -3330.1657865955385 -0.010364808861338226 0.046993971451229299 -0.010364808861338226 -3330.1614609570952 -0.018841973270355084 0.046993971451229299 -0.018841973270355084 -9999.4347863779512 -3330.2188787104915 -0.018831971099017242 0.018098866448781337 -0.018831971099017242 -3330.1789000449317 -0.028475473393882567 0.018098866448781337 -0.028475473393882567 -9999.4895469617732 -3330.1756038462554 0.0074146715191498735 -0.027503659082867671 0.0074146715191498735 -3330.2036998913973 -0.013119964944053208 -0.027503659082867671 -0.013119964944053208 -9999.5285101391819 -3330.1946371277791 0.0045824109276288993 0.0078293632941495162 0.0045824109276288993 -3330.201492652086 -0.00011093362991232425 0.0078293632941495162 -0.00011093362991232425 -9999.5327166497336 -3330.1682467306127 0.018525769548914717 -0.022286502586212009 0.018525769548914717 -3330.2201456516686 -0.026843977182579692 -0.022286502586212009 -0.026843977182579692 -9999.5442191634174 -3330.1747173457134 0.008027961672258721 -0.019377562890440458 0.008027961672258721 -3330.1950689400655 0.00050253475922090729 -0.019377562890440458 0.00050253475922090729 -9999.5261307762157 -3330.144367905752 0.02815327900743763 0.0049323321400152054 0.02815327900743763 -3330.1717297262949 0.0064754544891911792 0.0049323321400152054 0.0064754544891911792 -9999.5072788897487 -3330.1832686773596 0.010392259821885075 -0.011386272912204731 0.010392259821885075 -3330.2067242914472 -0.0085709501527162502 -0.011386272912204731 -0.0085709501527162502 -9999.544619310047 -3330.1409678397813 0.023675311508653221 0.021488414036866743 0.023675311508653221 -3330.1703286080574 0.0061021439305477543 0.021488414036866743 0.0061021439305477543 -9999.5060785936912 -3330.1719666411682 0.043303879260028363 0.0094076919220924538 0.043303879260028363 -3330.1813344875372 -0.010281622548063751 0.0094076919220924538 -0.010281622548063751 -9999.5165797639092 -3330.1741469160806 0.038975321935548493 0.010294246461853618 0.038975321935548493 -3330.185238887836 0.001113540200094576 0.010294246461853618 0.001113540200094576 -9999.5181009327098 -3330.2238557095279 0.016751315765553443 0.023135672276112018 0.016751315765553443 -3330.2276709892103 -0.0022066856636229204 0.023135672276112018 -0.0022066856636229204 -9999.5411361564147 -3330.2470678845984 -0.041108291644994521 0.047685192326753167 -0.041108291644994521 -3330.2200882389043 -0.03863451646611793 0.047685192326753167 -0.03863451646611793 -9999.4697635206649 -3330.1851946669012 0.0094026317399142079 0.02443798726994828 0.0094026317399142079 -3330.1865223392288 -0.025782904507650528 0.02443798726994828 -0.025782904507650528 -9999.488124888936 -3330.169202190169 -0.0072422547646770613 0.04855639900370079 -0.0072422547646770613 -3330.1697818075045 -0.037655868487490807 0.04855639900370079 -0.037655868487490807 -9999.4377204892116 -3330.2120002253268 0.023841094962174125 0.013764402395963771 0.023841094962174125 -3330.2314619713434 0.00091134242575208191 0.013764402395963771 0.00091134242575208191 -9999.5391200308986 -3330.1370588151512 0.27774456423524441 0.12336512858746573 0.27774456423524441 -3329.9128134032189 0.19354824039510277 0.12336512858746573 0.19354824039510277 -9999.2019584229529 -3330.1784390611219 -0.037531489569521098 0.046449813786239247 -0.037531489569521098 -3330.1326027703799 0.069766593278927758 0.046449813786239247 0.069766593278927758 -9999.53523923377 -3330.1773380920258 -0.0072422547646769919 0.03197325132032347 -0.0072422547646769919 -3330.1779177093613 0.035980646100142621 0.03197325132032347 0.035980646100142621 -9999.4621281947802 -3330.3628998113791 0.051009977646568255 0.11103119624522151 0.051009977646568255 -3330.1882264127626 0.045754532791761449 0.11103119624522151 0.045754532791761449 -9999.6234324547731 -3330.2018796146076 0.016751315765553554 0.0072694163554842817 0.016751315765553554 -3330.20569489429 0.044200156615261221 0.0072694163554842817 0.044200156615261221 -9999.4752078716592 -3330.3954517998709 0.076686346364436331 0.093991759385517071 0.076686346364436331 -3330.4003019523834 -0.01156155609714915 0.093991759385517071 -0.01156155609714915 -9999.6845893368009 -3330.2115733016599 0.0030418356855992368 0.016253918842267012 0.0030418356855992368 -3330.199733084406 0.074421609777346021 0.016253918842267012 0.074421609777346021 -9999.4761408409504 -3330.1793399771414 -0.019910005051347879 -0.032937307557403983 -0.019910005051347879 -3330.2011532964079 0.065507856792464736 -0.032937307557403983 0.065507856792464736 -9999.4684375628203 -3330.1877982466394 -0.013485149017746778 -0.00039713197656965349 -0.013485149017746778 -3330.1934313082447 -0.00038180515002750326 -0.00039713197656965349 -0.00038180515002750326 -9999.4686216331538 -3330.4913926489317 -0.017128070238118798 -0.11784884055396105 -0.017128070238118798 -3329.8369902929899 0.21216293459656299 -0.11784884055396105 0.21216293459656299 -9999.4041817413854 -3330.202730955878 -0.0162727171098348 0.0065821675616462016 -0.0162727171098348 -3330.2551186216515 -0.021432605964946561 0.0065821675616462016 -0.021432605964946561 -9999.5235694345174 -3330.2021153649202 -0.013485149017746778 0.031103745559448726 -0.013485149017746778 -3330.2077484265246 -0.071085641195168137 0.031103745559448726 -0.071085641195168137 -9999.5115729879944 -3330.2054202030595 0.0025964962541851211 0.02345519404480001 0.0025964962541851211 -3330.1892978608721 -0.026886900413956027 0.02345519404480001 -0.026886900413956027 -9999.4938751533846 -3330.2005486121398 -0.00033482905564219401 0.0080908498057397082 -0.00033482905564219401 -3330.1824202908228 0.0042239165823048097 0.0080908498057397082 0.0042239165823048097 -9999.4909378631419 -3330.1974706873971 -0.0021947142398269781 0.013196111847719294 -0.0021947142398269781 -3330.1823938189373 0.0051490214918885613 0.013196111847719294 0.0051490214918885613 -9999.4901617639844 -3330.1903549796843 0.0076666794426726304 0.0058400050875206944 0.0076666794426726304 -3330.1861159408618 -0.019594945826611365 0.0058400050875206944 -0.019594945826611365 -9999.4893133675396 -3330.2321436700822 0.0019023770856353983 0.037438240142364521 0.0019023770856353983 -3330.1993812490618 -0.010356144350225804 0.037438240142364521 -0.010356144350225804 -9999.547166926608 -3330.2407018858412 -0.0020473208894197237 0.04029604832885525 -0.0020473208894197237 -3330.2205073126188 -0.00074324520392110571 0.04029604832885525 -0.00074324520392110571 -9999.5545879964375 -3330.2110937061971 0.0030418356855990147 0.050621152055100538 0.0030418356855990147 -3330.199253488945 0.016233660035140929 0.050621152055100538 0.016233660035140929 -9999.4747020545619 -3330.1788603816804 -0.019910005051348212 0.0014299256563390372 -0.019910005051348212 -3330.2006737009469 0.0073199070466216654 0.0014299256563390372 0.0073199070466216654 -9999.4669987764319 -3330.1838725086054 -0.0049191464093476522 0.043477317347424105 -0.0049191464093476522 -3330.1946307581966 0.023377494746455341 0.043477317347424105 0.023377494746455341 -9999.466741072476 -3330.2405763595016 -0.21928664030179768 -0.073210946868130122 -0.21928664030179768 -3329.9269482590189 0.21289208821326611 -0.073210946868130122 0.21289208821326611 -9999.2614654827157 -3329.8255079756855 0.11341733256045194 0.1215588982704503 0.11341733256045194 -3330.0119173686971 0.027001874552297522 0.1215588982704503 0.027001874552297522 -9999.4450072348336 -3330.2409903131238 -0.0088218152456430721 0.069403362540924718 -0.0088218152456430721 -3330.2127307926303 0.013026840771999559 0.069403362540924718 0.013026840771999559 -9999.5990811751763 -3330.1872274306534 0.011085088667922793 -0.0089730080399021972 0.011085088667922793 -3330.2116586549482 -0.029467044376360718 -0.0089730080399021972 -0.029467044376360718 -9999.6806747136325 -3330.2243208084301 -0.010330783067587612 0.0031125748027989175 -0.010330783067587612 -3330.207990378768 -0.0085342007872100112 0.0031125748027989175 -0.0085342007872100112 -9999.6890309890296 -3330.2157181576677 0.024311919898797552 0.0072816380125004798 0.024311919898797552 -3330.2327140876632 -0.045338899021771795 0.0072816380125004798 -0.045338899021771795 -9999.7326861096044 -3330.1989051087485 0.013493946604149043 0.0040312712808372453 0.013493946604149043 -3330.2272579120618 -0.039068791938916547 0.0040312712808372453 -0.039068791938916547 -9999.727118803472 -3330.2108833292159 0.025416907367955099 -0.077062139996996848 0.025416907367955099 -3330.1901449354909 -0.099261189617209311 -0.077062139996996848 -0.099261189617209311 -9999.6867900067737 -3330.1948568909165 -0.0011527260205186352 -0.066748038698278833 -0.0011527260205186352 -3330.2970193379078 -0.052877380436257226 -0.066748038698278833 -0.052877380436257226 -9999.7435471054778 -3330.2271192741973 0.014790365030550978 -0.047487222393101547 0.014790365030550978 -3330.2276428890309 -0.058289568554755533 -0.047487222393101547 -0.058289568554755533 -9999.700223481399 -3330.0769525010746 0.059951267093366178 -0.055809054922065116 0.059951267093366178 -3330.1894483951592 -0.037723055946116801 -0.055809054922065116 -0.037723055946116801 -9999.6871782723283 -3329.8833854063114 -0.38816405267751497 -0.2361606668218883 -0.38816405267751497 -3330.0614437980421 0.10719309171508939 -0.2361606668218883 0.10719309171508939 -9999.4203405487169 -3330.2507983234691 0.0043137487580122702 -0.024612163952042465 0.0043137487580122702 -3330.1999303501989 -0.020437773502635537 -0.024612163952042465 -0.020437773502635537 -9999.693635360647 -3330.2342170833399 0.015175519877316468 -0.043505888563231565 0.015175519877316468 -3330.1658564289382 -0.064423499892200198 -0.043505888563231565 -0.064423499892200198 -9999.686551318664 -3330.164224121062 0.054297387696497612 -0.033920610398126883 0.054297387696497612 -3330.0224930011682 -0.036560475828082417 -0.033920610398126883 -0.036560475828082417 -9999.6276324727878 -3330.2014284186862 -0.0071570971180490162 0.0060456211340351729 -0.0071570971180490162 -3330.1996197926401 0.0021547227916016709 0.0060456211340351729 0.0021547227916016709 -9999.5567807178777 -3330.1860986687334 0.015175519877316468 0.016688587176759029 0.015175519877316468 -3330.1177380143308 0.0019075462664659426 0.016688587176759029 0.0019075462664659426 -9999.542196074839 -3330.1685788979703 0.011808582646201549 -0.00066547148890094832 0.011808582646201549 -3330.1808216594509 -0.0094692306993238162 -0.00066547148890094832 -0.0094692306993238162 -9999.5438688043978 -3330.1814343477854 0.0031181227003789225 -0.0025564819006831385 0.0031181227003789225 -3330.1867187639909 -0.0059579549624686479 -0.0025564819006831385 -0.0059579549624686479 -9999.5430647723842 -3330.204911808205 0.0043137487580122702 0.028416940502211219 0.0043137487580122702 -3330.154043834933 0.022221650291612605 0.028416940502211219 0.022221650291612605 -9999.5559758148556 -3330.219293060356 0.026769643260421638 0.019516284351993818 0.026769643260421638 -3330.1849116551657 0.014422546093555866 0.019516284351993818 0.014422546093555866 -9999.5472207580278 -3330.1994013021649 0.0038476684532848804 -0.0083606629450514447 0.0038476684532848804 -3330.1886632773949 -0.012626280375116039 -0.0083606629450514447 -0.012626280375116039 -9999.5571119662745 -3330.192390714652 0.0074145690960650823 -0.022455660578998504 0.0074145690960650823 -3330.1829473693215 -0.032152789615793154 -0.022455660578998504 -0.032152789615793154 -9999.5539303423793 -3330.1492145918874 0.025416907367955099 -0.041534487128956243 0.025416907367955099 -3330.1284761981642 -0.058334784348062385 -0.041534487128956243 -0.058334784348062385 -9999.5017837947817 -3330.1846456071216 0.0045622064724428757 -0.017341308695904445 0.0045622064724428757 -3330.1793666927333 -0.038947769258811604 -0.017341308695904445 -0.038947769258811604 -9999.5420295694057 -3330.1845703148338 0.0044021453381355435 0.0017181431048811646 0.0044021453381355435 -3330.1813394226847 -0.012543751930934377 0.0017181431048811646 -0.012543751930934377 -9999.5425039288202 -3330.1751135639788 0.0147903650305512 -0.00075269452281645499 0.0147903650305512 -3330.1756371788124 -0.0093348485788737889 -0.00075269452281645499 -0.0093348485788737889 -9999.5442063507435 -3330.1874802779948 0.011732945375360293 0.0087637521501164883 0.011732945375360293 -3330.1889053135328 -0.016158328362507746 0.0087637521501164883 -0.016158328362507746 -9999.5541922192679 -3330.1432012170881 0.024311919898797552 0.035128521489241393 0.024311919898797552 -3330.1601971470827 -0.018244944808429864 0.035128521489241393 -0.018244944808429864 -9999.5151352878675 -3330.1793322784015 0.0066823066981954726 0.007113164027032326 0.0066823066981954726 -3330.1821526485382 -0.012974267883691937 0.007113164027032326 -0.012974267883691937 -9999.5504670531191 -3330.1263881681716 0.013493946604149598 0.031878154759397148 0.013493946604149598 -3330.154740971484 -0.011974837729212595 0.031878154759397148 -0.011974837729212595 -9999.5095679817387 -3330.159261676079 0.017443965509986281 0.014378250318259234 0.017443965509986281 -3330.1705195070899 -0.0096751250783881915 0.014378250318259234 -0.0096751250783881915 -9999.5389639608366 -3330.2022609964333 -0.0073817037300867305 0.017417567407392198 -0.0073817037300867305 -3330.1992307625787 -0.0044108734464316512 0.017417567407392198 -0.0044108734464316512 -9999.5568916047996 -3330.1333139854196 0.011085088667923237 0.046550592396670254 0.011085088667923237 -3330.1577452097154 -0.0011857189329020912 0.046550592396670254 -0.0011857189329020912 -9999.5189343779311 -3330.1655409499799 -0.0091109225608747568 0.037472578917004284 -0.0091109225608747568 -3330.1856113685444 -0.0022850108216516674 0.037472578917004284 -0.0022850108216516674 -9999.5270737764549 -3330.2251977852884 -0.008821815245642961 0.079756576800718904 -0.008821815245642961 -3330.1969382647949 0.0077117978380556451 0.079756576800718904 0.0077117978380556451 -9999.5517035916673 -3330.2044362317483 -0.0063641559882199328 0.031079994467290817 -0.0063641559882199328 -3330.1940225551407 -0.0039978986696951324 0.031079994467290817 -0.0039978986696951324 -9999.5389003935452 -3330.211715046169 -0.0073817037300867305 0.0056721409418969415 -0.0073817037300867305 -3330.2086848123145 -0.00072688152704358799 0.0056721409418969415 -0.00072688152704358799 -9999.585253754005 -3330.2207834687724 -0.0063641559882201548 0.014714991568325786 -0.0063641559882201548 -3330.2103697921648 0.0016961430173978442 0.014714991568325786 0.0016961430173978442 -9999.5879421046193 -3330.1978010109979 0.0066823066981958057 0.0076081335246271919 0.0066823066981958057 -3330.2006213811346 -0.0067394030374998692 0.0076081335246271919 -0.0067394030374998692 -9999.6058732508973 -3330.2059490105912 0.011732945375360293 0.0092587216422543861 0.011732945375360293 -3330.2073740461292 -0.0099234635126776993 0.0092587216422543861 -0.0099234635126776993 -9999.6095984170461 -3330.2043697722675 0.0045622064724428757 -0.023448458701750496 0.0045622064724428757 -3330.1990908578791 -0.034460899150872137 -0.023448458701750496 -0.034460899150872137 -9999.6012020648413 -3330.2143606569043 0.0044021453381355435 -0.0023501015075453324 0.0044021453381355435 -3330.2111297647552 -0.0062674322216480505 -0.0023501015075453324 -0.0062674322216480505 -9999.6318749550264 -3330.1997847269067 0.0031181227003789225 -0.01083595118689118 0.0031181227003789225 -3330.2050691431123 -0.0024654247308717459 -0.01083595118689118 -0.0024654247308717459 -9999.5981159097573 -3330.217581929568 -0.0071570971180490162 -0.0065067834384535672 -0.0071570971180490162 -3330.2157733035219 0.005032913828472374 -0.0065067834384535672 0.005032913828472374 -9999.6052412505232 -3330.2404426784251 0.0017274218585339174 -0.011053710717533249 0.0017274218585339174 -3330.2216158777701 -0.039677740060142241 -0.011053710717533249 -0.039677740060142241 -9999.6710732245338 -3330.2195840861004 0.0068289454526171411 0.0048352929079555906 0.0068289454526171411 -3330.2078384327069 -0.017337771434540628 0.0048352929079555906 -0.017337771434540628 -9999.6323579793097 -3330.2334967125917 -0.001203513256894384 -0.00092256137213553302 -0.001203513256894384 -3330.2151325557043 -0.027310667672281852 -0.00092256137213553302 -0.027310667672281852 -9999.6376596666887 -3330.2136588169924 -0.0076396127806761527 -0.015210462486720644 -0.0076396127806761527 -3330.2082381007331 0.011329695182212163 -0.015210462486720644 0.011329695182212163 -9999.5856280188164 -3330.2471744936993 0.0056497231377017343 -0.026067434435390169 0.0056497231377017343 -3330.2330129519887 -0.016546509566978784 -0.026067434435390169 -0.016546509566978784 -9999.6756054469079 -3330.222191310284 0.0034835902484550152 -0.01024768891511485 0.0034835902484550152 -3330.2208388426207 -0.017704933965433156 -0.01024768891511485 -0.017704933965433156 -9999.652346709212 -3330.2453872878395 0.0059986165317231777 -0.0092330479965312406 0.0059986165317231777 -3330.2373024137287 0.0067750127750514366 -0.0092330479965312406 0.0067750127750514366 -9999.6762310108752 -3330.2300941774338 -0.00021591032453383008 -0.0010600130372040439 -0.00021591032453383008 -3330.2239867390654 -0.0049767844029702246 -0.0010600130372040439 -0.0049767844029702246 -9999.6551094001115 -3330.2221199599062 0.0073948043933602658 -0.009731730715429876 0.0073948043933602658 -3330.213892210566 -0.0061014283780878031 -0.009731730715429876 -0.0061014283780878031 -9999.6345053922269 -3330.2298863067917 0.0066259941903441533 -0.016087343683466315 0.0066259941903441533 -3330.2235888635769 -0.017573607255030765 -0.016087343683466315 -0.017573607255030765 -9999.6549579635757 -3330.2343410017947 0.0091814508229204339 -0.02447573274912429 0.0091814508229204339 -3330.2316852144395 -0.0013920184810558567 -0.02447573274912429 -0.0013920184810558567 -9999.6580957250408 -3330.227653712589 0.0020686071977560339 0.0071994228019320872 0.0020686071977560339 -3330.2138247135499 -0.012895183849650493 0.0071994228019320872 -0.012895183849650493 -9999.6166372594016 -3330.2041422595485 0.0030211851343378004 0.0034784562940330943 0.0030211851343378004 -3330.2068275032652 -0.013892213832150446 0.0034784562940330943 -0.013892213832150446 -9999.6090100935689 -3330.2315545255733 0.0019477553538735926 -0.016713308372345637 0.0019477553538735926 -3330.2205907130447 -0.018193875635915902 -0.016713308372345637 -0.018193875635915902 -9999.6385386592665 -3330.2167286428376 -0.0050250908224842572 0.0085457076775128371 -0.0050250908224842572 -3330.2039012254099 0.0091406355531944428 0.0085457076775128371 0.0091406355531944428 -9999.5654616897518 -3330.2235141215169 -0.0021947142398269781 0.0045686714202020084 -0.0021947142398269781 -3330.2084372530553 0.013117671818690724 0.0045686714202020084 0.013117671818690724 -9999.5682920663312 -3330.226592046256 -0.00033482905564197196 -0.00053659061813959852 -0.00033482905564197196 -3330.2084637249427 0.012192566912744951 -0.00053659061813959852 0.012192566912744951 -9999.5690681654887 -3330.2340493050342 0.0048028052635172847 0.0026848232027987251 0.0048028052635172847 -3330.2183659133661 -0.0083805842459696578 0.0026848232027987251 -0.0083805842459696578 -9999.6193714574692 -3330.2476215916977 0.0038640439860391229 0.018636048011103412 0.0038640439860391229 -3330.2349417706027 -0.025815623801463516 0.018636048011103412 -0.025815623801463516 -9999.6692874797081 -3330.2367235595029 0.0053859654674346391 0.0038909198810870294 0.0053859654674346391 -3330.2308490709402 -0.0043235989887762116 0.0038909198810870294 -0.0043235989887762116 -9999.623160810479 -3330.2476591969189 0.0069570682368322867 0.029659671963599976 0.0069570682368322867 -3330.2451011032899 0.01126488627960498 0.029659671963599976 0.01126488627960498 -9999.6718367141875 -3330.2427676306343 0.0081855576066436342 -0.036283946872572415 0.0081855576066436342 -3330.2418784147339 -0.015387817908049328 -0.036283946872572415 -0.015387817908049328 -9999.6698081504801 -3330.2396528367026 0.0067437431916224089 -0.027045989903854206 0.0067437431916224089 -3330.2311137620218 -0.034093490240593383 -0.027045989903854206 -0.034093490240593383 -9999.6663382888146 -3330.2357877575505 -0.0012157612532706086 0.00462387068910175 -0.0012157612532706086 -3330.2173904005231 0.00095228893042076379 0.00462387068910175 0.00095228893042076379 -9999.600158105648 -3330.2420873745505 0.0025964962541851211 0.0142310261107923 0.0025964962541851211 -3330.2259650323613 -0.018500962672987953 0.0142310261107923 -0.018500962672987953 -9999.6038766678539 
</DataArray>
</CellData>
</Piece>
</UnstructuredGrid>
</VTKFile>
