<?xml version="1.0"?>
<VTKFile type="UnstructuredGrid" version="0.1" byte_order="LittleEndian">
<UnstructuredGrid>
<Piece NumberOfPoints="2160" NumberOfCells="540">
<Points>
<DataArray type="Float64" NumberOfComponents="3" format="ascii">
-4.3301270160527148 -2.500000004970083 -12 -2.9547160992544761 -1.820741508163664 -15 -2.9547160992544761 -1.820741508163664 -12 -5 -1.397247784140632e-08 -12 -4.3301270160527148 -2.500000004970083 -12 -2.9547160992544761 -1.820741508163664 -15 -2.9547160992544761 -1.820741508163664 -12 -2.5000000000000022 -4.3301270189221919 -12 -4.3301270160527148 -2.500000004970083 -12 -4.3301270160527148 -2.500000004970083 -15 -2.9547160992544761 -1.820741508163664 -15 -2.5000000000000022 -4.3301270189221919 -12 -4.3301270160527148 -2.500000004970083 -12 -4.3301270160527148 -2.500000004970083 -15 -2.9547160992544761 -1.820741508163664 -15 -5 -1.397247784140632e-08 -15 -2.9547160992544761 -1.820741508163664 -15 -0.66987297914647026 -2.499999999706382 -15 -0.66987297914647026 -2.499999999706382 -12 -2.2735805010731909 0.22641949675281539 -12 -2.9547160992544761 -1.820741508163664 -15 -2.5000000000000022 -4.3301270189221919 -12 -0.66987297914647026 -2.499999999706382 -15 -0.66987297914647026 -2.499999999706382 -12 -2.9547160992544761 -1.820741508163664 -15 -2.9547160992544761 -1.820741508163664 -12 -0.66987297914647026 -2.499999999706382 -12 -2.2735805010731909 0.22641949675281539 -12 -2.9547160992544761 -1.820741508163664 -15 -2.9547160992544761 -1.820741508163664 -12 -2.5000000000000022 -4.3301270189221919 -12 -0.66987297914647026 -2.499999999706382 -12 -2.5000000000000022 -4.3301270189221919 -12 -2.5000000000000022 -4.3301270189221919 -15 -0.66987297914647026 -2.499999999706382 -15 6.9142305214597846e-09 -5 -12 -2.9547160992544761 -1.820741508163664 -15 -2.5000000000000022 -4.3301270189221919 -12 -2.5000000000000022 -4.3301270189221919 -15 -0.66987297914647026 -2.499999999706382 -15 -4.3301270160527148 -2.500000004970083 -15 -2.9547160992544761 -1.820741508163664 -15 -2.5000000000000022 -4.3301270189221919 -12 -2.5000000000000022 -4.3301270189221919 -15 -2.5000000000000022 -4.3301270189221919 -15 6.9142305214597846e-09 -5 -15 -0.66987297914647026 -2.499999999706382 -15 6.9142305214597846e-09 -5 -12 6.9142305214597846e-09 -5 -15 -0.66987297914647026 -2.499999999706382 -15 0.91506351643986317 -3.4150635091400758 -15 6.9142305214597846e-09 -5 -12 -0.66987297914647026 -2.499999999706382 -15 0.91506351643986317 -3.4150635091400758 -15 -0.66987297914647026 -2.499999999706382 -12 6.9142305214597846e-09 -5 -12 -0.66987297914647026 -2.499999999706382 -15 0.95458002071209891 -1.657898275923388 -15 -0.66987297914647026 -2.499999999706382 -12 0.20080558631870429 0.033909897404034287 -15 -0.66987297914647026 -2.499999999706382 -15 0.95458002071209891 -1.657898275923388 -15 0.91506351643986317 -3.4150635091400758 -15 -0.66987297914647026 -2.499999999706382 -12 0.95458002071209891 -1.657898275923388 -15 0.91506351643986317 -3.4150635091400758 -15 0.91506351643986317 -3.4150635091400758 -12 -0.66987297914647026 -2.499999999706382 -12 0.95458002071209891 -1.657898275923388 -15 2.217625015551433 -2.5696135239339939 -15 0.95458002071209891 -1.657898275923388 -12 2.3883545080289421 -0.94497882694672608 -12 0.95458002071209891 -1.657898275923388 -15 2.217625015551433 -2.5696135239339939 -15 2.3883545080289421 -0.94497882694672608 -12 2.3883545080289421 -0.94497882694672608 -15 0.95458002071209891 -1.657898275923388 -15 2.217625015551433 -2.5696135239339939 -15 0.91506351643986317 -3.4150635091400758 -12 0.95458002071209891 -1.657898275923388 -12 0.95458002071209891 -1.657898275923388 -15 2.217625015551433 -2.5696135239339939 -15 0.91506351643986317 -3.4150635091400758 -15 0.91506351643986317 -3.4150635091400758 -12 2.217625015551433 -2.5696135239339939 -15 0.91506351643986317 -3.4150635091400758 -15 2.500000010727558 -4.3301270127286351 -15 2.500000010727558 -4.3301270127286351 -12 6.9142305214597846e-09 -5 -15 0.91506351643986317 -3.4150635091400758 -15 6.9142305214597846e-09 -5 -12 2.500000010727558 -4.3301270127286351 -12 6.9142305214597846e-09 -5 -15 0.91506351643986317 -3.4150635091400758 -15 2.500000010727558 -4.3301270127286351 -15 2.500000010727558 -4.3301270127286351 -12 2.217625015551433 -2.5696135239339939 -15 0.91506351643986317 -3.4150635091400758 -15 0.91506351643986317 -3.4150635091400758 -12 2.500000010727558 -4.3301270127286351 -12 0.91506351643986317 -3.4150635091400758 -15 0.91506351643986317 -3.4150635091400758 -12 6.9142305214597846e-09 -5 -12 2.500000010727558 -4.3301270127286351 -12 2.217625015551433 -2.5696135239339939 -15 0.91506351643986317 -3.4150635091400758 -12 2.217625015551433 -2.5696135239339939 -12 2.500000010727558 -4.3301270127286351 -12 2.217625015551433 -2.5696135239339939 -15 2.217625015551433 -2.5696135239339939 -12 0.95458002071209891 -1.657898275923388 -12 2.3883545080289421 -0.94497882694672608 -12 2.217625015551433 -2.5696135239339939 -15 0.91506351643986317 -3.4150635091400758 -12 2.217625015551433 -2.5696135239339939 -12 0.95458002071209891 -1.657898275923388 -12 0.95458002071209891 -1.657898275923388 -15 0.91506351643986317 -3.4150635091400758 -12 0.95458002071209891 -1.657898275923388 -12 -0.66987297914647026 -2.499999999706382 -12 0.95458002071209891 -1.657898275923388 -15 0.95458002071209891 -1.657898275923388 -12 -0.66987297914647026 -2.499999999706382 -12 0.20080558631870429 0.033909897404034287 -12 0.91506351643986317 -3.4150635091400758 -15 0.91506351643986317 -3.4150635091400758 -12 -0.66987297914647026 -2.499999999706382 -12 6.9142305214597846e-09 -5 -12 -2.5000000000000022 -4.3301270189221919 -12 -0.66987297914647026 -2.499999999706382 -15 -0.66987297914647026 -2.499999999706382 -12 6.9142305214597846e-09 -5 -12 0.91506351643986317 -3.4150635091400758 -12 -0.66987297914647026 -2.499999999706382 -12 6.9142305214597846e-09 -5 -12 6.9142305214597846e-09 -5 -9 0.91506351643986317 -3.4150635091400758 -12 0.91506351643986317 -3.4150635091400758 -9 -0.66987297914647026 -2.499999999706382 -9 6.9142305214597846e-09 -5 -9 0.91506351643986317 -3.4150635091400758 -12 -0.66987297914647026 -2.499999999706382 -12 -0.66987297914647026 -2.499999999706382 -9 6.9142305214597846e-09 -5 -9 -0.66987297914647026 -2.499999999706382 -12 -0.66987297914647026 -2.499999999706382 -9 6.9142305214597846e-09 -5 -9 -2.5000000000000022 -4.3301270189221919 -9 -2.5000000000000022 -4.3301270189221919 -12 -0.66987297914647026 -2.499999999706382 -12 6.9142305214597846e-09 -5 -12 6.9142305214597846e-09 -5 -9 0.95458002071209891 -1.657898275923388 -12 -0.66987297914647026 -2.499999999706382 -12 -0.66987297914647026 -2.499999999706382 -9 0.20080558631870429 0.033909897404034287 -12 0.91506351643986317 -3.4150635091400758 -12 0.95458002071209891 -1.657898275923388 -12 0.91506351643986317 -3.4150635091400758 -9 -0.66987297914647026 -2.499999999706382 -9 0.95458002071209891 -1.657898275923388 -12 0.95458002071209891 -1.657898275923388 -9 -0.66987297914647026 -2.499999999706382 -9 0.20080558631870429 0.033909897404034287 -9 0.91506351643986317 -3.4150635091400758 -12 0.95458002071209891 -1.657898275923388 -12 -0.66987297914647026 -2.499999999706382 -12 -0.66987297914647026 -2.499999999706382 -9 0.95458002071209891 -1.657898275923388 -12 0.91506351643986317 -3.4150635091400758 -9 0.95458002071209891 -1.657898275923388 -9 -0.66987297914647026 -2.499999999706382 -9 2.217625015551433 -2.5696135239339939 -12 0.95458002071209891 -1.657898275923388 -9 2.217625015551433 -2.5696135239339939 -9 2.3883545080289421 -0.94497882694672608 -9 2.217625015551433 -2.5696135239339939 -12 0.95458002071209891 -1.657898275923388 -12 2.3883545080289421 -0.94497882694672608 -9 2.3883545080289421 -0.94497882694672608 -12 2.217625015551433 -2.5696135239339939 -12 0.95458002071209891 -1.657898275923388 -12 0.95458002071209891 -1.657898275923388 -9 2.3883545080289421 -0.94497882694672608 -9 2.217625015551433 -2.5696135239339939 -12 0.95458002071209891 -1.657898275923388 -12 0.91506351643986317 -3.4150635091400758 -9 0.95458002071209891 -1.657898275923388 -9 0.91506351643986317 -3.4150635091400758 -12 2.217625015551433 -2.5696135239339939 -12 0.95458002071209891 -1.657898275923388 -12 0.91506351643986317 -3.4150635091400758 -9 2.217625015551433 -2.5696135239339939 -12 0.91506351643986317 -3.4150635091400758 -9 0.95458002071209891 -1.657898275923388 -9 2.217625015551433 -2.5696135239339939 -9 0.91506351643986317 -3.4150635091400758 -12 6.9142305214597846e-09 -5 -12 2.500000010727558 -4.3301270127286351 -12 2.500000010727558 -4.3301270127286351 -9 0.91506351643986317 -3.4150635091400758 -12 0.91506351643986317 -3.4150635091400758 -9 6.9142305214597846e-09 -5 -9 2.500000010727558 -4.3301270127286351 -9 0.91506351643986317 -3.4150635091400758 -12 6.9142305214597846e-09 -5 -12 6.9142305214597846e-09 -5 -9 2.500000010727558 -4.3301270127286351 -9 0.91506351643986317 -3.4150635091400758 -12 2.217625015551433 -2.5696135239339939 -12 0.91506351643986317 -3.4150635091400758 -9 2.500000010727558 -4.3301270127286351 -9 0.91506351643986317 -3.4150635091400758 -12 2.217625015551433 -2.5696135239339939 -12 2.500000010727558 -4.3301270127286351 -12 2.500000010727558 -4.3301270127286351 -9 2.217625015551433 -2.5696135239339939 -12 0.91506351643986317 -3.4150635091400758 -9 2.217625015551433 -2.5696135239339939 -9 2.500000010727558 -4.3301270127286351 -9 0.91506351643986317 -3.4150635091400758 -9 6.9142305214597846e-09 -5 -9 2.500000010727558 -4.3301270127286351 -9 2.500000010727558 -4.3301270127286351 -6 0.91506351643986317 -3.4150635091400758 -9 2.217625015551433 -2.5696135239339939 -9 2.500000010727558 -4.3301270127286351 -9 2.500000010727558 -4.3301270127286351 -6 0.91506351643986317 -3.4150635091400758 -9 0.95458002071209891 -1.657898275923388 -9 2.217625015551433 -2.5696135239339939 -9 0.91506351643986317 -3.4150635091400758 -6 0.95458002071209891 -1.657898275923388 -9 2.217625015551433 -2.5696135239339939 -9 2.3883545080289421 -0.94497882694672608 -9 2.3883545080289421 -0.94497882694672608 -6 0.91506351643986317 -3.4150635091400758 -9 0.95458002071209891 -1.657898275923388 -9 -0.66987297914647026 -2.499999999706382 -9 -0.66987297914647026 -2.499999999706382 -6 0.95458002071209891 -1.657898275923388 -9 -0.66987297914647026 -2.499999999706382 -9 0.20080558631870429 0.033909897404034287 -9 -0.66987297914647026 -2.499999999706382 -6 -0.66987297914647026 -2.499999999706382 -9 6.9142305214597846e-09 -5 -9 -2.5000000000000022 -4.3301270189221919 -9 6.9142305214597846e-09 -5 -6 0.91506351643986317 -3.4150635091400758 -9 -0.66987297914647026 -2.499999999706382 -9 6.9142305214597846e-09 -5 -9 6.9142305214597846e-09 -5 -6 -0.66987297914647026 -2.499999999706382 -9 -2.5000000000000022 -4.3301270189221919 -9 -2.9547160992544761 -1.820741508163664 -9 -2.5000000000000022 -4.3301270189221919 -6 -2.5000000000000022 -4.3301270189221919 -9 -4.3301270160527148 -2.500000004970083 -9 -2.9547160992544761 -1.820741508163664 -9 -2.5000000000000022 -4.3301270189221919 -6 -2.5000000000000022 -4.3301270189221919 -12 -0.66987297914647026 -2.499999999706382 -12 6.9142305214597846e-09 -5 -9 -2.5000000000000022 -4.3301270189221919 -9 -2.9547160992544761 -1.820741508163664 -12 -2.5000000000000022 -4.3301270189221919 -12 -0.66987297914647026 -2.499999999706382 -12 -2.5000000000000022 -4.3301270189221919 -9 -4.3301270160527148 -2.500000004970083 -12 -2.9547160992544761 -1.820741508163664 -12 -2.5000000000000022 -4.3301270189221919 -12 -2.5000000000000022 -4.3301270189221919 -9 -2.9547160992544761 -1.820741508163664 -12 -0.66987297914647026 -2.499999999706382 -9 -2.9547160992544761 -1.820741508163664 -9 -2.2735805010731909 0.22641949675281539 -9 -2.9547160992544761 -1.820741508163664 -12 -0.66987297914647026 -2.499999999706382 -9 -2.5000000000000022 -4.3301270189221919 -9 -2.9547160992544761 -1.820741508163664 -9 -2.9547160992544761 -1.820741508163664 -12 -0.66987297914647026 -2.499999999706382 -12 -0.66987297914647026 -2.499999999706382 -9 -2.5000000000000022 -4.3301270189221919 -9 -2.9547160992544761 -1.820741508163664 -12 -0.66987297914647026 -2.499999999706382 -12 -0.66987297914647026 -2.499999999706382 -9 -2.2735805010731909 0.22641949675281539 -9 -2.9547160992544761 -1.820741508163664 -12 -2.5000000000000022 -4.3301270189221919 -9 -4.3301270160527148 -2.500000004970083 -9 -2.9547160992544761 -1.820741508163664 -9 -4.3301270160527148 -2.500000004970083 -12 -2.9547160992544761 -1.820741508163664 -12 -2.5000000000000022 -4.3301270189221919 -9 -4.3301270160527148 -2.500000004970083 -9 -2.9547160992544761 -1.820741508163664 -12 -4.3301270160527148 -2.500000004970083 -9 -2.9547160992544761 -1.820741508163664 -9 -5 -1.397247784140632e-08 -9 -4.3301270160527148 -2.500000004970083 -12 -2.9547160992544761 -1.820741508163664 -12 -4.3301270160527148 -2.500000004970083 -9 -5 -1.397247784140632e-08 -12 -4.3301270160527148 -2.500000004970083 -9 -2.9547160992544761 -1.820741508163664 -9 -5 -1.397247784140632e-08 -9 -4.3301270160527148 -2.500000004970083 -6 -0.66987297914647026 -2.499999999706382 -9 -2.2735805010731909 0.22641949675281539 -9 0.20080558631870429 0.033909897404034287 -9 -2.2735805010731909 0.22641949675281539 -6 -0.66987297914647026 -2.499999999706382 -9 -2.9547160992544761 -1.820741508163664 -9 -2.2735805010731909 0.22641949675281539 -9 -2.2735805010731909 0.22641949675281539 -6 -2.2735805010731909 0.22641949675281539 -9 -0.91506351183037493 1.5849364925866429 -9 0.20080558631870429 0.033909897404034287 -9 -2.2735805010731909 0.22641949675281539 -6 -2.9547160992544761 -1.820741508163664 -9 -2.2735805010731909 0.22641949675281539 -9 -5 -1.397247784140632e-08 -9 -5 -1.397247784140632e-08 -6 -2.9547160992544761 -1.820741508163664 -12 -2.9547160992544761 -1.820741508163664 -9 -2.2735805010731909 0.22641949675281539 -9 -5 -1.397247784140632e-08 -9 -2.9547160992544761 -1.820741508163664 -12 -5 -1.397247784140632e-08 -9 -2.2735805010731909 0.22641949675281539 -12 -5 -1.397247784140632e-08 -12 -2.9547160992544761 -1.820741508163664 -12 -2.2735805010731909 0.22641949675281539 -9 -5 -1.397247784140632e-08 -9 -2.2735805010731909 0.22641949675281539 -12 -2.9547160992544761 -1.820741508163664 -12 -4.3301270160527148 -2.500000004970083 -9 -5 -1.397247784140632e-08 -9 -5 -1.397247784140632e-08 -12 -2.9547160992544761 -1.820741508163664 -12 -0.66987297914647026 -2.499999999706382 -12 -2.2735805010731909 0.22641949675281539 -9 -2.2735805010731909 0.22641949675281539 -12 -2.2735805010731909 0.22641949675281539 -9 -0.91506351183037493 1.5849364925866429 -12 0.20080558631870429 0.033909897404034287 -12 -2.2735805010731909 0.22641949675281539 -12 -0.66987297914647026 -2.499999999706382 -12 -2.2735805010731909 0.22641949675281539 -9 0.20080558631870429 0.033909897404034287 -12 -2.2735805010731909 0.22641949675281539 -12 -2.2253246846922492 2.366533744740174 -9 -0.91506351183037493 1.5849364925866429 -9 -2.2253246846922492 2.366533744740174 -12 -1.107852388446384 3.1911857209629071 -9 -2.2735805010731909 0.22641949675281539 -9 -0.91506351183037493 1.5849364925866429 -12 -2.2253246846922492 2.366533744740174 -12 -2.2735805010731909 0.22641949675281539 -12 -0.91506351183037493 1.5849364925866429 -9 -0.91506351183037493 1.5849364925866429 -12 -2.2253246846922492 2.366533744740174 -12 -1.107852388446384 3.1911857209629071 -12 -2.2735805010731909 0.22641949675281539 -9 -2.2253246846922492 2.366533744740174 -9 -0.91506351183037493 1.5849364925866429 -9 -2.2253246846922492 2.366533744740174 -12 -2.2735805010731909 0.22641949675281539 -9 -0.91506351183037493 1.5849364925866429 -9 -0.91506351183037493 1.5849364925866429 -12 -2.2253246846922492 2.366533744740174 -12 -2.2735805010731909 0.22641949675281539 -9 -4.3301270221112951 2.4999999944763132 -9 -2.2253246846922492 2.366533744740174 -9 -2.2253246846922492 2.366533744740174 -12 -2.2735805010731909 0.22641949675281539 -9 -4.3301270221112951 2.4999999944763132 -9 -2.2253246846922492 2.366533744740174 -12 -2.2735805010731909 0.22641949675281539 -12 -5 -1.397247784140632e-08 -9 -4.3301270221112951 2.4999999944763132 -9 -2.2735805010731909 0.22641949675281539 -12 -4.3301270221112951 2.4999999944763132 -12 -5 -1.397247784140632e-08 -9 -2.2735805010731909 0.22641949675281539 -12 -5 -1.397247784140632e-08 -12 -4.3301270221112951 2.4999999944763132 -12 -2.2735805010731909 0.22641949675281539 -9 -5 -1.397247784140632e-08 -9 -4.3301270221112951 2.4999999944763132 -9 -2.2735805010731909 0.22641949675281539 -12 -4.3301270221112951 2.4999999944763132 -9 -2.2253246846922492 2.366533744740174 -12 -2.2735805010731909 0.22641949675281539 -12 -4.3301270221112951 2.4999999944763132 -12 -2.2735805010731909 0.22641949675281539 -9 -5 -1.397247784140632e-08 -9 -4.3301270221112951 2.4999999944763132 -9 -5 -1.397247784140632e-08 -6 -2.2735805010731909 0.22641949675281539 -9 -4.3301270221112951 2.4999999944763132 -9 -2.2253246846922492 2.366533744740174 -9 -4.3301270221112951 2.4999999944763132 -6 -2.2253246846922492 2.366533744740174 -9 -0.91506351183037493 1.5849364925866429 -9 -1.107852388446384 3.1911857209629071 -9 -0.91506351183037493 1.5849364925866429 -6 -2.2735805010731909 0.22641949675281539 -9 -2.2253246846922492 2.366533744740174 -9 -0.91506351183037493 1.5849364925866429 -9 -2.2735805010731909 0.22641949675281539 -6 -0.91506351183037493 1.5849364925866429 -9 0.20080558631870429 0.033909897404034287 -9 0.37580157663508379 2.5408650916807378 -9 0.20080558631870429 0.033909897404034287 -6 -0.91506351183037493 1.5849364925866429 -9 0.37580157663508379 2.5408650916807378 -9 -1.107852388446384 3.1911857209629071 -9 0.37580157663508379 2.5408650916807378 -6 0.20080558631870429 0.033909897404034287 -9 2.3883545080289421 -0.94497882694672608 -9 2.465848112410058 1.4099871989758821 -9 2.3883545080289421 -0.94497882694672608 -6 0.95458002071209891 -1.657898275923388 -9 0.20080558631870429 0.033909897404034287 -9 2.3883545080289421 -0.94497882694672608 -9 2.3883545080289421 -0.94497882694672608 -6 0.20080558631870429 0.033909897404034287 -9 2.465848112410058 1.4099871989758821 -9 0.37580157663508379 2.5408650916807378 -9 0.20080558631870429 0.033909897404034287 -6 0.20080558631870429 0.033909897404034287 -9 2.465848112410058 1.4099871989758821 -12 0.37580157663508379 2.5408650916807378 -9 0.37580157663508379 2.5408650916807378 -12 2.465848112410058 1.4099871989758821 -9 2.465848112410058 1.4099871989758821 -12 2.4999999879139869 4.3301270259000564 -9 0.37580157663508379 2.5408650916807378 -9 0.20080558631870429 0.033909897404034287 -9 2.465848112410058 1.4099871989758821 -9 2.465848112410058 1.4099871989758821 -12 0.37580157663508379 2.5408650916807378 -9 0.20080558631870429 0.033909897404034287 -9 0.20080558631870429 0.033909897404034287 -12 2.465848112410058 1.4099871989758821 -12 0.37580157663508379 2.5408650916807378 -12 0.95458002071209891 -1.657898275923388 -12 2.3883545080289421 -0.94497882694672608 -9 0.20080558631870429 0.033909897404034287 -12 2.3883545080289421 -0.94497882694672608 -12 0.95458002071209891 -1.657898275923388 -12 0.20080558631870429 0.033909897404034287 -9 2.3883545080289421 -0.94497882694672608 -9 0.20080558631870429 0.033909897404034287 -12 0.20080558631870429 0.033909897404034287 -9 2.3883545080289421 -0.94497882694672608 -9 2.465848112410058 1.4099871989758821 -9 2.465848112410058 1.4099871989758821 -12 2.3883545080289421 -0.94497882694672608 -9 0.20080558631870429 0.033909897404034287 -12 2.3883545080289421 -0.94497882694672608 -12 2.465848112410058 1.4099871989758821 -12 0.20080558631870429 0.033909897404034287 -9 2.3883545080289421 -0.94497882694672608 -9 0.20080558631870429 0.033909897404034287 -12 2.465848112410058 1.4099871989758821 -12 0.95458002071209891 -1.657898275923388 -12 0.95458002071209891 -1.657898275923388 -9 0.20080558631870429 0.033909897404034287 -9 2.3883545080289421 -0.94497882694672608 -9 -2.2735805010731909 0.22641949675281539 -9 0.20080558631870429 0.033909897404034287 -9 -0.91506351183037493 1.5849364925866429 -12 0.20080558631870429 0.033909897404034287 -12 -0.66987297914647026 -2.499999999706382 -12 -0.66987297914647026 -2.499999999706382 -9 -2.2735805010731909 0.22641949675281539 -9 0.20080558631870429 0.033909897404034287 -12 0.95458002071209891 -1.657898275923388 -12 -0.66987297914647026 -2.499999999706382 -9 0.20080558631870429 0.033909897404034287 -9 0.20080558631870429 0.033909897404034287 -12 -0.66987297914647026 -2.499999999706382 -9 -2.2735805010731909 0.22641949675281539 -9 0.20080558631870429 0.033909897404034287 -9 0.20080558631870429 0.033909897404034287 -12 -2.2735805010731909 0.22641949675281539 -9 -0.91506351183037493 1.5849364925866429 -9 0.20080558631870429 0.033909897404034287 -9 -0.91506351183037493 1.5849364925866429 -12 -0.91506351183037493 1.5849364925866429 -9 0.20080558631870429 0.033909897404034287 -9 -0.91506351183037493 1.5849364925866429 -12 0.37580157663508379 2.5408650916807378 -9 0.20080558631870429 0.033909897404034287 -9 -0.91506351183037493 1.5849364925866429 -12 0.20080558631870429 0.033909897404034287 -12 0.37580157663508379 2.5408650916807378 -12 0.20080558631870429 0.033909897404034287 -9 -0.91506351183037493 1.5849364925866429 -12 0.37580157663508379 2.5408650916807378 -9 0.37580157663508379 2.5408650916807378 -12 -0.91506351183037493 1.5849364925866429 -9 -0.91506351183037493 1.5849364925866429 -12 0.37580157663508379 2.5408650916807378 -9 -1.107852388446384 3.1911857209629071 -12 -0.91506351183037493 1.5849364925866429 -12 0.37580157663508379 2.5408650916807378 -9 0.37580157663508379 2.5408650916807378 -12 -1.107852388446384 3.1911857209629071 -12 -0.91506351183037493 1.5849364925866429 -12 0.20080558631870429 0.033909897404034287 -12 -0.91506351183037493 1.5849364925866429 -15 -2.2735805010731909 0.22641949675281539 -12 -0.91506351183037493 1.5849364925866429 -12 0.20080558631870429 0.033909897404034287 -12 -0.91506351183037493 1.5849364925866429 -15 0.37580157663508379 2.5408650916807378 -12 -0.66987297914647026 -2.499999999706382 -12 0.20080558631870429 0.033909897404034287 -12 0.20080558631870429 0.033909897404034287 -15 -2.2735805010731909 0.22641949675281539 -12 0.20080558631870429 0.033909897404034287 -12 2.3883545080289421 -0.94497882694672608 -12 2.465848112410058 1.4099871989758821 -12 2.465848112410058 1.4099871989758821 -15 0.95458002071209891 -1.657898275923388 -15 0.95458002071209891 -1.657898275923388 -12 0.20080558631870429 0.033909897404034287 -12 2.3883545080289421 -0.94497882694672608 -12 2.465848112410058 1.4099871989758821 -12 2.465848112410058 1.4099871989758821 -15 2.4999999879139869 4.3301270259000564 -12 0.37580157663508379 2.5408650916807378 -12 0.20080558631870429 0.033909897404034287 -12 2.465848112410058 1.4099871989758821 -12 2.465848112410058 1.4099871989758821 -15 0.37580157663508379 2.5408650916807378 -12 0.20080558631870429 0.033909897404034287 -12 2.465848112410058 1.4099871989758821 -15 0.37580157663508379 2.5408650916807378 -12 0.37580157663508379 2.5408650916807378 -15 0.20080558631870429 0.033909897404034287 -12 2.465848112410058 1.4099871989758821 -15 0.20080558631870429 0.033909897404034287 -15 0.37580157663508379 2.5408650916807378 -15 2.3883545080289421 -0.94497882694672608 -12 2.465848112410058 1.4099871989758821 -15 2.3883545080289421 -0.94497882694672608 -15 0.20080558631870429 0.033909897404034287 -15 0.95458002071209891 -1.657898275923388 -15 0.20080558631870429 0.033909897404034287 -12 2.3883545080289421 -0.94497882694672608 -12 0.20080558631870429 0.033909897404034287 -15 0.20080558631870429 0.033909897404034287 -12 2.3883545080289421 -0.94497882694672608 -12 2.465848112410058 1.4099871989758821 -15 0.20080558631870429 0.033909897404034287 -15 0.95458002071209891 -1.657898275923388 -15 2.3883545080289421 -0.94497882694672608 -12 2.3883545080289421 -0.94497882694672608 -15 0.20080558631870429 0.033909897404034287 -15 -0.66987297914647026 -2.499999999706382 -15 -0.66987297914647026 -2.499999999706382 -12 0.20080558631870429 0.033909897404034287 -15 -2.2735805010731909 0.22641949675281539 -12 0.20080558631870429 0.033909897404034287 -12 0.20080558631870429 0.033909897404034287 -15 -0.91506351183037493 1.5849364925866429 -15 -2.2735805010731909 0.22641949675281539 -12 0.95458002071209891 -1.657898275923388 -15 -0.66987297914647026 -2.499999999706382 -12 0.20080558631870429 0.033909897404034287 -12 0.20080558631870429 0.033909897404034287 -15 0.20080558631870429 0.033909897404034287 -12 -0.91506351183037493 1.5849364925866429 -15 0.37580157663508379 2.5408650916807378 -12 0.37580157663508379 2.5408650916807378 -15 -0.91506351183037493 1.5849364925866429 -15 0.37580157663508379 2.5408650916807378 -12 -1.107852388446384 3.1911857209629071 -15 0.37580157663508379 2.5408650916807378 -15 -0.91506351183037493 1.5849364925866429 -12 -0.91506351183037493 1.5849364925866429 -15 0.37580157663508379 2.5408650916807378 -12 -1.107852388446384 3.1911857209629071 -15 0.20080558631870429 0.033909897404034287 -12 0.20080558631870429 0.033909897404034287 -15 -0.91506351183037493 1.5849364925866429 -15 0.37580157663508379 2.5408650916807378 -15 -0.91506351183037493 1.5849364925866429 -12 -0.91506351183037493 1.5849364925866429 -15 -2.2253246846922492 2.366533744740174 -15 -2.2735805010731909 0.22641949675281539 -12 -0.91506351183037493 1.5849364925866429 -15 -2.2253246846922492 2.366533744740174 -15 -2.2735805010731909 0.22641949675281539 -12 -2.2735805010731909 0.22641949675281539 -15 -2.2253246846922492 2.366533744740174 -15 -2.2735805010731909 0.22641949675281539 -12 -2.2735805010731909 0.22641949675281539 -15 -4.3301270221112951 2.4999999944763132 -12 -0.91506351183037493 1.5849364925866429 -12 -0.91506351183037493 1.5849364925866429 -15 -2.2253246846922492 2.366533744740174 -15 -1.107852388446384 3.1911857209629071 -15 -0.91506351183037493 1.5849364925866429 -12 -2.2253246846922492 2.366533744740174 -15 -2.2253246846922492 2.366533744740174 -12 -2.2735805010731909 0.22641949675281539 -12 -2.2253246846922492 2.366533744740174 -15 -2.2253246846922492 2.366533744740174 -12 -2.2735805010731909 0.22641949675281539 -12 -4.3301270221112951 2.4999999944763132 -12 -0.91506351183037493 1.5849364925866429 -12 -2.2253246846922492 2.366533744740174 -15 -2.2253246846922492 2.366533744740174 -12 -1.107852388446384 3.1911857209629071 -12 -2.9547160992544761 -1.820741508163664 -15 -0.66987297914647026 -2.499999999706382 -15 -2.2735805010731909 0.22641949675281539 -12 -2.2735805010731909 0.22641949675281539 -15 0.20080558631870429 0.033909897404034287 -15 -0.91506351183037493 1.5849364925866429 -15 -2.2735805010731909 0.22641949675281539 -12 -2.2735805010731909 0.22641949675281539 -15 -0.66987297914647026 -2.499999999706382 -15 0.20080558631870429 0.033909897404034287 -15 -2.2735805010731909 0.22641949675281539 -12 -2.2735805010731909 0.22641949675281539 -15 -4.3301270160527148 -2.500000004970083 -12 -2.9547160992544761 -1.820741508163664 -15 -5 -1.397247784140632e-08 -15 -5 -1.397247784140632e-08 -12 -2.9547160992544761 -1.820741508163664 -15 -2.2735805010731909 0.22641949675281539 -12 -2.2735805010731909 0.22641949675281539 -15 -5 -1.397247784140632e-08 -12 -2.9547160992544761 -1.820741508163664 -15 -2.2735805010731909 0.22641949675281539 -15 -5 -1.397247784140632e-08 -15 -5 -1.397247784140632e-08 -12 -2.9547160992544761 -1.820741508163664 -15 -2.9547160992544761 -1.820741508163664 -12 -2.2735805010731909 0.22641949675281539 -12 -5 -1.397247784140632e-08 -12 -2.2735805010731909 0.22641949675281539 -12 -2.2735805010731909 0.22641949675281539 -15 -5 -1.397247784140632e-08 -12 -4.3301270221112951 2.4999999944763132 -12 -2.2735805010731909 0.22641949675281539 -15 -5 -1.397247784140632e-08 -15 -5 -1.397247784140632e-08 -12 -4.3301270221112951 2.4999999944763132 -15 -2.2735805010731909 0.22641949675281539 -15 -5 -1.397247784140632e-08 -12 -4.3301270221112951 2.4999999944763132 -12 -4.3301270221112951 2.4999999944763132 -15 -2.2253246846922492 2.366533744740174 -15 -2.2735805010731909 0.22641949675281539 -15 -4.3301270221112951 2.4999999944763132 -12 -4.3301270221112951 2.4999999944763132 -15 -2.2253246846922492 2.366533744740174 -15 -4.3301270221112951 2.4999999944763132 -12 -4.3301270221112951 2.4999999944763132 -15 -2.4999999999999991 4.3301270189221936 -15 -0.91506351183037493 1.5849364925866429 -12 -2.2253246846922492 2.366533744740174 -15 -1.107852388446384 3.1911857209629071 -12 -1.107852388446384 3.1911857209629071 -15 -2.2253246846922492 2.366533744740174 -15 -4.3301270221112951 2.4999999944763132 -12 -2.4999999999999991 4.3301270189221936 -15 -2.4999999999999991 4.3301270189221936 -12 -2.2253246846922492 2.366533744740174 -15 -2.4999999999999991 4.3301270189221936 -15 -2.4999999999999991 4.3301270189221936 -12 -1.107852388446384 3.1911857209629071 -15 -2.2253246846922492 2.366533744740174 -15 -2.4999999999999991 4.3301270189221936 -12 -1.107852388446384 3.1911857209629071 -12 -1.107852388446384 3.1911857209629071 -15 -2.4999999999999991 4.3301270189221936 -15 -2.4999999999999991 4.3301270189221936 -12 -1.107852388446384 3.1911857209629071 -15 -6.2995949836986492e-09 5 -15 -2.2253246846922492 2.366533744740174 -15 -2.2253246846922492 2.366533744740174 -12 -2.4999999999999991 4.3301270189221936 -12 -1.107852388446384 3.1911857209629071 -12 -2.2253246846922492 2.366533744740174 -15 -2.2253246846922492 2.366533744740174 -12 -4.3301270221112951 2.4999999944763132 -12 -2.4999999999999991 4.3301270189221936 -12 -4.3301270221112951 2.4999999944763132 -9 -2.2253246846922492 2.366533744740174 -12 -4.3301270221112951 2.4999999944763132 -12 -2.4999999999999991 4.3301270189221936 -12 -2.4999999999999991 4.3301270189221936 -12 -2.4999999999999991 4.3301270189221936 -9 -6.2995949836986492e-09 5 -12 -1.107852388446384 3.1911857209629071 -12 -0.91506351183037493 1.5849364925866429 -9 -2.2253246846922492 2.366533744740174 -12 -1.107852388446384 3.1911857209629071 -9 -1.107852388446384 3.1911857209629071 -12 -4.3301270221112951 2.4999999944763132 -9 -2.2253246846922492 2.366533744740174 -12 -2.4999999999999991 4.3301270189221936 -12 -2.4999999999999991 4.3301270189221936 -9 -4.3301270221112951 2.4999999944763132 -9 -2.2253246846922492 2.366533744740174 -9 -2.2253246846922492 2.366533744740174 -12 -2.4999999999999991 4.3301270189221936 -9 -2.2253246846922492 2.366533744740174 -9 -2.2253246846922492 2.366533744740174 -12 -2.4999999999999991 4.3301270189221936 -9 -1.107852388446384 3.1911857209629071 -9 -2.2253246846922492 2.366533744740174 -12 -2.4999999999999991 4.3301270189221936 -12 -2.4999999999999991 4.3301270189221936 -9 -1.107852388446384 3.1911857209629071 -12 -2.2253246846922492 2.366533744740174 -12 -2.4999999999999991 4.3301270189221936 -9 -1.107852388446384 3.1911857209629071 -9 -1.107852388446384 3.1911857209629071 -12 -2.4999999999999991 4.3301270189221936 -9 -6.2995949836986492e-09 5 -9 -1.107852388446384 3.1911857209629071 -9 -2.4999999999999991 4.3301270189221936 -6 -2.2253246846922492 2.366533744740174 -9 -2.4999999999999991 4.3301270189221936 -9 -1.107852388446384 3.1911857209629071 -9 -2.4999999999999991 4.3301270189221936 -6 -4.3301270221112951 2.4999999944763132 -9 -2.2253246846922492 2.366533744740174 -9 -2.4999999999999991 4.3301270189221936 -9 -4.3301270221112951 2.4999999944763132 -6 -2.4999999999999991 4.3301270189221936 -9 -6.2995949836986492e-09 5 -9 -6.2995949836986492e-09 5 -12 -1.107852388446384 3.1911857209629071 -12 -6.2995949836986492e-09 5 -9 2.4999999879139869 4.3301270259000564 -9 0.37580157663508379 2.5408650916807378 -9 -6.2995949836986492e-09 5 -6 2.465848112410058 1.4099871989758821 -9 2.4999999879139869 4.3301270259000564 -9 0.37580157663508379 2.5408650916807378 -9 2.4999999879139869 4.3301270259000564 -6 -6.2995949836986492e-09 5 -9 0.37580157663508379 2.5408650916807378 -9 -1.107852388446384 3.1911857209629071 -9 -6.2995949836986492e-09 5 -6 -0.91506351183037493 1.5849364925866429 -9 0.37580157663508379 2.5408650916807378 -9 -1.107852388446384 3.1911857209629071 -9 -1.107852388446384 3.1911857209629071 -12 -6.2995949836986492e-09 5 -9 0.37580157663508379 2.5408650916807378 -9 0.37580157663508379 2.5408650916807378 -12 -1.107852388446384 3.1911857209629071 -12 -6.2995949836986492e-09 5 -9 -6.2995949836986492e-09 5 -12 0.37580157663508379 2.5408650916807378 -12 -1.107852388446384 3.1911857209629071 -12 -2.4999999999999991 4.3301270189221936 -9 -6.2995949836986492e-09 5 -9 -1.107852388446384 3.1911857209629071 -9 -1.107852388446384 3.1911857209629071 -12 -6.2995949836986492e-09 5 -9 0.37580157663508379 2.5408650916807378 -9 -1.107852388446384 3.1911857209629071 -9 -1.107852388446384 3.1911857209629071 -12 2.465848112410058 1.4099871989758821 -12 2.4999999879139869 4.3301270259000564 -9 2.4999999879139869 4.3301270259000564 -12 0.37580157663508379 2.5408650916807378 -12 -6.2995949836986492e-09 5 -9 2.4999999879139869 4.3301270259000564 -9 0.37580157663508379 2.5408650916807378 -9 0.37580157663508379 2.5408650916807378 -12 -6.2995949836986492e-09 5 -9 2.4999999879139869 4.3301270259000564 -12 -6.2995949836986492e-09 5 -12 0.37580157663508379 2.5408650916807378 -12 -6.2995949836986492e-09 5 -9 2.4999999879139869 4.3301270259000564 -9 2.4999999879139869 4.3301270259000564 -12 0.37580157663508379 2.5408650916807378 -12 2.465848112410058 1.4099871989758821 -12 2.4999999879139869 4.3301270259000564 -9 0.37580157663508379 2.5408650916807378 -9 0.37580157663508379 2.5408650916807378 -12 2.4999999879139869 4.3301270259000564 -12 -6.2995949836986492e-09 5 -12 0.37580157663508379 2.5408650916807378 -12 0.37580157663508379 2.5408650916807378 -15 -2.4999999999999991 4.3301270189221936 -12 -6.2995949836986492e-09 5 -12 -1.107852388446384 3.1911857209629071 -12 -1.107852388446384 3.1911857209629071 -15 -0.91506351183037493 1.5849364925866429 -12 0.37580157663508379 2.5408650916807378 -12 -1.107852388446384 3.1911857209629071 -12 -1.107852388446384 3.1911857209629071 -15 -6.2995949836986492e-09 5 -12 0.37580157663508379 2.5408650916807378 -12 -1.107852388446384 3.1911857209629071 -12 -1.107852388446384 3.1911857209629071 -15 -6.2995949836986492e-09 5 -12 0.37580157663508379 2.5408650916807378 -12 -1.107852388446384 3.1911857209629071 -15 0.37580157663508379 2.5408650916807378 -15 -6.2995949836986492e-09 5 -12 -1.107852388446384 3.1911857209629071 -15 0.37580157663508379 2.5408650916807378 -15 -6.2995949836986492e-09 5 -15 -2.4999999999999991 4.3301270189221936 -12 -6.2995949836986492e-09 5 -12 -1.107852388446384 3.1911857209629071 -15 -6.2995949836986492e-09 5 -15 2.4999999879139869 4.3301270259000564 -12 -6.2995949836986492e-09 5 -12 0.37580157663508379 2.5408650916807378 -15 2.4999999879139869 4.3301270259000564 -15 2.465848112410058 1.4099871989758821 -15 2.4999999879139869 4.3301270259000564 -12 0.37580157663508379 2.5408650916807378 -12 0.37580157663508379 2.5408650916807378 -15 2.465848112410058 1.4099871989758821 -15 2.4999999879139869 4.3301270259000564 -12 0.37580157663508379 2.5408650916807378 -15 2.4999999879139869 4.3301270259000564 -15 -6.2995949836986492e-09 5 -12 0.37580157663508379 2.5408650916807378 -15 -6.2995949836986492e-09 5 -15 2.4999999879139869 4.3301270259000564 -15 2.465848112410058 1.4099871989758821 -15 2.4999999879139869 4.3301270259000564 -12 4.3301270155636349 2.5000000058171929 -15 4.3301270155636349 2.5000000058171929 -12 2.465848112410058 1.4099871989758821 -15 2.4999999879139869 4.3301270259000564 -12 2.4999999879139869 4.3301270259000564 -15 4.3301270155636349 2.5000000058171929 -15 2.465848112410058 1.4099871989758821 -12 2.4999999879139869 4.3301270259000564 -9 4.3301270155636349 2.5000000058171929 -12 4.3301270155636349 2.5000000058171929 -9 2.465848112410058 1.4099871989758821 -12 2.4999999879139869 4.3301270259000564 -9 2.4999999879139869 4.3301270259000564 -12 4.3301270155636349 2.5000000058171929 -12 2.465848112410058 1.4099871989758821 -9 2.4999999879139869 4.3301270259000564 -9 4.3301270155636349 2.5000000058171929 -9 2.4999999879139869 4.3301270259000564 -6 2.217625015551433 -2.5696135239339939 -15 2.500000010727558 -4.3301270127286351 -15 2.500000010727558 -4.3301270127286351 -12 4.3301270218486989 -2.4999999949311431 -12 2.217625015551433 -2.5696135239339939 -15 2.217625015551433 -2.5696135239339939 -12 2.500000010727558 -4.3301270127286351 -12 4.3301270218486989 -2.4999999949311431 -12 2.217625015551433 -2.5696135239339939 -15 2.217625015551433 -2.5696135239339939 -12 2.3883545080289421 -0.94497882694672608 -12 4.3301270218486989 -2.4999999949311431 -12 2.217625015551433 -2.5696135239339939 -15 2.500000010727558 -4.3301270127286351 -15 4.3301270218486989 -2.4999999949311431 -12 4.3301270218486989 -2.4999999949311431 -15 2.217625015551433 -2.5696135239339939 -15 2.3883545080289421 -0.94497882694672608 -12 2.3883545080289421 -0.94497882694672608 -15 4.3301270218486989 -2.4999999949311431 -12 2.217625015551433 -2.5696135239339939 -15 2.3883545080289421 -0.94497882694672608 -15 4.3301270218486989 -2.4999999949311431 -12 4.3301270218486989 -2.4999999949311431 -15 2.3883545080289421 -0.94497882694672608 -15 4.3301270218486989 -2.4999999949311431 -12 4.3301270218486989 -2.4999999949311431 -15 5 0 -12 2.3883545080289421 -0.94497882694672608 -15 4.3301270218486989 -2.4999999949311431 -15 5 0 -15 5 0 -12 2.465848112410058 1.4099871989758821 -15 2.3883545080289421 -0.94497882694672608 -15 5 0 -15 5 0 -12 2.3883545080289421 -0.94497882694672608 -12 2.465848112410058 1.4099871989758821 -15 2.3883545080289421 -0.94497882694672608 -15 5 0 -12 2.465848112410058 1.4099871989758821 -15 4.3301270155636349 2.5000000058171929 -15 4.3301270155636349 2.5000000058171929 -12 5 0 -15 2.465848112410058 1.4099871989758821 -15 4.3301270155636349 2.5000000058171929 -12 5 0 -15 5 0 -12 2.465848112410058 1.4099871989758821 -12 2.465848112410058 1.4099871989758821 -15 2.4999999879139869 4.3301270259000564 -12 4.3301270155636349 2.5000000058171929 -12 2.465848112410058 1.4099871989758821 -12 2.465848112410058 1.4099871989758821 -15 4.3301270155636349 2.5000000058171929 -12 5 0 -12 2.3883545080289421 -0.94497882694672608 -12 2.3883545080289421 -0.94497882694672608 -15 4.3301270218486989 -2.4999999949311431 -12 5 0 -12 2.3883545080289421 -0.94497882694672608 -12 2.465848112410058 1.4099871989758821 -12 2.465848112410058 1.4099871989758821 -15 5 0 -12 2.3883545080289421 -0.94497882694672608 -9 2.3883545080289421 -0.94497882694672608 -12 5 0 -9 4.3301270218486989 -2.4999999949311431 -9 2.3883545080289421 -0.94497882694672608 -12 4.3301270218486989 -2.4999999949311431 -12 5 0 -12 5 0 -9 2.3883545080289421 -0.94497882694672608 -9 2.3883545080289421 -0.94497882694672608 -12 2.465848112410058 1.4099871989758821 -12 5 0 -9 2.3883545080289421 -0.94497882694672608 -9 2.465848112410058 1.4099871989758821 -9 2.465848112410058 1.4099871989758821 -12 5 0 -9 2.3883545080289421 -0.94497882694672608 -12 2.465848112410058 1.4099871989758821 -12 5 0 -12 5 0 -9 2.465848112410058 1.4099871989758821 -9 2.465848112410058 1.4099871989758821 -12 2.4999999879139869 4.3301270259000564 -9 4.3301270155636349 2.5000000058171929 -9 2.465848112410058 1.4099871989758821 -12 4.3301270155636349 2.5000000058171929 -9 5 0 -12 5 0 -9 2.465848112410058 1.4099871989758821 -12 4.3301270155636349 2.5000000058171929 -12 4.3301270155636349 2.5000000058171929 -9 5 0 -12 2.465848112410058 1.4099871989758821 -9 2.465848112410058 1.4099871989758821 -12 4.3301270155636349 2.5000000058171929 -9 5 0 -9 2.465848112410058 1.4099871989758821 -9 4.3301270155636349 2.5000000058171929 -9 5 0 -9 4.3301270155636349 2.5000000058171929 -6 2.3883545080289421 -0.94497882694672608 -9 5 0 -9 4.3301270218486989 -2.4999999949311431 -9 5 0 -6 2.3883545080289421 -0.94497882694672608 -9 2.465848112410058 1.4099871989758821 -9 5 0 -9 5 0 -6 2.217625015551433 -2.5696135239339939 -9 2.3883545080289421 -0.94497882694672608 -9 4.3301270218486989 -2.4999999949311431 -9 4.3301270218486989 -2.4999999949311431 -6 2.217625015551433 -2.5696135239339939 -9 4.3301270218486989 -2.4999999949311431 -9 2.500000010727558 -4.3301270127286351 -9 4.3301270218486989 -2.4999999949311431 -6 2.217625015551433 -2.5696135239339939 -12 2.3883545080289421 -0.94497882694672608 -12 4.3301270218486989 -2.4999999949311431 -12 4.3301270218486989 -2.4999999949311431 -9 2.217625015551433 -2.5696135239339939 -12 2.217625015551433 -2.5696135239339939 -9 2.3883545080289421 -0.94497882694672608 -9 4.3301270218486989 -2.4999999949311431 -9 2.3883545080289421 -0.94497882694672608 -12 4.3301270218486989 -2.4999999949311431 -12 5 0 -9 4.3301270218486989 -2.4999999949311431 -9 2.217625015551433 -2.5696135239339939 -12 2.3883545080289421 -0.94497882694672608 -9 2.3883545080289421 -0.94497882694672608 -12 4.3301270218486989 -2.4999999949311431 -9 2.217625015551433 -2.5696135239339939 -12 2.217625015551433 -2.5696135239339939 -9 4.3301270218486989 -2.4999999949311431 -9 2.500000010727558 -4.3301270127286351 -9 2.217625015551433 -2.5696135239339939 -12 2.500000010727558 -4.3301270127286351 -12 4.3301270218486989 -2.4999999949311431 -12 4.3301270218486989 -2.4999999949311431 -9 2.217625015551433 -2.5696135239339939 -12 2.500000010727558 -4.3301270127286351 -12 4.3301270218486989 -2.4999999949311431 -9 2.500000010727558 -4.3301270127286351 -9 2.217625015551433 -2.5696135239339939 -9 2.500000010727558 -4.3301270127286351 -9 2.500000010727558 -4.3301270127286351 -6 4.3301270218486989 -2.4999999949311431 -6 2.500000010727558 -4.3301270127286351 -6 4.3301270218486989 -2.4999999949311431 -3 2.500000010727558 -4.3301270127286351 -3 2.217625015551433 -2.5696135239339939 -6 4.3301270218486989 -2.4999999949311431 -3 2.3883545080289421 -0.94497882694672608 -3 2.3883545080289421 -0.94497882694672608 -6 2.217625015551433 -2.5696135239339939 -6 4.3301270218486989 -2.4999999949311431 -6 4.3301270218486989 -2.4999999949311431 -3 2.3883545080289421 -0.94497882694672608 -6 2.217625015551433 -2.5696135239339939 -6 4.3301270218486989 -2.4999999949311431 -6 5 0 -3 4.3301270218486989 -2.4999999949311431 -3 2.3883545080289421 -0.94497882694672608 -6 2.500000010727558 -4.3301270127286351 -6 4.3301270218486989 -2.4999999949311431 -6 4.3301270218486989 -2.4999999949311431 -3 2.217625015551433 -2.5696135239339939 -6 2.217625015551433 -2.5696135239339939 -9 2.500000010727558 -4.3301270127286351 -6 4.3301270218486989 -2.4999999949311431 -6 2.217625015551433 -2.5696135239339939 -6 2.217625015551433 -2.5696135239339939 -9 4.3301270218486989 -2.4999999949311431 -6 2.3883545080289421 -0.94497882694672608 -6 2.217625015551433 -2.5696135239339939 -6 2.3883545080289421 -0.94497882694672608 -9 4.3301270218486989 -2.4999999949311431 -9 4.3301270218486989 -2.4999999949311431 -6 5 0 -6 2.217625015551433 -2.5696135239339939 -9 2.3883545080289421 -0.94497882694672608 -9 4.3301270218486989 -2.4999999949311431 -6 2.3883545080289421 -0.94497882694672608 -6 2.3883545080289421 -0.94497882694672608 -9 2.465848112410058 1.4099871989758821 -9 5 0 -6 2.3883545080289421 -0.94497882694672608 -6 2.3883545080289421 -0.94497882694672608 -9 4.3301270218486989 -2.4999999949311431 -6 5 0 -6 2.3883545080289421 -0.94497882694672608 -6 2.465848112410058 1.4099871989758821 -9 5 0 -6 2.465848112410058 1.4099871989758821 -6 2.3883545080289421 -0.94497882694672608 -6 2.465848112410058 1.4099871989758821 -9 5 0 -9 5 0 -6 4.3301270155636349 2.5000000058171929 -6 2.465848112410058 1.4099871989758821 -9 5 0 -6 4.3301270155636349 2.5000000058171929 -6 2.465848112410058 1.4099871989758821 -6 2.465848112410058 1.4099871989758821 -9 4.3301270155636349 2.5000000058171929 -6 2.4999999879139869 4.3301270259000564 -6 2.465848112410058 1.4099871989758821 -6 5 0 -6 5 0 -3 4.3301270155636349 2.5000000058171929 -3 2.465848112410058 1.4099871989758821 -6 5 0 -6 4.3301270155636349 2.5000000058171929 -6 4.3301270155636349 2.5000000058171929 -3 2.465848112410058 1.4099871989758821 -6 5 0 -6 5 0 -3 2.465848112410058 1.4099871989758821 -6 2.3883545080289421 -0.94497882694672608 -6 5 0 -3 2.3883545080289421 -0.94497882694672608 -3 2.465848112410058 1.4099871989758821 -6 2.3883545080289421 -0.94497882694672608 -6 4.3301270218486989 -2.4999999949311431 -6 5 0 -6 5 0 -3 2.3883545080289421 -0.94497882694672608 -6 5 0 -3 2.465848112410058 1.4099871989758821 -3 2.3883545080289421 -0.94497882694672608 -3 2.465848112410058 1.4099871989758821 -6 5 0 -3 5 0 0 2.465848112410058 1.4099871989758821 -3 2.3883545080289421 -0.94497882694672608 -3 5 0 -3 5 0 0 4.3301270218486989 -2.4999999949311431 -3 2.3883545080289421 -0.94497882694672608 -3 5 0 -3 4.3301270218486989 -2.4999999949311431 -3 2.3883545080289421 -0.94497882694672608 -3 2.3883545080289421 -0.94497882694672608 -6 5 0 -3 4.3301270155636349 2.5000000058171929 -3 4.3301270155636349 2.5000000058171929 0 2.465848112410058 1.4099871989758821 -3 5 0 -3 4.3301270155636349 2.5000000058171929 -3 2.465848112410058 1.4099871989758821 -3 2.465848112410058 1.4099871989758821 -6 4.3301270155636349 2.5000000058171929 -3 2.4999999879139869 4.3301270259000564 -3 2.465848112410058 1.4099871989758821 -3 2.465848112410058 1.4099871989758821 -6 4.3301270155636349 2.5000000058171929 0 2.4999999879139869 4.3301270259000564 0 2.465848112410058 1.4099871989758821 0 2.465848112410058 1.4099871989758821 -3 5 0 -3 5 0 0 4.3301270155636349 2.5000000058171929 0 2.465848112410058 1.4099871989758821 -3 5 0 0 4.3301270155636349 2.5000000058171929 0 2.465848112410058 1.4099871989758821 0 2.465848112410058 1.4099871989758821 -3 5 0 0 4.3301270218486989 -2.4999999949311431 0 2.3883545080289421 -0.94497882694672608 0 2.3883545080289421 -0.94497882694672608 -3 5 0 0 2.3883545080289421 -0.94497882694672608 0 2.465848112410058 1.4099871989758821 0 2.465848112410058 1.4099871989758821 -3 5 0 0 2.3883545080289421 -0.94497882694672608 0 2.465848112410058 1.4099871989758821 -3 2.3883545080289421 -0.94497882694672608 -3 4.3301270218486989 -2.4999999949311431 0 2.500000010727558 -4.3301270127286351 0 2.217625015551433 -2.5696135239339939 -3 2.217625015551433 -2.5696135239339939 0 4.3301270218486989 -2.4999999949311431 0 2.3883545080289421 -0.94497882694672608 0 2.217625015551433 -2.5696135239339939 -3 2.217625015551433 -2.5696135239339939 0 4.3301270218486989 -2.4999999949311431 0 2.3883545080289421 -0.94497882694672608 0 2.3883545080289421 -0.94497882694672608 -3 2.217625015551433 -2.5696135239339939 -3 5 0 0 4.3301270218486989 -2.4999999949311431 0 4.3301270218486989 -2.4999999949311431 -3 2.3883545080289421 -0.94497882694672608 -3 4.3301270218486989 -2.4999999949311431 -3 2.500000010727558 -4.3301270127286351 -3 2.217625015551433 -2.5696135239339939 -6 2.217625015551433 -2.5696135239339939 -3 4.3301270218486989 -2.4999999949311431 0 4.3301270218486989 -2.4999999949311431 -3 2.3883545080289421 -0.94497882694672608 -3 2.217625015551433 -2.5696135239339939 -3 4.3301270218486989 -2.4999999949311431 -3 2.3883545080289421 -0.94497882694672608 -3 2.217625015551433 -2.5696135239339939 -6 2.217625015551433 -2.5696135239339939 -3 4.3301270218486989 -2.4999999949311431 0 4.3301270218486989 -2.4999999949311431 -3 2.500000010727558 -4.3301270127286351 -3 2.217625015551433 -2.5696135239339939 -3 4.3301270218486989 -2.4999999949311431 0 2.500000010727558 -4.3301270127286351 -3 2.500000010727558 -4.3301270127286351 0 2.217625015551433 -2.5696135239339939 -3 2.465848112410058 1.4099871989758821 -9 4.3301270155636349 2.5000000058171929 -9 4.3301270155636349 2.5000000058171929 -6 2.4999999879139869 4.3301270259000564 -6 4.3301270155636349 2.5000000058171929 -6 2.4999999879139869 4.3301270259000564 -3 2.4999999879139869 4.3301270259000564 -6 2.465848112410058 1.4099871989758821 -6 4.3301270155636349 2.5000000058171929 -6 4.3301270155636349 2.5000000058171929 -3 2.4999999879139869 4.3301270259000564 -3 2.465848112410058 1.4099871989758821 -6 4.3301270155636349 2.5000000058171929 -3 2.4999999879139869 4.3301270259000564 0 2.4999999879139869 4.3301270259000564 -3 2.465848112410058 1.4099871989758821 -3 4.3301270155636349 2.5000000058171929 -3 4.3301270155636349 2.5000000058171929 0 2.4999999879139869 4.3301270259000564 0 2.465848112410058 1.4099871989758821 -3 2.4999999879139869 4.3301270259000564 0 -6.2995949836986492e-09 5 0 0.37580157663508379 2.5408650916807378 0 0.37580157663508379 2.5408650916807378 -3 2.4999999879139869 4.3301270259000564 0 0.37580157663508379 2.5408650916807378 0 0.37580157663508379 2.5408650916807378 -3 2.465848112410058 1.4099871989758821 -3 2.4999999879139869 4.3301270259000564 0 -6.2995949836986492e-09 5 0 0.37580157663508379 2.5408650916807378 -3 2.4999999879139869 4.3301270259000564 -3 -6.2995949836986492e-09 5 0 -1.107852388446384 3.1911857209629071 -3 -6.2995949836986492e-09 5 -3 -2.4999999999999991 4.3301270189221936 0 -6.2995949836986492e-09 5 0 -1.107852388446384 3.1911857209629071 0 0.37580157663508379 2.5408650916807378 0 -1.107852388446384 3.1911857209629071 -3 -6.2995949836986492e-09 5 0 -1.107852388446384 3.1911857209629071 0 -1.107852388446384 3.1911857209629071 -3 -2.4999999999999991 4.3301270189221936 0 -6.2995949836986492e-09 5 0 0.37580157663508379 2.5408650916807378 0 -1.107852388446384 3.1911857209629071 -3 0.37580157663508379 2.5408650916807378 -3 -1.107852388446384 3.1911857209629071 0 0.37580157663508379 2.5408650916807378 0 -1.107852388446384 3.1911857209629071 -3 -0.91506351183037493 1.5849364925866429 0 -6.2995949836986492e-09 5 0 -1.107852388446384 3.1911857209629071 -3 0.37580157663508379 2.5408650916807378 -3 -6.2995949836986492e-09 5 -3 -6.2995949836986492e-09 5 0 0.37580157663508379 2.5408650916807378 -3 -6.2995949836986492e-09 5 -3 2.4999999879139869 4.3301270259000564 -3 2.4999999879139869 4.3301270259000564 0 0.37580157663508379 2.5408650916807378 -3 2.4999999879139869 4.3301270259000564 -3 2.465848112410058 1.4099871989758821 -3 0.37580157663508379 2.5408650916807378 -3 2.4999999879139869 4.3301270259000564 -3 0.37580157663508379 2.5408650916807378 -6 2.465848112410058 1.4099871989758821 -6 2.4999999879139869 4.3301270259000564 -3 0.37580157663508379 2.5408650916807378 -6 2.4999999879139869 4.3301270259000564 -6 2.465848112410058 1.4099871989758821 -6 -6.2995949836986492e-09 5 -3 2.4999999879139869 4.3301270259000564 -3 0.37580157663508379 2.5408650916807378 -6 2.4999999879139869 4.3301270259000564 -6 -6.2995949836986492e-09 5 -3 0.37580157663508379 2.5408650916807378 -6 2.4999999879139869 4.3301270259000564 -6 -6.2995949836986492e-09 5 -6 0.37580157663508379 2.5408650916807378 -3 -6.2995949836986492e-09 5 -3 2.4999999879139869 4.3301270259000564 -3 0.37580157663508379 2.5408650916807378 -6 -1.107852388446384 3.1911857209629071 -3 0.37580157663508379 2.5408650916807378 -3 -1.107852388446384 3.1911857209629071 -6 -0.91506351183037493 1.5849364925866429 -3 -1.107852388446384 3.1911857209629071 -3 0.37580157663508379 2.5408650916807378 -3 -6.2995949836986492e-09 5 -3 -1.107852388446384 3.1911857209629071 -6 -6.2995949836986492e-09 5 -3 -1.107852388446384 3.1911857209629071 -6 0.37580157663508379 2.5408650916807378 -6 -6.2995949836986492e-09 5 -6 0.37580157663508379 2.5408650916807378 -3 -6.2995949836986492e-09 5 -3 -1.107852388446384 3.1911857209629071 -6 0.37580157663508379 2.5408650916807378 -6 -1.107852388446384 3.1911857209629071 -3 -6.2995949836986492e-09 5 -3 -1.107852388446384 3.1911857209629071 -6 -2.4999999999999991 4.3301270189221936 -3 -1.107852388446384 3.1911857209629071 -9 -1.107852388446384 3.1911857209629071 -6 0.37580157663508379 2.5408650916807378 -6 -6.2995949836986492e-09 5 -6 -1.107852388446384 3.1911857209629071 -9 -1.107852388446384 3.1911857209629071 -6 -6.2995949836986492e-09 5 -6 -2.4999999999999991 4.3301270189221936 -6 0.37580157663508379 2.5408650916807378 -9 -1.107852388446384 3.1911857209629071 -9 0.37580157663508379 2.5408650916807378 -6 -6.2995949836986492e-09 5 -6 -1.107852388446384 3.1911857209629071 -9 -1.107852388446384 3.1911857209629071 -6 0.37580157663508379 2.5408650916807378 -6 -0.91506351183037493 1.5849364925866429 -6 2.4999999879139869 4.3301270259000564 -9 0.37580157663508379 2.5408650916807378 -9 2.4999999879139869 4.3301270259000564 -6 -6.2995949836986492e-09 5 -6 0.37580157663508379 2.5408650916807378 -9 0.37580157663508379 2.5408650916807378 -6 2.4999999879139869 4.3301270259000564 -6 -6.2995949836986492e-09 5 -6 2.465848112410058 1.4099871989758821 -9 0.37580157663508379 2.5408650916807378 -9 0.37580157663508379 2.5408650916807378 -6 2.4999999879139869 4.3301270259000564 -6 -6.2995949836986492e-09 5 -9 -1.107852388446384 3.1911857209629071 -9 -6.2995949836986492e-09 5 -6 -2.4999999999999991 4.3301270189221936 -6 -6.2995949836986492e-09 5 -3 -1.107852388446384 3.1911857209629071 -6 -6.2995949836986492e-09 5 -6 -2.4999999999999991 4.3301270189221936 -3 -2.2253246846922492 2.366533744740174 -9 -1.107852388446384 3.1911857209629071 -6 -2.4999999999999991 4.3301270189221936 -6 -2.2253246846922492 2.366533744740174 -6 -2.2253246846922492 2.366533744740174 -9 -1.107852388446384 3.1911857209629071 -9 -1.107852388446384 3.1911857209629071 -6 -0.91506351183037493 1.5849364925866429 -6 -2.2253246846922492 2.366533744740174 -9 -1.107852388446384 3.1911857209629071 -9 -1.107852388446384 3.1911857209629071 -6 -2.4999999999999991 4.3301270189221936 -6 -2.2253246846922492 2.366533744740174 -9 -2.4999999999999991 4.3301270189221936 -9 -2.4999999999999991 4.3301270189221936 -6 -4.3301270221112951 2.4999999944763132 -6 -2.2253246846922492 2.366533744740174 -9 -2.4999999999999991 4.3301270189221936 -6 -2.2253246846922492 2.366533744740174 -6 -4.3301270221112951 2.4999999944763132 -6 -1.107852388446384 3.1911857209629071 -3 -1.107852388446384 3.1911857209629071 -6 -0.91506351183037493 1.5849364925866429 -3 -2.2253246846922492 2.366533744740174 -6 -1.107852388446384 3.1911857209629071 -6 -2.4999999999999991 4.3301270189221936 -6 -2.4999999999999991 4.3301270189221936 -3 -2.2253246846922492 2.366533744740174 -6 -1.107852388446384 3.1911857209629071 -6 -6.2995949836986492e-09 5 -6 -2.4999999999999991 4.3301270189221936 -6 -2.4999999999999991 4.3301270189221936 -3 -1.107852388446384 3.1911857209629071 -3 -2.4999999999999991 4.3301270189221936 -3 -2.2253246846922492 2.366533744740174 -3 -2.2253246846922492 2.366533744740174 -6 -1.107852388446384 3.1911857209629071 -3 -1.107852388446384 3.1911857209629071 -6 -2.4999999999999991 4.3301270189221936 -3 -2.2253246846922492 2.366533744740174 -6 -2.4999999999999991 4.3301270189221936 -6 -2.4999999999999991 4.3301270189221936 -3 -4.3301270221112951 2.4999999944763132 -3 -2.2253246846922492 2.366533744740174 -6 -2.4999999999999991 4.3301270189221936 -3 -4.3301270221112951 2.4999999944763132 -3 -2.2253246846922492 2.366533744740174 -3 -2.2253246846922492 2.366533744740174 -6 -2.4999999999999991 4.3301270189221936 -6 -4.3301270221112951 2.4999999944763132 -3 -2.2253246846922492 2.366533744740174 -6 -4.3301270221112951 2.4999999944763132 -6 -2.4999999999999991 4.3301270189221936 -3 -4.3301270221112951 2.4999999944763132 0 -4.3301270221112951 2.4999999944763132 -3 -2.2253246846922492 2.366533744740174 -3 -1.107852388446384 3.1911857209629071 -3 -2.4999999999999991 4.3301270189221936 -3 -2.4999999999999991 4.3301270189221936 0 -2.2253246846922492 2.366533744740174 -3 -1.107852388446384 3.1911857209629071 -3 -6.2995949836986492e-09 5 -3 -2.4999999999999991 4.3301270189221936 -3 -2.4999999999999991 4.3301270189221936 0 -2.4999999999999991 4.3301270189221936 0 -4.3301270221112951 2.4999999944763132 0 -2.2253246846922492 2.366533744740174 -3 -2.2253246846922492 2.366533744740174 0 -1.107852388446384 3.1911857209629071 0 -1.107852388446384 3.1911857209629071 -3 -2.2253246846922492 2.366533744740174 -3 -0.91506351183037493 1.5849364925866429 0 -2.4999999999999991 4.3301270189221936 -3 -2.4999999999999991 4.3301270189221936 0 -4.3301270221112951 2.4999999944763132 0 -2.2253246846922492 2.366533744740174 -3 -1.107852388446384 3.1911857209629071 0 -1.107852388446384 3.1911857209629071 -3 -2.4999999999999991 4.3301270189221936 0 -2.2253246846922492 2.366533744740174 -3 -1.107852388446384 3.1911857209629071 0 -2.4999999999999991 4.3301270189221936 0 -2.2253246846922492 2.366533744740174 -3 -2.2253246846922492 2.366533744740174 0 -4.3301270221112951 2.4999999944763132 0 -5 -1.397247784140632e-08 0 -2.2735805010731909 0.22641949675281539 0 -2.2735805010731909 0.22641949675281539 -3 -4.3301270221112951 2.4999999944763132 0 -4.3301270221112951 2.4999999944763132 -3 -5 -1.397247784140632e-08 0 -2.2735805010731909 0.22641949675281539 -3 -4.3301270221112951 2.4999999944763132 0 -4.3301270221112951 2.4999999944763132 -3 -2.2735805010731909 0.22641949675281539 -3 -2.2253246846922492 2.366533744740174 -3 -4.3301270221112951 2.4999999944763132 -3 -5 -1.397247784140632e-08 -3 -5 -1.397247784140632e-08 0 -2.2735805010731909 0.22641949675281539 -3 -5 -1.397247784140632e-08 -3 -5 -1.397247784140632e-08 0 -2.2735805010731909 0.22641949675281539 -3 -2.9547160992544761 -1.820741508163664 -3 -5 -1.397247784140632e-08 -3 -5 -1.397247784140632e-08 0 -2.9547160992544761 -1.820741508163664 -3 -4.3301270160527148 -2.500000004970083 0 -5 -1.397247784140632e-08 0 -2.2735805010731909 0.22641949675281539 0 -2.2735805010731909 0.22641949675281539 -3 -2.9547160992544761 -1.820741508163664 -3 -5 -1.397247784140632e-08 0 -2.2735805010731909 0.22641949675281539 0 -2.9547160992544761 -1.820741508163664 -3 -2.9547160992544761 -1.820741508163664 0 -2.2735805010731909 0.22641949675281539 0 -2.2735805010731909 0.22641949675281539 -3 -0.66987297914647026 -2.499999999706382 -3 -2.9547160992544761 -1.820741508163664 -3 -2.2735805010731909 0.22641949675281539 0 -2.2735805010731909 0.22641949675281539 -3 0.20080558631870429 0.033909897404034287 -3 -0.66987297914647026 -2.499999999706382 -3 -2.2735805010731909 0.22641949675281539 0 -2.2735805010731909 0.22641949675281539 -3 0.20080558631870429 0.033909897404034287 -3 -0.91506351183037493 1.5849364925866429 -3 -2.2735805010731909 0.22641949675281539 0 -2.2735805010731909 0.22641949675281539 -3 -2.2253246846922492 2.366533744740174 -3 -0.91506351183037493 1.5849364925866429 -3 -1.107852388446384 3.1911857209629071 -3 -2.2253246846922492 2.366533744740174 -3 -0.91506351183037493 1.5849364925866429 0 -0.91506351183037493 1.5849364925866429 -3 -2.2735805010731909 0.22641949675281539 0 -2.2253246846922492 2.366533744740174 -3 -0.91506351183037493 1.5849364925866429 0 -0.91506351183037493 1.5849364925866429 -3 -1.107852388446384 3.1911857209629071 0 -2.2253246846922492 2.366533744740174 -3 -2.2253246846922492 2.366533744740174 0 -0.91506351183037493 1.5849364925866429 0 -4.3301270221112951 2.4999999944763132 0 -2.2735805010731909 0.22641949675281539 0 -2.2735805010731909 0.22641949675281539 -3 -2.2253246846922492 2.366533744740174 -3 -2.2735805010731909 0.22641949675281539 0 -2.2253246846922492 2.366533744740174 -3 -2.2253246846922492 2.366533744740174 0 -0.91506351183037493 1.5849364925866429 0 -4.3301270221112951 2.4999999944763132 0 -2.2735805010731909 0.22641949675281539 0 -2.2253246846922492 2.366533744740174 -3 -2.2253246846922492 2.366533744740174 0 0.37580157663508379 2.5408650916807378 0 -1.107852388446384 3.1911857209629071 -3 -0.91506351183037493 1.5849364925866429 0 -0.91506351183037493 1.5849364925866429 -3 0.37580157663508379 2.5408650916807378 0 -0.91506351183037493 1.5849364925866429 0 0.20080558631870429 0.033909897404034287 0 -0.91506351183037493 1.5849364925866429 -3 -2.2735805010731909 0.22641949675281539 0 -0.91506351183037493 1.5849364925866429 0 0.20080558631870429 0.033909897404034287 0 -0.91506351183037493 1.5849364925866429 -3 0.37580157663508379 2.5408650916807378 0 0.37580157663508379 2.5408650916807378 -3 0.20080558631870429 0.033909897404034287 0 -0.91506351183037493 1.5849364925866429 -3 -2.2735805010731909 0.22641949675281539 0 0.20080558631870429 0.033909897404034287 0 0.20080558631870429 0.033909897404034287 -3 -0.66987297914647026 -2.499999999706382 0 -2.2735805010731909 0.22641949675281539 0 0.20080558631870429 0.033909897404034287 0 0.20080558631870429 0.033909897404034287 -3 -0.91506351183037493 1.5849364925866429 -3 0.20080558631870429 0.033909897404034287 0 0.20080558631870429 0.033909897404034287 -3 0.95458002071209891 -1.657898275923388 -3 -0.66987297914647026 -2.499999999706382 0 -2.2735805010731909 0.22641949675281539 0 0.20080558631870429 0.033909897404034287 -3 -0.66987297914647026 -2.499999999706382 -3 -0.66987297914647026 -2.499999999706382 0 0.20080558631870429 0.033909897404034287 0 2.3883545080289421 -0.94497882694672608 0 0.95458002071209891 -1.657898275923388 -3 0.95458002071209891 -1.657898275923388 0 0.20080558631870429 0.033909897404034287 0 2.3883545080289421 -0.94497882694672608 0 0.20080558631870429 0.033909897404034287 -3 0.95458002071209891 -1.657898275923388 -3 0.20080558631870429 0.033909897404034287 0 2.3883545080289421 -0.94497882694672608 0 2.465848112410058 1.4099871989758821 -3 0.20080558631870429 0.033909897404034287 -3 0.20080558631870429 0.033909897404034287 0 2.3883545080289421 -0.94497882694672608 0 2.465848112410058 1.4099871989758821 0 2.465848112410058 1.4099871989758821 -3 2.4999999879139869 4.3301270259000564 0 0.37580157663508379 2.5408650916807378 0 2.465848112410058 1.4099871989758821 0 2.465848112410058 1.4099871989758821 -3 0.37580157663508379 2.5408650916807378 0 0.37580157663508379 2.5408650916807378 -3 0.20080558631870429 0.033909897404034287 0 2.465848112410058 1.4099871989758821 -3 0.37580157663508379 2.5408650916807378 0 0.20080558631870429 0.033909897404034287 0 2.465848112410058 1.4099871989758821 0 2.465848112410058 1.4099871989758821 -3 0.37580157663508379 2.5408650916807378 -3 0.20080558631870429 0.033909897404034287 0 2.465848112410058 1.4099871989758821 -3 0.20080558631870429 0.033909897404034287 -3 2.3883545080289421 -0.94497882694672608 0 2.465848112410058 1.4099871989758821 -3 2.3883545080289421 -0.94497882694672608 -3 0.20080558631870429 0.033909897404034287 -3 2.3883545080289421 -0.94497882694672608 0 2.3883545080289421 -0.94497882694672608 -3 0.20080558631870429 0.033909897404034287 -3 0.95458002071209891 -1.657898275923388 -3 0.37580157663508379 2.5408650916807378 0 -1.107852388446384 3.1911857209629071 -3 0.37580157663508379 2.5408650916807378 -3 -0.91506351183037493 1.5849364925866429 -3 0.37580157663508379 2.5408650916807378 -3 0.20080558631870429 0.033909897404034287 0 0.20080558631870429 0.033909897404034287 -3 -0.91506351183037493 1.5849364925866429 -3 0.37580157663508379 2.5408650916807378 -3 0.37580157663508379 2.5408650916807378 -6 0.20080558631870429 0.033909897404034287 -3 -0.91506351183037493 1.5849364925866429 -6 0.37580157663508379 2.5408650916807378 -6 0.20080558631870429 0.033909897404034287 -3 0.20080558631870429 0.033909897404034287 -6 -0.91506351183037493 1.5849364925866429 -6 0.37580157663508379 2.5408650916807378 -3 -1.107852388446384 3.1911857209629071 -6 0.37580157663508379 2.5408650916807378 -6 -0.91506351183037493 1.5849364925866429 -6 -2.2735805010731909 0.22641949675281539 -3 0.20080558631870429 0.033909897404034287 -3 -0.91506351183037493 1.5849364925866429 -3 -0.91506351183037493 1.5849364925866429 -6 0.37580157663508379 2.5408650916807378 -3 -1.107852388446384 3.1911857209629071 -6 -0.91506351183037493 1.5849364925866429 -3 -0.91506351183037493 1.5849364925866429 -6 0.37580157663508379 2.5408650916807378 -3 0.20080558631870429 0.033909897404034287 -3 -0.91506351183037493 1.5849364925866429 -3 -0.91506351183037493 1.5849364925866429 -6 0.20080558631870429 0.033909897404034287 -3 0.20080558631870429 0.033909897404034287 -6 0.95458002071209891 -1.657898275923388 -6 -0.66987297914647026 -2.499999999706382 -3 -2.2735805010731909 0.22641949675281539 -3 0.20080558631870429 0.033909897404034287 -6 -0.66987297914647026 -2.499999999706382 -6 -0.66987297914647026 -2.499999999706382 -3 -2.2735805010731909 0.22641949675281539 -3 0.20080558631870429 0.033909897404034287 -3 0.20080558631870429 0.033909897404034287 -6 -0.66987297914647026 -2.499999999706382 -3 -2.2735805010731909 0.22641949675281539 -3 0.20080558631870429 0.033909897404034287 -3 0.20080558631870429 0.033909897404034287 -6 -0.91506351183037493 1.5849364925866429 -6 2.3883545080289421 -0.94497882694672608 -3 0.20080558631870429 0.033909897404034287 -3 0.20080558631870429 0.033909897404034287 -6 0.95458002071209891 -1.657898275923388 -6 2.3883545080289421 -0.94497882694672608 -3 2.3883545080289421 -0.94497882694672608 -6 0.20080558631870429 0.033909897404034287 -6 0.95458002071209891 -1.657898275923388 -6 2.3883545080289421 -0.94497882694672608 -3 0.20080558631870429 0.033909897404034287 -3 0.95458002071209891 -1.657898275923388 -6 0.95458002071209891 -1.657898275923388 -3 2.3883545080289421 -0.94497882694672608 -3 0.20080558631870429 0.033909897404034287 -3 2.465848112410058 1.4099871989758821 -6 0.20080558631870429 0.033909897404034287 -6 2.3883545080289421 -0.94497882694672608 -3 2.465848112410058 1.4099871989758821 -6 2.3883545080289421 -0.94497882694672608 -6 0.20080558631870429 0.033909897404034287 -6 2.465848112410058 1.4099871989758821 -3 2.3883545080289421 -0.94497882694672608 -3 0.20080558631870429 0.033909897404034287 -3 2.465848112410058 1.4099871989758821 -6 0.37580157663508379 2.5408650916807378 -3 2.4999999879139869 4.3301270259000564 -3 2.465848112410058 1.4099871989758821 -3 2.465848112410058 1.4099871989758821 -6 0.37580157663508379 2.5408650916807378 -3 0.37580157663508379 2.5408650916807378 -6 0.20080558631870429 0.033909897404034287 -3 2.465848112410058 1.4099871989758821 -6 0.37580157663508379 2.5408650916807378 -6 0.20080558631870429 0.033909897404034287 -3 2.465848112410058 1.4099871989758821 -6 0.20080558631870429 0.033909897404034287 -6 0.37580157663508379 2.5408650916807378 -3 2.465848112410058 1.4099871989758821 -3 0.20080558631870429 0.033909897404034287 -3 2.465848112410058 1.4099871989758821 -6 2.465848112410058 1.4099871989758821 -9 0.37580157663508379 2.5408650916807378 -9 0.37580157663508379 2.5408650916807378 -6 0.20080558631870429 0.033909897404034287 -6 2.465848112410058 1.4099871989758821 -9 0.37580157663508379 2.5408650916807378 -6 2.4999999879139869 4.3301270259000564 -6 2.465848112410058 1.4099871989758821 -6 2.465848112410058 1.4099871989758821 -9 0.37580157663508379 2.5408650916807378 -6 2.465848112410058 1.4099871989758821 -6 0.20080558631870429 0.033909897404034287 -6 0.95458002071209891 -1.657898275923388 -9 0.20080558631870429 0.033909897404034287 -9 2.3883545080289421 -0.94497882694672608 -6 0.20080558631870429 0.033909897404034287 -6 0.95458002071209891 -1.657898275923388 -9 2.3883545080289421 -0.94497882694672608 -6 0.20080558631870429 0.033909897404034287 -6 0.95458002071209891 -1.657898275923388 -6 0.20080558631870429 0.033909897404034287 -9 2.465848112410058 1.4099871989758821 -9 2.3883545080289421 -0.94497882694672608 -6 0.20080558631870429 0.033909897404034287 -6 2.465848112410058 1.4099871989758821 -9 2.465848112410058 1.4099871989758821 -6 2.3883545080289421 -0.94497882694672608 -6 0.20080558631870429 0.033909897404034287 -6 -0.91506351183037493 1.5849364925866429 -9 0.20080558631870429 0.033909897404034287 -9 0.20080558631870429 0.033909897404034287 -6 -2.2735805010731909 0.22641949675281539 -6 0.20080558631870429 0.033909897404034287 -9 0.20080558631870429 0.033909897404034287 -6 -2.2735805010731909 0.22641949675281539 -6 -0.66987297914647026 -2.499999999706382 -6 -0.66987297914647026 -2.499999999706382 -9 0.20080558631870429 0.033909897404034287 -9 -2.2735805010731909 0.22641949675281539 -6 -0.66987297914647026 -2.499999999706382 -6 0.95458002071209891 -1.657898275923388 -9 0.20080558631870429 0.033909897404034287 -9 0.20080558631870429 0.033909897404034287 -6 -0.66987297914647026 -2.499999999706382 -6 -0.91506351183037493 1.5849364925866429 -9 -1.107852388446384 3.1911857209629071 -9 0.37580157663508379 2.5408650916807378 -6 -0.91506351183037493 1.5849364925866429 -6 -0.91506351183037493 1.5849364925866429 -9 0.20080558631870429 0.033909897404034287 -6 -0.91506351183037493 1.5849364925866429 -6 -2.2735805010731909 0.22641949675281539 -6 -0.91506351183037493 1.5849364925866429 -9 0.37580157663508379 2.5408650916807378 -9 0.37580157663508379 2.5408650916807378 -6 0.20080558631870429 0.033909897404034287 -6 -0.91506351183037493 1.5849364925866429 -9 0.37580157663508379 2.5408650916807378 -6 0.20080558631870429 0.033909897404034287 -6 -0.91506351183037493 1.5849364925866429 -6 -2.2253246846922492 2.366533744740174 -9 -2.2253246846922492 2.366533744740174 -6 -4.3301270221112951 2.4999999944763132 -6 -2.2735805010731909 0.22641949675281539 -6 -2.2253246846922492 2.366533744740174 -9 -1.107852388446384 3.1911857209629071 -6 -0.91506351183037493 1.5849364925866429 -6 -2.2253246846922492 2.366533744740174 -6 -2.2735805010731909 0.22641949675281539 -9 -2.2253246846922492 2.366533744740174 -9 -4.3301270221112951 2.4999999944763132 -6 -2.2735805010731909 0.22641949675281539 -6 -2.2253246846922492 2.366533744740174 -9 -0.91506351183037493 1.5849364925866429 -9 -0.91506351183037493 1.5849364925866429 -6 -2.2735805010731909 0.22641949675281539 -6 -2.2253246846922492 2.366533744740174 -9 -0.91506351183037493 1.5849364925866429 -6 -2.2253246846922492 2.366533744740174 -6 -2.2735805010731909 0.22641949675281539 -6 -2.2735805010731909 0.22641949675281539 -9 -4.3301270221112951 2.4999999944763132 -6 -5 -1.397247784140632e-08 -6 -2.2735805010731909 0.22641949675281539 -6 -2.2735805010731909 0.22641949675281539 -9 -4.3301270221112951 2.4999999944763132 -9 -4.3301270221112951 2.4999999944763132 -6 -5 -1.397247784140632e-08 -6 -4.3301270221112951 2.4999999944763132 -3 -5 -1.397247784140632e-08 -3 -2.2735805010731909 0.22641949675281539 -3 -2.2735805010731909 0.22641949675281539 -6 -4.3301270221112951 2.4999999944763132 -3 -2.2253246846922492 2.366533744740174 -6 -4.3301270221112951 2.4999999944763132 -6 -2.2735805010731909 0.22641949675281539 -6 -5 -1.397247784140632e-08 -3 -4.3301270221112951 2.4999999944763132 -6 -5 -1.397247784140632e-08 -6 -2.2735805010731909 0.22641949675281539 -6 -4.3301270221112951 2.4999999944763132 -3 -5 -1.397247784140632e-08 -3 -4.3301270221112951 2.4999999944763132 -6 -2.2735805010731909 0.22641949675281539 -6 -1.107852388446384 3.1911857209629071 -3 -2.2253246846922492 2.366533744740174 -3 -0.91506351183037493 1.5849364925866429 -3 -2.2253246846922492 2.366533744740174 -6 -4.3301270221112951 2.4999999944763132 -3 -2.2735805010731909 0.22641949675281539 -3 -2.2253246846922492 2.366533744740174 -3 -2.2253246846922492 2.366533744740174 -6 -1.107852388446384 3.1911857209629071 -6 -0.91506351183037493 1.5849364925866429 -3 -0.91506351183037493 1.5849364925866429 -6 -2.2253246846922492 2.366533744740174 -6 -2.2735805010731909 0.22641949675281539 -3 -2.2253246846922492 2.366533744740174 -3 -0.91506351183037493 1.5849364925866429 -3 -2.2253246846922492 2.366533744740174 -6 -2.2735805010731909 0.22641949675281539 -3 -0.91506351183037493 1.5849364925866429 -6 -2.2253246846922492 2.366533744740174 -6 -2.2735805010731909 0.22641949675281539 -6 -2.2735805010731909 0.22641949675281539 -3 -0.91506351183037493 1.5849364925866429 -3 -0.91506351183037493 1.5849364925866429 -6 -2.2253246846922492 2.366533744740174 -6 -4.3301270221112951 2.4999999944763132 -3 -2.2735805010731909 0.22641949675281539 -3 -2.2253246846922492 2.366533744740174 -6 -2.2735805010731909 0.22641949675281539 -6 -2.2735805010731909 0.22641949675281539 -3 0.20080558631870429 0.033909897404034287 -6 -2.2735805010731909 0.22641949675281539 -6 -0.66987297914647026 -2.499999999706382 -6 -2.2735805010731909 0.22641949675281539 -3 0.20080558631870429 0.033909897404034287 -6 -0.91506351183037493 1.5849364925866429 -6 -2.2735805010731909 0.22641949675281539 -6 -2.2735805010731909 0.22641949675281539 -3 -2.2735805010731909 0.22641949675281539 -6 -2.9547160992544761 -1.820741508163664 -6 -0.66987297914647026 -2.499999999706382 -6 -5 -1.397247784140632e-08 -3 -5 -1.397247784140632e-08 -6 -2.9547160992544761 -1.820741508163664 -6 -4.3301270160527148 -2.500000004970083 -3 -5 -1.397247784140632e-08 -3 -2.2735805010731909 0.22641949675281539 -3 -2.9547160992544761 -1.820741508163664 -6 -2.9547160992544761 -1.820741508163664 -3 -5 -1.397247784140632e-08 -3 -5 -1.397247784140632e-08 -6 -2.2735805010731909 0.22641949675281539 -6 -2.9547160992544761 -1.820741508163664 -6 -5 -1.397247784140632e-08 -3 -2.2735805010731909 0.22641949675281539 -3 -2.2735805010731909 0.22641949675281539 -6 -2.9547160992544761 -1.820741508163664 -6 -2.9547160992544761 -1.820741508163664 -9 -5 -1.397247784140632e-08 -9 -5 -1.397247784140632e-08 -6 -4.3301270160527148 -2.500000004970083 -6 -2.9547160992544761 -1.820741508163664 -9 -2.2735805010731909 0.22641949675281539 -9 -5 -1.397247784140632e-08 -6 -2.2735805010731909 0.22641949675281539 -6 -2.9547160992544761 -1.820741508163664 -9 -5 -1.397247784140632e-08 -6 -2.2735805010731909 0.22641949675281539 -6 -2.9547160992544761 -1.820741508163664 -6 -0.66987297914647026 -2.499999999706382 -9 -2.9547160992544761 -1.820741508163664 -9 -2.2735805010731909 0.22641949675281539 -6 -0.66987297914647026 -2.499999999706382 -6 -2.9547160992544761 -1.820741508163664 -9 -2.2735805010731909 0.22641949675281539 -6 -2.9547160992544761 -1.820741508163664 -6 -0.66987297914647026 -2.499999999706382 -6 -0.66987297914647026 -2.499999999706382 -9 -2.9547160992544761 -1.820741508163664 -9 -2.5000000000000022 -4.3301270189221919 -6 -0.66987297914647026 -2.499999999706382 -6 -2.9547160992544761 -1.820741508163664 -9 -2.9547160992544761 -1.820741508163664 -6 -2.5000000000000022 -4.3301270189221919 -6 -0.66987297914647026 -2.499999999706382 -6 -2.9547160992544761 -1.820741508163664 -9 -2.9547160992544761 -1.820741508163664 -6 -4.3301270160527148 -2.500000004970083 -6 -2.5000000000000022 -4.3301270189221919 -6 -2.9547160992544761 -1.820741508163664 -9 -5 -1.397247784140632e-08 -6 -2.9547160992544761 -1.820741508163664 -6 -4.3301270160527148 -2.500000004970083 -6 -4.3301270160527148 -2.500000004970083 -9 -2.9547160992544761 -1.820741508163664 -9 -4.3301270160527148 -2.500000004970083 -6 -2.5000000000000022 -4.3301270189221919 -6 -2.9547160992544761 -1.820741508163664 -6 -4.3301270160527148 -2.500000004970083 -6 -2.5000000000000022 -4.3301270189221919 -3 -4.3301270160527148 -2.500000004970083 -3 -5 -1.397247784140632e-08 -6 -2.9547160992544761 -1.820741508163664 -6 -4.3301270160527148 -2.500000004970083 -6 -4.3301270160527148 -2.500000004970083 -3 -5 -1.397247784140632e-08 -3 -2.9547160992544761 -1.820741508163664 -6 -2.9547160992544761 -1.820741508163664 -3 -4.3301270160527148 -2.500000004970083 -3 -2.9547160992544761 -1.820741508163664 -6 -2.5000000000000022 -4.3301270189221919 -3 -2.9547160992544761 -1.820741508163664 -3 -4.3301270160527148 -2.500000004970083 -3 -2.9547160992544761 -1.820741508163664 -6 -0.66987297914647026 -2.499999999706382 -3 -2.5000000000000022 -4.3301270189221919 -3 -2.9547160992544761 -1.820741508163664 -3 -2.2735805010731909 0.22641949675281539 -3 -2.9547160992544761 -1.820741508163664 -6 -0.66987297914647026 -2.499999999706382 -3 -2.9547160992544761 -1.820741508163664 -3 -2.9547160992544761 -1.820741508163664 -6 -0.66987297914647026 -2.499999999706382 -6 -0.66987297914647026 -2.499999999706382 -3 -2.5000000000000022 -4.3301270189221919 -3 -2.2735805010731909 0.22641949675281539 -3 -2.9547160992544761 -1.820741508163664 -6 -0.66987297914647026 -2.499999999706382 -6 -0.66987297914647026 -2.499999999706382 -3 -2.9547160992544761 -1.820741508163664 -6 -2.5000000000000022 -4.3301270189221919 -6 -0.66987297914647026 -2.499999999706382 -6 -2.5000000000000022 -4.3301270189221919 -3 -2.9547160992544761 -1.820741508163664 -6 -4.3301270160527148 -2.500000004970083 -6 -2.5000000000000022 -4.3301270189221919 -6 -2.5000000000000022 -4.3301270189221919 -3 -2.5000000000000022 -4.3301270189221919 -6 -0.66987297914647026 -2.499999999706382 -6 6.9142305214597846e-09 -5 -3 -2.5000000000000022 -4.3301270189221919 -3 -0.66987297914647026 -2.499999999706382 -9 -2.5000000000000022 -4.3301270189221919 -9 -2.5000000000000022 -4.3301270189221919 -6 6.9142305214597846e-09 -5 -6 0.91506351643986317 -3.4150635091400758 -9 -0.66987297914647026 -2.499999999706382 -9 6.9142305214597846e-09 -5 -6 -0.66987297914647026 -2.499999999706382 -6 -0.66987297914647026 -2.499999999706382 -9 -2.5000000000000022 -4.3301270189221919 -6 6.9142305214597846e-09 -5 -6 -0.66987297914647026 -2.499999999706382 -6 0.91506351643986317 -3.4150635091400758 -9 6.9142305214597846e-09 -5 -6 -0.66987297914647026 -2.499999999706382 -6 0.91506351643986317 -3.4150635091400758 -6 0.91506351643986317 -3.4150635091400758 -9 0.95458002071209891 -1.657898275923388 -9 -0.66987297914647026 -2.499999999706382 -6 0.91506351643986317 -3.4150635091400758 -6 0.95458002071209891 -1.657898275923388 -9 0.20080558631870429 0.033909897404034287 -6 -0.66987297914647026 -2.499999999706382 -6 0.95458002071209891 -1.657898275923388 -6 0.95458002071209891 -1.657898275923388 -9 -0.66987297914647026 -2.499999999706382 -6 0.95458002071209891 -1.657898275923388 -6 0.91506351643986317 -3.4150635091400758 -6 2.217625015551433 -2.5696135239339939 -9 2.3883545080289421 -0.94497882694672608 -6 2.217625015551433 -2.5696135239339939 -6 0.95458002071209891 -1.657898275923388 -6 0.95458002071209891 -1.657898275923388 -9 2.217625015551433 -2.5696135239339939 -9 2.3883545080289421 -0.94497882694672608 -6 0.95458002071209891 -1.657898275923388 -6 2.217625015551433 -2.5696135239339939 -9 2.217625015551433 -2.5696135239339939 -6 0.95458002071209891 -1.657898275923388 -6 0.91506351643986317 -3.4150635091400758 -6 0.95458002071209891 -1.657898275923388 -9 2.217625015551433 -2.5696135239339939 -9 0.95458002071209891 -1.657898275923388 -6 0.91506351643986317 -3.4150635091400758 -6 0.91506351643986317 -3.4150635091400758 -9 6.9142305214597846e-09 -5 -9 2.500000010727558 -4.3301270127286351 -6 6.9142305214597846e-09 -5 -6 0.91506351643986317 -3.4150635091400758 -9 2.500000010727558 -4.3301270127286351 -6 6.9142305214597846e-09 -5 -6 0.91506351643986317 -3.4150635091400758 -6 2.217625015551433 -2.5696135239339939 -9 2.500000010727558 -4.3301270127286351 -6 2.217625015551433 -2.5696135239339939 -6 0.91506351643986317 -3.4150635091400758 -6 0.91506351643986317 -3.4150635091400758 -9 2.217625015551433 -2.5696135239339939 -9 2.500000010727558 -4.3301270127286351 -6 0.91506351643986317 -3.4150635091400758 -6 2.500000010727558 -4.3301270127286351 -3 0.91506351643986317 -3.4150635091400758 -6 6.9142305214597846e-09 -5 -3 0.91506351643986317 -3.4150635091400758 -3 2.500000010727558 -4.3301270127286351 -6 2.500000010727558 -4.3301270127286351 -3 2.217625015551433 -2.5696135239339939 -6 0.91506351643986317 -3.4150635091400758 -6 2.500000010727558 -4.3301270127286351 -3 2.217625015551433 -2.5696135239339939 -6 0.91506351643986317 -3.4150635091400758 -6 0.91506351643986317 -3.4150635091400758 -3 2.500000010727558 -4.3301270127286351 -3 2.217625015551433 -2.5696135239339939 -6 2.217625015551433 -2.5696135239339939 -3 0.91506351643986317 -3.4150635091400758 -3 2.500000010727558 -4.3301270127286351 -6 2.500000010727558 -4.3301270127286351 -3 6.9142305214597846e-09 -5 -6 0.91506351643986317 -3.4150635091400758 -6 2.500000010727558 -4.3301270127286351 -3 6.9142305214597846e-09 -5 -6 0.91506351643986317 -3.4150635091400758 -6 6.9142305214597846e-09 -5 -3 2.217625015551433 -2.5696135239339939 -6 0.95458002071209891 -1.657898275923388 -6 0.95458002071209891 -1.657898275923388 -3 0.91506351643986317 -3.4150635091400758 -3 2.3883545080289421 -0.94497882694672608 -3 2.217625015551433 -2.5696135239339939 -6 0.95458002071209891 -1.657898275923388 -6 0.95458002071209891 -1.657898275923388 -3 2.3883545080289421 -0.94497882694672608 -3 2.3883545080289421 -0.94497882694672608 -6 2.217625015551433 -2.5696135239339939 -6 0.95458002071209891 -1.657898275923388 -6 2.3883545080289421 -0.94497882694672608 -3 2.217625015551433 -2.5696135239339939 -6 2.217625015551433 -2.5696135239339939 -3 0.95458002071209891 -1.657898275923388 -3 2.217625015551433 -2.5696135239339939 -6 2.217625015551433 -2.5696135239339939 -3 0.95458002071209891 -1.657898275923388 -3 0.91506351643986317 -3.4150635091400758 -3 2.217625015551433 -2.5696135239339939 -6 0.95458002071209891 -1.657898275923388 -6 0.91506351643986317 -3.4150635091400758 -6 0.91506351643986317 -3.4150635091400758 -3 0.20080558631870429 0.033909897404034287 -3 0.95458002071209891 -1.657898275923388 -6 -0.66987297914647026 -2.499999999706382 -3 0.95458002071209891 -1.657898275923388 -3 0.20080558631870429 0.033909897404034287 -6 -0.66987297914647026 -2.499999999706382 -6 0.95458002071209891 -1.657898275923388 -6 -0.66987297914647026 -2.499999999706382 -3 0.95458002071209891 -1.657898275923388 -6 -0.66987297914647026 -2.499999999706382 -3 0.95458002071209891 -1.657898275923388 -3 0.91506351643986317 -3.4150635091400758 -3 -0.66987297914647026 -2.499999999706382 -6 0.95458002071209891 -1.657898275923388 -6 0.91506351643986317 -3.4150635091400758 -6 -0.66987297914647026 -2.499999999706382 -3 0.95458002071209891 -1.657898275923388 -6 0.91506351643986317 -3.4150635091400758 -6 -0.66987297914647026 -2.499999999706382 -3 0.91506351643986317 -3.4150635091400758 -3 0.91506351643986317 -3.4150635091400758 -6 6.9142305214597846e-09 -5 -3 -0.66987297914647026 -2.499999999706382 -3 0.91506351643986317 -3.4150635091400758 -3 6.9142305214597846e-09 -5 -6 -0.66987297914647026 -2.499999999706382 -6 0.91506351643986317 -3.4150635091400758 -6 6.9142305214597846e-09 -5 -3 -0.66987297914647026 -2.499999999706382 -6 0.91506351643986317 -3.4150635091400758 -6 6.9142305214597846e-09 -5 -3 -0.66987297914647026 -2.499999999706382 -3 -2.5000000000000022 -4.3301270189221919 -6 6.9142305214597846e-09 -5 -6 -0.66987297914647026 -2.499999999706382 -6 6.9142305214597846e-09 -5 -3 -0.66987297914647026 -2.499999999706382 -6 6.9142305214597846e-09 -5 -3 -0.66987297914647026 -2.499999999706382 -3 -2.5000000000000022 -4.3301270189221919 -3 6.9142305214597846e-09 -5 -3 -0.66987297914647026 -2.499999999706382 -3 0.91506351643986317 -3.4150635091400758 -3 6.9142305214597846e-09 -5 0 6.9142305214597846e-09 -5 -3 -0.66987297914647026 -2.499999999706382 -3 6.9142305214597846e-09 -5 0 -2.5000000000000022 -4.3301270189221919 -3 -0.66987297914647026 -2.499999999706382 -3 0.95458002071209891 -1.657898275923388 -3 0.91506351643986317 -3.4150635091400758 -3 -0.66987297914647026 -2.499999999706382 0 0.20080558631870429 0.033909897404034287 -3 -0.66987297914647026 -2.499999999706382 -3 0.95458002071209891 -1.657898275923388 -3 -0.66987297914647026 -2.499999999706382 0 2.3883545080289421 -0.94497882694672608 0 2.3883545080289421 -0.94497882694672608 -3 2.217625015551433 -2.5696135239339939 -3 0.95458002071209891 -1.657898275923388 -3 2.217625015551433 -2.5696135239339939 -3 0.95458002071209891 -1.657898275923388 -3 0.91506351643986317 -3.4150635091400758 -3 0.91506351643986317 -3.4150635091400758 0 2.500000010727558 -4.3301270127286351 -3 2.500000010727558 -4.3301270127286351 0 2.217625015551433 -2.5696135239339939 -3 0.91506351643986317 -3.4150635091400758 -3 2.500000010727558 -4.3301270127286351 -3 2.500000010727558 -4.3301270127286351 0 6.9142305214597846e-09 -5 -3 0.91506351643986317 -3.4150635091400758 -3 2.500000010727558 -4.3301270127286351 0 2.217625015551433 -2.5696135239339939 -3 0.91506351643986317 -3.4150635091400758 0 2.217625015551433 -2.5696135239339939 0 2.500000010727558 -4.3301270127286351 0 2.217625015551433 -2.5696135239339939 -3 0.91506351643986317 -3.4150635091400758 -3 0.91506351643986317 -3.4150635091400758 0 2.500000010727558 -4.3301270127286351 0 0.91506351643986317 -3.4150635091400758 -3 0.91506351643986317 -3.4150635091400758 0 6.9142305214597846e-09 -5 0 2.500000010727558 -4.3301270127286351 0 6.9142305214597846e-09 -5 -3 0.91506351643986317 -3.4150635091400758 -3 6.9142305214597846e-09 -5 0 2.217625015551433 -2.5696135239339939 -3 0.91506351643986317 -3.4150635091400758 0 2.217625015551433 -2.5696135239339939 0 0.95458002071209891 -1.657898275923388 0 2.217625015551433 -2.5696135239339939 -3 0.95458002071209891 -1.657898275923388 -3 0.91506351643986317 -3.4150635091400758 0 0.95458002071209891 -1.657898275923388 0 2.3883545080289421 -0.94497882694672608 0 2.217625015551433 -2.5696135239339939 -3 2.217625015551433 -2.5696135239339939 0 0.95458002071209891 -1.657898275923388 0 2.3883545080289421 -0.94497882694672608 0 2.217625015551433 -2.5696135239339939 -3 0.95458002071209891 -1.657898275923388 -3 0.95458002071209891 -1.657898275923388 0 0.95458002071209891 -1.657898275923388 -3 0.91506351643986317 -3.4150635091400758 -3 0.91506351643986317 -3.4150635091400758 0 -0.66987297914647026 -2.499999999706382 0 0.95458002071209891 -1.657898275923388 -3 0.91506351643986317 -3.4150635091400758 0 0.95458002071209891 -1.657898275923388 0 -0.66987297914647026 -2.499999999706382 0 0.20080558631870429 0.033909897404034287 0 0.95458002071209891 -1.657898275923388 -3 0.95458002071209891 -1.657898275923388 0 -0.66987297914647026 -2.499999999706382 0 -0.66987297914647026 -2.499999999706382 -3 -0.66987297914647026 -2.499999999706382 0 6.9142305214597846e-09 -5 0 -2.5000000000000022 -4.3301270189221919 0 -0.66987297914647026 -2.499999999706382 -3 0.91506351643986317 -3.4150635091400758 -3 -0.66987297914647026 -2.499999999706382 0 6.9142305214597846e-09 -5 0 0.91506351643986317 -3.4150635091400758 -3 0.91506351643986317 -3.4150635091400758 0 -0.66987297914647026 -2.499999999706382 0 6.9142305214597846e-09 -5 0 -0.66987297914647026 -2.499999999706382 -3 6.9142305214597846e-09 -5 0 -2.5000000000000022 -4.3301270189221919 0 -2.5000000000000022 -4.3301270189221919 -3 -0.66987297914647026 -2.499999999706382 -3 -2.5000000000000022 -4.3301270189221919 0 -2.5000000000000022 -4.3301270189221919 -3 -2.9547160992544761 -1.820741508163664 -3 -2.5000000000000022 -4.3301270189221919 0 -2.5000000000000022 -4.3301270189221919 -3 -2.9547160992544761 -1.820741508163664 -3 -4.3301270160527148 -2.500000004970083 -3 -0.66987297914647026 -2.499999999706382 -3 -0.66987297914647026 -2.499999999706382 0 -2.5000000000000022 -4.3301270189221919 0 -2.9547160992544761 -1.820741508163664 -3 -0.66987297914647026 -2.499999999706382 0 -2.5000000000000022 -4.3301270189221919 0 -2.9547160992544761 -1.820741508163664 -3 -2.9547160992544761 -1.820741508163664 0 -2.2735805010731909 0.22641949675281539 0 -0.66987297914647026 -2.499999999706382 -3 -0.66987297914647026 -2.499999999706382 0 -2.9547160992544761 -1.820741508163664 -3 -2.2735805010731909 0.22641949675281539 0 -0.66987297914647026 -2.499999999706382 0 -2.9547160992544761 -1.820741508163664 -3 -2.9547160992544761 -1.820741508163664 0 -5 -1.397247784140632e-08 0 -2.9547160992544761 -1.820741508163664 -3 -2.9547160992544761 -1.820741508163664 0 -4.3301270160527148 -2.500000004970083 0 -2.5000000000000022 -4.3301270189221919 0 -2.9547160992544761 -1.820741508163664 -3 -2.9547160992544761 -1.820741508163664 0 -4.3301270160527148 -2.500000004970083 0 -2.5000000000000022 -4.3301270189221919 0 -2.9547160992544761 -1.820741508163664 -3 -4.3301270160527148 -2.500000004970083 0 -4.3301270160527148 -2.500000004970083 -3 -5 -1.397247784140632e-08 -3 -2.9547160992544761 -1.820741508163664 -3 -4.3301270160527148 -2.500000004970083 0 -4.3301270160527148 -2.500000004970083 -3 
</DataArray>
</Points>
<Cells>
<DataArray type="UInt32" Name="connectivity" format="ascii">
0 1 2 3 4 5 6 7 8 9 10 11 12 13 14 15 16 17 18 19 20 21 22 23 24 25 26 27 28 29 30 31 32 33 34 35 36 37 38 39 40 41 42 43 44 45 46 47 48 49 50 51 52 53 54 55 56 57 58 59 60 61 62 63 64 65 66 67 68 69 70 71 72 73 74 75 76 77 78 79 80 81 82 83 84 85 86 87 88 89 90 91 92 93 94 95 96 97 98 99 100 101 102 103 104 105 106 107 108 109 110 111 112 113 114 115 116 117 118 119 120 121 122 123 124 125 126 127 128 129 130 131 132 133 134 135 136 137 138 139 140 141 142 143 144 145 146 147 148 149 150 151 152 153 154 155 156 157 158 159 160 161 162 163 164 165 166 167 168 169 170 171 172 173 174 175 176 177 178 179 180 181 182 183 184 185 186 187 188 189 190 191 192 193 194 195 196 197 198 199 200 201 202 203 204 205 206 207 208 209 210 211 212 213 214 215 216 217 218 219 220 221 222 223 224 225 226 227 228 229 230 231 232 233 234 235 236 237 238 239 240 241 242 243 244 245 246 247 248 249 250 251 252 253 254 255 256 257 258 259 260 261 262 263 264 265 266 267 268 269 270 271 272 273 274 275 276 277 278 279 280 281 282 283 284 285 286 287 288 289 290 291 292 293 294 295 296 297 298 299 300 301 302 303 304 305 306 307 308 309 310 311 312 313 314 315 316 317 318 319 320 321 322 323 324 325 326 327 328 329 330 331 332 333 334 335 336 337 338 339 340 341 342 343 344 345 346 347 348 349 350 351 352 353 354 355 356 357 358 359 360 361 362 363 364 365 366 367 368 369 370 371 372 373 374 375 376 377 378 379 380 381 382 383 384 385 386 387 388 389 390 391 392 393 394 395 396 397 398 399 400 401 402 403 404 405 406 407 408 409 410 411 412 413 414 415 416 417 418 419 420 421 422 423 424 425 426 427 428 429 430 431 432 433 434 435 436 437 438 439 440 441 442 443 444 445 446 447 448 449 450 451 452 453 454 455 456 457 458 459 460 461 462 463 464 465 466 467 468 469 470 471 472 473 474 475 476 477 478 479 480 481 482 483 484 485 486 487 488 489 490 491 492 493 494 495 496 497 498 499 500 501 502 503 504 505 506 507 508 509 510 511 512 513 514 515 516 517 518 519 520 521 522 523 524 525 526 527 528 529 530 531 532 533 534 535 536 537 538 539 540 541 542 543 544 545 546 547 548 549 550 551 552 553 554 555 556 557 558 559 560 561 562 563 564 565 566 567 568 569 570 571 572 573 574 575 576 577 578 579 580 581 582 583 584 585 586 587 588 589 590 591 592 593 594 595 596 597 598 599 600 601 602 603 604 605 606 607 608 609 610 611 612 613 614 615 616 617 618 619 620 621 622 623 624 625 626 627 628 629 630 631 632 633 634 635 636 637 638 639 640 641 642 643 644 645 646 647 648 649 650 651 652 653 654 655 656 657 658 659 660 661 662 663 664 665 666 667 668 669 670 671 672 673 674 675 676 677 678 679 680 681 682 683 684 685 686 687 688 689 690 691 692 693 694 695 696 697 698 699 700 701 702 703 704 705 706 707 708 709 710 711 712 713 714 715 716 717 718 719 720 721 722 723 724 725 726 727 728 729 730 731 732 733 734 735 736 737 738 739 740 741 742 743 744 745 746 747 748 749 750 751 752 753 754 755 756 757 758 759 760 761 762 763 764 765 766 767 768 769 770 771 772 773 774 775 776 777 778 779 780 781 782 783 784 785 786 787 788 789 790 791 792 793 794 795 796 797 798 799 800 801 802 803 804 805 806 807 808 809 810 811 812 813 814 815 816 817 818 819 820 821 822 823 824 825 826 827 828 829 830 831 832 833 834 835 836 837 838 839 840 841 842 843 844 845 846 847 848 849 850 851 852 853 854 855 856 857 858 859 860 861 862 863 864 865 866 867 868 869 870 871 872 873 874 875 876 877 878 879 880 881 882 883 884 885 886 887 888 889 890 891 892 893 894 895 896 897 898 899 900 901 902 903 904 905 906 907 908 909 910 911 912 913 914 915 916 917 918 919 920 921 922 923 924 925 926 927 928 929 930 931 932 933 934 935 936 937 938 939 940 941 942 943 944 945 946 947 948 949 950 951 952 953 954 955 956 957 958 959 960 961 962 963 964 965 966 967 968 969 970 971 972 973 974 975 976 977 978 979 980 981 982 983 984 985 986 987 988 989 990 991 992 993 994 995 996 997 998 999 1000 1001 1002 1003 1004 1005 1006 1007 1008 1009 1010 1011 1012 1013 1014 1015 1016 1017 1018 1019 1020 1021 1022 1023 1024 1025 1026 1027 1028 1029 1030 1031 1032 1033 1034 1035 1036 1037 1038 1039 1040 1041 1042 1043 1044 1045 1046 1047 1048 1049 1050 1051 1052 1053 1054 1055 1056 1057 1058 1059 1060 1061 1062 1063 1064 1065 1066 1067 1068 1069 1070 1071 1072 1073 1074 1075 1076 1077 1078 1079 1080 1081 1082 1083 1084 1085 1086 1087 1088 1089 1090 1091 1092 1093 1094 1095 1096 1097 1098 1099 1100 1101 1102 1103 1104 1105 1106 1107 1108 1109 1110 1111 1112 1113 1114 1115 1116 1117 1118 1119 1120 1121 1122 1123 1124 1125 1126 1127 1128 1129 1130 1131 1132 1133 1134 1135 1136 1137 1138 1139 1140 1141 1142 1143 1144 1145 1146 1147 1148 1149 1150 1151 1152 1153 1154 1155 1156 1157 1158 1159 1160 1161 1162 1163 1164 1165 1166 1167 1168 1169 1170 1171 1172 1173 1174 1175 1176 1177 1178 1179 1180 1181 1182 1183 1184 1185 1186 1187 1188 1189 1190 1191 1192 1193 1194 1195 1196 1197 1198 1199 1200 1201 1202 1203 1204 1205 1206 1207 1208 1209 1210 1211 1212 1213 1214 1215 1216 1217 1218 1219 1220 1221 1222 1223 1224 1225 1226 1227 1228 1229 1230 1231 1232 1233 1234 1235 1236 1237 1238 1239 1240 1241 1242 1243 1244 1245 1246 1247 1248 1249 1250 1251 1252 1253 1254 1255 1256 1257 1258 1259 1260 1261 1262 1263 1264 1265 1266 1267 1268 1269 1270 1271 1272 1273 1274 1275 1276 1277 1278 1279 1280 1281 1282 1283 1284 1285 1286 1287 1288 1289 1290 1291 1292 1293 1294 1295 1296 1297 1298 1299 1300 1301 1302 1303 1304 1305 1306 1307 1308 1309 1310 1311 1312 1313 1314 1315 1316 1317 1318 1319 1320 1321 1322 1323 1324 1325 1326 1327 1328 1329 1330 1331 1332 1333 1334 1335 1336 1337 1338 1339 1340 1341 1342 1343 1344 1345 1346 1347 1348 1349 1350 1351 1352 1353 1354 1355 1356 1357 1358 1359 1360 1361 1362 1363 1364 1365 1366 1367 1368 1369 1370 1371 1372 1373 1374 1375 1376 1377 1378 1379 1380 1381 1382 1383 1384 1385 1386 1387 1388 1389 1390 1391 1392 1393 1394 1395 1396 1397 1398 1399 1400 1401 1402 1403 1404 1405 1406 1407 1408 1409 1410 1411 1412 1413 1414 1415 1416 1417 1418 1419 1420 1421 1422 1423 1424 1425 1426 1427 1428 1429 1430 1431 1432 1433 1434 1435 1436 1437 1438 1439 1440 1441 1442 1443 1444 1445 1446 1447 1448 1449 1450 1451 1452 1453 1454 1455 1456 1457 1458 1459 1460 1461 1462 1463 1464 1465 1466 1467 1468 1469 1470 1471 1472 1473 1474 1475 1476 1477 1478 1479 1480 1481 1482 1483 1484 1485 1486 1487 1488 1489 1490 1491 1492 1493 1494 1495 1496 1497 1498 1499 1500 1501 1502 1503 1504 1505 1506 1507 1508 1509 1510 1511 1512 1513 1514 1515 1516 1517 1518 1519 1520 1521 1522 1523 1524 1525 1526 1527 1528 1529 1530 1531 1532 1533 1534 1535 1536 1537 1538 1539 1540 1541 1542 1543 1544 1545 1546 1547 1548 1549 1550 1551 1552 1553 1554 1555 1556 1557 1558 1559 1560 1561 1562 1563 1564 1565 1566 1567 1568 1569 1570 1571 1572 1573 1574 1575 1576 1577 1578 1579 1580 1581 1582 1583 1584 1585 1586 1587 1588 1589 1590 1591 1592 1593 1594 1595 1596 1597 1598 1599 1600 1601 1602 1603 1604 1605 1606 1607 1608 1609 1610 1611 1612 1613 1614 1615 1616 1617 1618 1619 1620 1621 1622 1623 1624 1625 1626 1627 1628 1629 1630 1631 1632 1633 1634 1635 1636 1637 1638 1639 1640 1641 1642 1643 1644 1645 1646 1647 1648 1649 1650 1651 1652 1653 1654 1655 1656 1657 1658 1659 1660 1661 1662 1663 1664 1665 1666 1667 1668 1669 1670 1671 1672 1673 1674 1675 1676 1677 1678 1679 1680 1681 1682 1683 1684 1685 1686 1687 1688 1689 1690 1691 1692 1693 1694 1695 1696 1697 1698 1699 1700 1701 1702 1703 1704 1705 1706 1707 1708 1709 1710 1711 1712 1713 1714 1715 1716 1717 1718 1719 1720 1721 1722 1723 1724 1725 1726 1727 1728 1729 1730 1731 1732 1733 1734 1735 1736 1737 1738 1739 1740 1741 1742 1743 1744 1745 1746 1747 1748 1749 1750 1751 1752 1753 1754 1755 1756 1757 1758 1759 1760 1761 1762 1763 1764 1765 1766 1767 1768 1769 1770 1771 1772 1773 1774 1775 1776 1777 1778 1779 1780 1781 1782 1783 1784 1785 1786 1787 1788 1789 1790 1791 1792 1793 1794 1795 1796 1797 1798 1799 1800 1801 1802 1803 1804 1805 1806 1807 1808 1809 1810 1811 1812 1813 1814 1815 1816 1817 1818 1819 1820 1821 1822 1823 1824 1825 1826 1827 1828 1829 1830 1831 1832 1833 1834 1835 1836 1837 1838 1839 1840 1841 1842 1843 1844 1845 1846 1847 1848 1849 1850 1851 1852 1853 1854 1855 1856 1857 1858 1859 1860 1861 1862 1863 1864 1865 1866 1867 1868 1869 1870 1871 1872 1873 1874 1875 1876 1877 1878 1879 1880 1881 1882 1883 1884 1885 1886 1887 1888 1889 1890 1891 1892 1893 1894 1895 1896 1897 1898 1899 1900 1901 1902 1903 1904 1905 1906 1907 1908 1909 1910 1911 1912 1913 1914 1915 1916 1917 1918 1919 1920 1921 1922 1923 1924 1925 1926 1927 1928 1929 1930 1931 1932 1933 1934 1935 1936 1937 1938 1939 1940 1941 1942 1943 1944 1945 1946 1947 1948 1949 1950 1951 1952 1953 1954 1955 1956 1957 1958 1959 1960 1961 1962 1963 1964 1965 1966 1967 1968 1969 1970 1971 1972 1973 1974 1975 1976 1977 1978 1979 1980 1981 1982 1983 1984 1985 1986 1987 1988 1989 1990 1991 1992 1993 1994 1995 1996 1997 1998 1999 2000 2001 2002 2003 2004 2005 2006 2007 2008 2009 2010 2011 2012 2013 2014 2015 2016 2017 2018 2019 2020 2021 2022 2023 2024 2025 2026 2027 2028 2029 2030 2031 2032 2033 2034 2035 2036 2037 2038 2039 2040 2041 2042 2043 2044 2045 2046 2047 2048 2049 2050 2051 2052 2053 2054 2055 2056 2057 2058 2059 2060 2061 2062 2063 2064 2065 2066 2067 2068 2069 2070 2071 2072 2073 2074 2075 2076 2077 2078 2079 2080 2081 2082 2083 2084 2085 2086 2087 2088 2089 2090 2091 2092 2093 2094 2095 2096 2097 2098 2099 2100 2101 2102 2103 2104 2105 2106 2107 2108 2109 2110 2111 2112 2113 2114 2115 2116 2117 2118 2119 2120 2121 2122 2123 2124 2125 2126 2127 2128 2129 2130 2131 2132 2133 2134 2135 2136 2137 2138 2139 2140 2141 2142 2143 2144 2145 2146 2147 2148 2149 2150 2151 2152 2153 2154 2155 2156 2157 2158 2159 
</DataArray>
<DataArray type="UInt32" Name="offsets" format="ascii">
4 8 12 16 20 24 28 32 36 40 44 48 52 56 60 64 68 72 76 80 84 88 92 96 100 104 108 112 116 120 124 128 132 136 140 144 148 152 156 160 164 168 172 176 180 184 188 192 196 200 204 208 212 216 220 224 228 232 236 240 244 248 252 256 260 264 268 272 276 280 284 288 292 296 300 304 308 312 316 320 324 328 332 336 340 344 348 352 356 360 364 368 372 376 380 384 388 392 396 400 404 408 412 416 420 424 428 432 436 440 444 448 452 456 460 464 468 472 476 480 484 488 492 496 500 504 508 512 516 520 524 528 532 536 540 544 548 552 556 560 564 568 572 576 580 584 588 592 596 600 604 608 612 616 620 624 628 632 636 640 644 648 652 656 660 664 668 672 676 680 684 688 692 696 700 704 708 712 716 720 724 728 732 736 740 744 748 752 756 760 764 768 772 776 780 784 788 792 796 800 804 808 812 816 820 824 828 832 836 840 844 848 852 856 860 864 868 872 876 880 884 888 892 896 900 904 908 912 916 920 924 928 932 936 940 944 948 952 956 960 964 968 972 976 980 984 988 992 996 1000 1004 1008 1012 1016 1020 1024 1028 1032 1036 1040 1044 1048 1052 1056 1060 1064 1068 1072 1076 1080 1084 1088 1092 1096 1100 1104 1108 1112 1116 1120 1124 1128 1132 1136 1140 1144 1148 1152 1156 1160 1164 1168 1172 1176 1180 1184 1188 1192 1196 1200 1204 1208 1212 1216 1220 1224 1228 1232 1236 1240 1244 1248 1252 1256 1260 1264 1268 1272 1276 1280 1284 1288 1292 1296 1300 1304 1308 1312 1316 1320 1324 1328 1332 1336 1340 1344 1348 1352 1356 1360 1364 1368 1372 1376 1380 1384 1388 1392 1396 1400 1404 1408 1412 1416 1420 1424 1428 1432 1436 1440 1444 1448 1452 1456 1460 1464 1468 1472 1476 1480 1484 1488 1492 1496 1500 1504 1508 1512 1516 1520 1524 1528 1532 1536 1540 1544 1548 1552 1556 1560 1564 1568 1572 1576 1580 1584 1588 1592 1596 1600 1604 1608 1612 1616 1620 1624 1628 1632 1636 1640 1644 1648 1652 1656 1660 1664 1668 1672 1676 1680 1684 1688 1692 1696 1700 1704 1708 1712 1716 1720 1724 1728 1732 1736 1740 1744 1748 1752 1756 1760 1764 1768 1772 1776 1780 1784 1788 1792 1796 1800 1804 1808 1812 1816 1820 1824 1828 1832 1836 1840 1844 1848 1852 1856 1860 1864 1868 1872 1876 1880 1884 1888 1892 1896 1900 1904 1908 1912 1916 1920 1924 1928 1932 1936 1940 1944 1948 1952 1956 1960 1964 1968 1972 1976 1980 1984 1988 1992 1996 2000 2004 2008 2012 2016 2020 2024 2028 2032 2036 2040 2044 2048 2052 2056 2060 2064 2068 2072 2076 2080 2084 2088 2092 2096 2100 2104 2108 2112 2116 2120 2124 2128 2132 2136 2140 2144 2148 2152 2156 2160 
</DataArray>
<DataArray type="UInt32" Name="types" format="ascii">
10 10 10 10 10 10 10 10 10 10 10 10 10 10 10 10 10 10 10 10 10 10 10 10 10 10 10 10 10 10 10 10 10 10 10 10 10 10 10 10 10 10 10 10 10 10 10 10 10 10 10 10 10 10 10 10 10 10 10 10 10 10 10 10 10 10 10 10 10 10 10 10 10 10 10 10 10 10 10 10 10 10 10 10 10 10 10 10 10 10 10 10 10 10 10 10 10 10 10 10 10 10 10 10 10 10 10 10 10 10 10 10 10 10 10 10 10 10 10 10 10 10 10 10 10 10 10 10 10 10 10 10 10 10 10 10 10 10 10 10 10 10 10 10 10 10 10 10 10 10 10 10 10 10 10 10 10 10 10 10 10 10 10 10 10 10 10 10 10 10 10 10 10 10 10 10 10 10 10 10 10 10 10 10 10 10 10 10 10 10 10 10 10 10 10 10 10 10 10 10 10 10 10 10 10 10 10 10 10 10 10 10 10 10 10 10 10 10 10 10 10 10 10 10 10 10 10 10 10 10 10 10 10 10 10 10 10 10 10 10 10 10 10 10 10 10 10 10 10 10 10 10 10 10 10 10 10 10 10 10 10 10 10 10 10 10 10 10 10 10 10 10 10 10 10 10 10 10 10 10 10 10 10 10 10 10 10 10 10 10 10 10 10 10 10 10 10 10 10 10 10 10 10 10 10 10 10 10 10 10 10 10 10 10 10 10 10 10 10 10 10 10 10 10 10 10 10 10 10 10 10 10 10 10 10 10 10 10 10 10 10 10 10 10 10 10 10 10 10 10 10 10 10 10 10 10 10 10 10 10 10 10 10 10 10 10 10 10 10 10 10 10 10 10 10 10 10 10 10 10 10 10 10 10 10 10 10 10 10 10 10 10 10 10 10 10 10 10 10 10 10 10 10 10 10 10 10 10 10 10 10 10 10 10 10 10 10 10 10 10 10 10 10 10 10 10 10 10 10 10 10 10 10 10 10 10 10 10 10 10 10 10 10 10 10 10 10 10 10 10 10 10 10 10 10 10 10 10 10 10 10 10 10 10 10 10 10 10 10 10 10 10 10 10 10 10 10 10 10 10 10 10 10 10 10 10 10 10 10 10 10 10 10 10 10 10 10 10 10 10 10 10 10 10 10 10 10 10 10 10 10 10 10 10 10 10 10 10 10 10 10 10 10 10 10 10 10 10 10 10 10 10 10 10 10 10 10 10 10 10 
</DataArray>
</Cells>
<PointData Scalars="" Vectors="displacement," Tensors="">
<DataArray type="Float64" Name="displacement" NumberOfComponents="3" format="ascii">
-1.3343362178298839e-07 -1.9517222008477258e-08 -0.00025021885906523959 2.4515321134757557e-08 1.6152693604527901e-08 -1.8749941018175025e-07 -8.4335887261067157e-08 -2.3212682267073606e-08 -0.00025021818923031509 -1.2759872448062535e-07 4.9916605714703669e-08 -0.00025023836984579934 -1.3343362178298839e-07 -1.9517222008477258e-08 -0.00025021885906523959 2.4515321134757557e-08 1.6152693604527901e-08 -1.8749941018175025e-07 -8.4335887261067157e-08 -2.3212682267073606e-08 -0.00025021818923031509 -1.0075479614805987e-07 -8.6367729654234014e-08 -0.00025023334057784055 -1.3343362178298839e-07 -1.9517222008477258e-08 -0.00025021885906523959 -5.4630245180487013e-08 -3.5568358449268617e-08 -1.0558484463785498e-07 2.4515321134757557e-08 1.6152693604527905e-08 -1.8749941018175025e-07 -1.0075479614805987e-07 -8.6367729654234014e-08 -0.00025023334057784055 -1.3343362178298839e-07 -1.9517222008477258e-08 -0.00025021885906523959 -5.4630245180487013e-08 -3.5568358449268617e-08 -1.0558484463785498e-07 2.451532113475756e-08 1.6152693604527908e-08 -1.8749941018173688e-07 -5.2296045244082713e-08 -4.3714227390765877e-09 -2.4535997825997897e-07 2.4515321134757557e-08 1.6152693604527901e-08 -1.8749941018175025e-07 -2.6317448082748908e-09 1.1332133547768977e-08 -2.1468366827821809e-07 -4.0158129803957271e-08 -5.0913309092218995e-08 -0.00025020398731658662 -5.4682828235738334e-08 1.3878110235667989e-08 -0.00025020481773477797 2.4515321134757557e-08 1.6152693604527901e-08 -1.8749941018175025e-07 -1.007547961480599e-07 -8.6367729654234027e-08 -0.00025023334057784055 -2.631744808274885e-09 1.1332133547768975e-08 -2.1468366827823034e-07 -4.0158129803957225e-08 -5.0913309092218982e-08 -0.00025020398731658667 2.4515321134757557e-08 1.6152693604527901e-08 -1.8749941018175025e-07 -8.4335887261067157e-08 -2.3212682267073606e-08 -0.00025021818923031509 -4.0158129803957278e-08 -5.0913309092219021e-08 -0.00025020398731658662 -5.4682828235738347e-08 1.3878110235667997e-08 -0.00025020481773477797 2.4515321134757557e-08 1.6152693604527901e-08 -1.8749941018175025e-07 -8.4335887261067157e-08 -2.3212682267073606e-08 -0.00025021818923031509 -1.0075479614805988e-07 -8.6367729654234014e-08 -0.00025023334057784055 -4.0158129803957245e-08 -5.0913309092218982e-08 -0.00025020398731658662 -1.0075479614805987e-07 -8.6367729654234014e-08 -0.00025023334057784055 -2.465653486092273e-08 -4.6470926697839366e-08 -2.3441202298733709e-07 -2.6317448082748863e-09 1.1332133547768974e-08 -2.1468366827821809e-07 -5.1940922605725202e-08 -1.2724769608102507e-07 -0.00025020775848289862 2.4515321134757557e-08 1.6152693604527901e-08 -1.8749941018175025e-07 -1.0075479614805987e-07 -8.6367729654234014e-08 -0.00025023334057784055 -2.465653486092273e-08 -4.6470926697839366e-08 -2.3441202298733709e-07 -2.6317448082748908e-09 1.1332133547768977e-08 -2.1468366827821809e-07 -5.4630245180487013e-08 -3.5568358449268617e-08 -1.0558484463785498e-07 2.4515321134757553e-08 1.6152693604527905e-08 -1.8749941018175025e-07 -1.0075479614805987e-07 -8.6367729654234014e-08 -0.00025023334057784055 -2.465653486092273e-08 -4.6470926697839366e-08 -2.3441202298733709e-07 -2.465653486092273e-08 -4.6470926697839366e-08 -2.3441202298733709e-07 5.0248025428276164e-09 -5.2720988769596893e-08 -1.8098149882990931e-07 -2.6317448082748908e-09 1.1332133547768977e-08 -2.1468366827821809e-07 -5.1940922605725215e-08 -1.2724769608102507e-07 -0.00025020775848289868 5.0248025428276206e-09 -5.2720988769596893e-08 -1.8098149882988464e-07 -2.6317448082748908e-09 1.1332133547768977e-08 -2.1468366827821809e-07 -4.8807940062142155e-09 1.6546707956510988e-08 -9.7709441839130927e-08 -5.1940922605725202e-08 -1.2724769608102507e-07 -0.00025020775848289862 -2.6317448082748908e-09 1.1332133547768977e-08 -2.1468366827821809e-07 -4.8807940062142155e-09 1.6546707956510988e-08 -9.7709441839130927e-08 -4.0158129803957271e-08 -5.0913309092218995e-08 -0.00025020398731658662 -5.1940922605725202e-08 -1.2724769608102509e-07 -0.00025020775848289862 -2.6317448082748908e-09 1.1332133547768977e-08 -2.1468366827821809e-07 5.7103986720749905e-09 -9.1897550778564871e-09 -7.2571556168424389e-08 -4.0158129803957271e-08 -5.0913309092218995e-08 -0.00025020398731658662 3.7897867760152035e-09 2.5030873694781776e-09 -1.8649049614677524e-07 -2.6317448082748908e-09 1.1332133547768977e-08 -2.1468366827821809e-07 5.7103986720749905e-09 -9.1897550778564871e-09 -7.2571556168424389e-08 -4.8807940062142155e-09 1.6546707956510988e-08 -9.7709441839130927e-08 -4.0158129803957271e-08 -5.0913309092218995e-08 -0.00025020398731658662 5.7103986720749905e-09 -9.1897550778564871e-09 -7.2571556168424389e-08 -4.8807940062142155e-09 1.6546707956510988e-08 -9.7709441839130927e-08 -5.1093680292827441e-09 -8.4148504910969531e-08 -0.00025018507385985285 -4.0158129803957271e-08 -5.0913309092218995e-08 -0.00025020398731658662 5.7103986720749905e-09 -9.1897550778564871e-09 -7.2571556168424389e-08 -1.2701596961926429e-08 1.1314998331789183e-08 -9.8543762261358894e-08 1.2402619001852744e-08 -4.2729648551219601e-08 -0.00025018016554376296 5.3191931596592984e-08 -2.6643250054386397e-08 -0.00025019539615658544 5.7103986720749905e-09 -9.1897550778564871e-09 -7.2571556168424389e-08 -1.2701596961926429e-08 1.1314998331789183e-08 -9.8543762261358894e-08 5.3191931596592984e-08 -2.6643250054386397e-08 -0.00025019539615658544 -1.2601061664688893e-08 4.778130732620201e-09 -1.7697879554918639e-07 5.7103986720749905e-09 -9.1897550778564871e-09 -7.2571556168424389e-08 -1.2701596961926429e-08 1.1314998331789183e-08 -9.8543762261358894e-08 -5.1093680292827441e-09 -8.4148504910969531e-08 -0.00025018507385985285 1.2402619001852744e-08 -4.2729648551219601e-08 -0.00025018016554376296 5.7103986720749905e-09 -9.1897550778564871e-09 -7.2571556168424389e-08 -1.2701596961926429e-08 1.1314998331789183e-08 -9.8543762261358894e-08 -4.8807940062142155e-09 1.6546707956510988e-08 -9.7709441839130927e-08 -5.1093680292827441e-09 -8.4148504910969531e-08 -0.00025018507385985285 -1.2701596961926429e-08 1.1314998331789183e-08 -9.8543762261358894e-08 -4.8807940062142155e-09 1.6546707956510988e-08 -9.7709441839130927e-08 2.9118623287045493e-08 -4.4973803613250513e-08 -1.3795280591751469e-07 1.9424310872831488e-08 -1.3542569724697561e-07 -0.00025019745891852397 5.0248025428276206e-09 -5.2720988769596893e-08 -1.8098149882988464e-07 -4.8807940062142263e-09 1.6546707956511005e-08 -9.7709441839130914e-08 -5.1940922605725202e-08 -1.2724769608102507e-07 -0.00025020775848289862 1.9424310872831525e-08 -1.3542569724697564e-07 -0.00025019745891852397 5.0248025428276206e-09 -5.2720988769596893e-08 -1.8098149882988464e-07 -4.8807940062142213e-09 1.6546707956510995e-08 -9.7709441839143262e-08 2.9118623287045493e-08 -4.4973803613250513e-08 -1.3795280591751469e-07 1.9424310872831488e-08 -1.3542569724697561e-07 -0.00025019745891852397 -1.2701596961926429e-08 1.1314998331789183e-08 -9.8543762261358894e-08 -4.8807940062142155e-09 1.6546707956510988e-08 -9.7709441839130927e-08 -5.1093680292827441e-09 -8.4148504910969531e-08 -0.00025018507385985285 1.9424310872831488e-08 -1.3542569724697561e-07 -0.00025019745891852397 -4.8807940062142155e-09 1.6546707956510988e-08 -9.7709441839130927e-08 -5.1093680292827441e-09 -8.4148504910969531e-08 -0.00025018507385985285 -5.1940922605725202e-08 -1.2724769608102507e-07 -0.00025020775848289862 1.9424310872831488e-08 -1.3542569724697561e-07 -0.00025019745891852397 -1.2701596961926429e-08 1.1314998331789183e-08 -9.8543762261358894e-08 -5.1093680292827441e-09 -8.4148504910969531e-08 -0.00025018507385985285 3.6405868261279118e-08 -7.0375785438314704e-08 -0.00025018848977027521 1.9424310872831488e-08 -1.3542569724697561e-07 -0.00025019745891852397 -1.2701596961926429e-08 1.1314998331789183e-08 -9.8543762261358894e-08 3.6405868261279118e-08 -7.0375785438314704e-08 -0.00025018848977027521 1.2402619001852775e-08 -4.2729648551219574e-08 -0.00025018016554376296 5.3191931596592944e-08 -2.6643250054386383e-08 -0.00025019539615658544 -1.2701596961926429e-08 1.1314998331789183e-08 -9.8543762261358894e-08 -5.1093680292827441e-09 -8.4148504910969531e-08 -0.00025018507385985285 3.6405868261279118e-08 -7.0375785438314704e-08 -0.00025018848977027521 1.2402619001852744e-08 -4.2729648551219601e-08 -0.00025018016554376296 5.7103986720749905e-09 -9.1897550778564871e-09 -7.2571556168424389e-08 -5.1093680292827441e-09 -8.4148504910969531e-08 -0.00025018507385985285 1.2402619001852744e-08 -4.2729648551219601e-08 -0.00025018016554376296 -4.0158129803957271e-08 -5.0913309092218995e-08 -0.00025020398731658662 5.7103986720749905e-09 -9.1897550778564871e-09 -7.2571556168424389e-08 1.2402619001852744e-08 -4.2729648551219601e-08 -0.00025018016554376296 -4.0158129803957278e-08 -5.0913309092218968e-08 -0.00025020398731658656 4.6043480728712597e-09 -1.6725033280247221e-10 -0.00025019722382035105 -4.8807940062142155e-09 1.6546707956510988e-08 -9.7709441839130927e-08 -5.1093680292827441e-09 -8.4148504910969531e-08 -0.00025018507385985285 -4.0158129803957271e-08 -5.0913309092218995e-08 -0.00025020398731658662 -5.1940922605725202e-08 -1.2724769608102507e-07 -0.00025020775848289862 -1.0075479614805987e-07 -8.6367729654234014e-08 -0.00025023334057784055 -2.6317448082748892e-09 1.133213354776897e-08 -2.1468366827821809e-07 -4.0158129803957271e-08 -5.0913309092218995e-08 -0.00025020398731658662 -5.1940922605725202e-08 -1.2724769608102507e-07 -0.00025020775848289862 -5.1093680292827441e-09 -8.4148504910969531e-08 -0.00025018507385985285 -4.0158129803957271e-08 -5.0913309092218995e-08 -0.00025020398731658662 -5.1940922605725202e-08 -1.2724769608102507e-07 -0.00025020775848289862 1.3426711730289978e-08 -1.0928212300937195e-07 -0.00050024182634960843 -5.1093680292827441e-09 -8.4148504910969531e-08 -0.00025018507385985285 2.1584306972143467e-08 -7.3844905161841126e-08 -0.0005002370529161599 -1.7765106146084716e-08 -5.5700452428364355e-08 -0.00050024072853123826 1.3426711730289978e-08 -1.0928212300937195e-07 -0.00050024182634960843 -5.1093680292827441e-09 -8.4148504910969531e-08 -0.00025018507385985285 -4.0158129803957271e-08 -5.0913309092218995e-08 -0.00025020398731658662 -1.7765106146084716e-08 -5.5700452428364355e-08 -0.00050024072853123826 1.3426711730289978e-08 -1.0928212300937195e-07 -0.00050024182634960843 -4.0158129803957271e-08 -5.0913309092218995e-08 -0.00025020398731658662 -1.7765106146084716e-08 -5.5700452428364355e-08 -0.00050024072853123826 1.3426711730289978e-08 -1.0928212300937198e-07 -0.00050024182634960843 -4.4958437700168302e-08 -1.009190944261381e-07 -0.0005002514395811877 -1.0075479614805987e-07 -8.6367729654234014e-08 -0.00025023334057784055 -4.0158129803957271e-08 -5.0913309092219001e-08 -0.00025020398731658662 -5.1940922605725202e-08 -1.2724769608102507e-07 -0.00025020775848289862 1.3426711730289978e-08 -1.0928212300937195e-07 -0.00050024182634960843 1.2402619001852744e-08 -4.2729648551219601e-08 -0.00025018016554376296 -4.0158129803957271e-08 -5.0913309092218995e-08 -0.00025020398731658662 -1.7765106146084716e-08 -5.5700452428364355e-08 -0.00050024072853123826 4.6043480728712903e-09 -1.6725033280247614e-10 -0.00025019722382035105 -5.1093680292827441e-09 -8.4148504910969531e-08 -0.00025018507385985285 1.2402619001852744e-08 -4.2729648551219601e-08 -0.00025018016554376296 2.1584306972143467e-08 -7.3844905161841126e-08 -0.0005002370529161599 -1.7765106146084716e-08 -5.5700452428364355e-08 -0.00050024072853123826 1.2402619001852744e-08 -4.2729648551219601e-08 -0.00025018016554376296 2.1896277513137167e-08 -3.3947339917897608e-08 -0.00050023618606347066 -1.7765106146084723e-08 -5.5700452428364342e-08 -0.00050024072853123826 5.2853845691471938e-09 3.3970567883131924e-09 -0.00050024015922823682 -5.1093680292827441e-09 -8.4148504910969531e-08 -0.00025018507385985285 1.2402619001852744e-08 -4.2729648551219601e-08 -0.00025018016554376296 -4.0158129803957271e-08 -5.0913309092218995e-08 -0.00025020398731658662 -1.7765106146084716e-08 -5.5700452428364355e-08 -0.00050024072853123826 1.2402619001852744e-08 -4.2729648551219601e-08 -0.00025018016554376296 2.1584306972143467e-08 -7.3844905161841126e-08 -0.0005002370529161599 2.1896277513137167e-08 -3.3947339917897608e-08 -0.00050023618606347066 -1.7765106146084716e-08 -5.5700452428364355e-08 -0.00050024072853123826 3.6405868261279118e-08 -7.0375785438314704e-08 -0.00025018848977027521 2.1896277513137184e-08 -3.3947339917897588e-08 -0.00050023618606347066 5.1805934189053783e-08 -5.3007706777354918e-08 -0.00050023741773650798 5.4738989504757638e-08 -1.5673901793082759e-08 -0.00050024195025731371 3.6405868261279118e-08 -7.0375785438314704e-08 -0.00025018848977027521 1.2402619001852744e-08 -4.2729648551219601e-08 -0.00025018016554376296 5.4738989504757651e-08 -1.5673901793082779e-08 -0.00050024195025731371 5.3191931596592984e-08 -2.6643250054386397e-08 -0.00025019539615658544 3.6405868261279118e-08 -7.0375785438314704e-08 -0.00025018848977027521 1.2402619001852744e-08 -4.2729648551219601e-08 -0.00025018016554376296 2.189627751313719e-08 -3.3947339917897582e-08 -0.00050023618606347066 5.4738989504757631e-08 -1.5673901793082798e-08 -0.00050024195025731371 3.6405868261279118e-08 -7.0375785438314704e-08 -0.00025018848977027521 1.2402619001852744e-08 -4.2729648551219601e-08 -0.00025018016554376296 2.1584306972143467e-08 -7.3844905161841126e-08 -0.0005002370529161599 2.1896277513137167e-08 -3.3947339917897608e-08 -0.00050023618606347066 -5.1093680292827441e-09 -8.4148504910969531e-08 -0.00025018507385985285 3.6405868261279118e-08 -7.0375785438314704e-08 -0.00025018848977027521 1.2402619001852744e-08 -4.2729648551219601e-08 -0.00025018016554376296 2.1584306972143467e-08 -7.3844905161841126e-08 -0.0005002370529161599 3.6405868261279118e-08 -7.0375785438314704e-08 -0.00025018848977027521 2.1584306972143467e-08 -7.3844905161841126e-08 -0.0005002370529161599 2.1896277513137167e-08 -3.3947339917897608e-08 -0.00050023618606347066 5.1805934189053783e-08 -5.3007706777354911e-08 -0.00050023741773650798 -5.1093680292827441e-09 -8.4148504910969531e-08 -0.00025018507385985285 -5.1940922605725202e-08 -1.2724769608102507e-07 -0.00025020775848289862 1.9424310872831488e-08 -1.3542569724697561e-07 -0.00025019745891852397 6.6421005118981422e-08 -8.7910681369348247e-08 -0.00050023805451975315 -5.1093680292827441e-09 -8.4148504910969531e-08 -0.00025018507385985285 2.1584306972143467e-08 -7.3844905161841126e-08 -0.0005002370529161599 1.3426711730289978e-08 -1.0928212300937195e-07 -0.00050024182634960843 6.6421005118981422e-08 -8.7910681369348247e-08 -0.00050023805451975315 -5.1093680292827441e-09 -8.4148504910969531e-08 -0.00025018507385985285 -5.1940922605725202e-08 -1.2724769608102507e-07 -0.00025020775848289862 1.3426711730289978e-08 -1.0928212300937195e-07 -0.00050024182634960843 6.6421005118981422e-08 -8.7910681369348247e-08 -0.00050023805451975315 -5.1093680292827441e-09 -8.4148504910969531e-08 -0.00025018507385985285 3.6405868261279118e-08 -7.0375785438314704e-08 -0.00025018848977027521 2.1584306972143467e-08 -7.3844905161841126e-08 -0.0005002370529161599 6.6421005118981422e-08 -8.7910681369348247e-08 -0.00050023805451975315 -5.1093680292827441e-09 -8.4148504910969531e-08 -0.00025018507385985285 3.6405868261279118e-08 -7.0375785438314704e-08 -0.00025018848977027521 1.9424310872831488e-08 -1.3542569724697561e-07 -0.00025019745891852397 6.6421005118981422e-08 -8.7910681369348247e-08 -0.00050023805451975315 3.6405868261279118e-08 -7.0375785438314704e-08 -0.00025018848977027521 2.1584306972143467e-08 -7.3844905161841126e-08 -0.0005002370529161599 5.1805934189053783e-08 -5.3007706777354911e-08 -0.00050023741773650798 6.6421005118981422e-08 -8.7910681369348247e-08 -0.00050023805451975315 2.1584306972143467e-08 -7.3844905161841126e-08 -0.0005002370529161599 1.3426711730289978e-08 -1.0928212300937195e-07 -0.00050024182634960843 6.6421005118981422e-08 -8.7910681369348247e-08 -0.00050023805451975315 5.4070228974203986e-08 -9.7714605222722332e-08 -0.00075027448065851819 2.1584306972143467e-08 -7.3844905161841126e-08 -0.0005002370529161599 5.1805934189053783e-08 -5.3007706777354911e-08 -0.00050023741773650798 6.6421005118981422e-08 -8.7910681369348247e-08 -0.00050023805451975315 5.4070228974203986e-08 -9.7714605222722332e-08 -0.00075027448065851819 2.1584306972143467e-08 -7.3844905161841126e-08 -0.0005002370529161599 2.1896277513137167e-08 -3.3947339917897608e-08 -0.00050023618606347066 5.1805934189053783e-08 -5.3007706777354911e-08 -0.00050023741773650798 1.9442731937291601e-08 -7.5924905279544205e-08 -0.00075027448358013502 2.1896277513137167e-08 -3.3947339917897608e-08 -0.00050023618606347066 5.1805934189053783e-08 -5.3007706777354911e-08 -0.00050023741773650798 5.4738989504757651e-08 -1.5673901793082779e-08 -0.00050024195025731371 5.3657349993927476e-08 -1.9714371919960965e-08 -0.00075027713438148081 2.1584306972143467e-08 -7.3844905161841126e-08 -0.0005002370529161599 2.1896277513137167e-08 -3.3947339917897608e-08 -0.00050023618606347066 -1.7765106146084716e-08 -5.5700452428364355e-08 -0.00050024072853123826 -1.6514482485263137e-08 -5.5256771275308643e-08 -0.00075027529800877728 2.1896277513137167e-08 -3.3947339917897608e-08 -0.00050023618606347066 -1.7765106146084716e-08 -5.5700452428364355e-08 -0.00050024072853123826 5.2853845691472187e-09 3.397056788313197e-09 -0.00050024015922823682 -1.6514482485263137e-08 -5.5256771275308643e-08 -0.00075027529800877728 -1.7765106146084716e-08 -5.5700452428364355e-08 -0.00050024072853123826 1.3426711730289978e-08 -1.0928212300937195e-07 -0.00050024182634960843 -4.4958437700168322e-08 -1.009190944261381e-07 -0.0005002514395811877 -1.9359718673686108e-09 -1.1165202289930201e-07 -0.00075027482618200106 2.1584306972143467e-08 -7.3844905161841126e-08 -0.0005002370529161599 -1.7765106146084716e-08 -5.5700452428364355e-08 -0.00050024072853123826 1.3426711730289978e-08 -1.0928212300937195e-07 -0.00050024182634960843 -1.9359718673686067e-09 -1.1165202289930201e-07 -0.00075027482618200095 -1.7765106146084716e-08 -5.5700452428364355e-08 -0.00050024072853123826 -4.4958437700168328e-08 -1.009190944261381e-07 -0.0005002514395811877 -6.5684941231149977e-08 -4.3493554078238384e-08 -0.00050024544080531051 -5.717062538027873e-08 -9.5808382509300664e-08 -0.00075027800275263119 -4.4958437700168322e-08 -1.009190944261381e-07 -0.0005002514395811877 -8.7987132583379617e-08 -6.6310467107691322e-08 -0.00050024670278527895 -6.5684941231149977e-08 -4.3493554078238384e-08 -0.00050024544080531051 -5.717062538027873e-08 -9.5808382509300664e-08 -0.00075027800275263119 -1.0075479614805987e-07 -8.6367729654234014e-08 -0.00025023334057784055 -4.0158129803957265e-08 -5.0913309092218995e-08 -0.00025020398731658662 1.3426711730289985e-08 -1.0928212300937196e-07 -0.00050024182634960833 -4.4958437700168322e-08 -1.009190944261381e-07 -0.0005002514395811877 -8.4335887261067157e-08 -2.3212682267073606e-08 -0.00025021818923031509 -1.0075479614805987e-07 -8.6367729654234014e-08 -0.00025023334057784055 -4.0158129803957271e-08 -5.0913309092218995e-08 -0.00025020398731658662 -4.4958437700168322e-08 -1.009190944261381e-07 -0.0005002514395811877 -1.3343362178298839e-07 -1.9517222008477258e-08 -0.00025021885906523959 -8.4335887261067157e-08 -2.3212682267073603e-08 -0.00025021818923031509 -1.0075479614805987e-07 -8.6367729654234014e-08 -0.00025023334057784055 -4.4958437700168322e-08 -1.009190944261381e-07 -0.0005002514395811877 -8.4335887261067157e-08 -2.3212682267073606e-08 -0.00025021818923031509 -1.7765106146084697e-08 -5.5700452428364362e-08 -0.00050024072853123826 -6.5684941231149991e-08 -4.3493554078238384e-08 -0.00050024544080531062 -5.0934102876624431e-08 3.0311069729200363e-09 -0.00050024263371940445 -8.4335887261067157e-08 -2.3212682267073606e-08 -0.00025021818923031509 -1.7765106146084697e-08 -5.5700452428364329e-08 -0.00050024072853123826 -4.4958437700168335e-08 -1.0091909442613808e-07 -0.00050025143958118759 -6.5684941231149977e-08 -4.3493554078238384e-08 -0.00050024544080531051 -8.4335887261067157e-08 -2.3212682267073606e-08 -0.00025021818923031509 -4.0158129803957271e-08 -5.0913309092218995e-08 -0.00025020398731658662 -1.7765106146084716e-08 -5.5700452428364355e-08 -0.00050024072853123826 -4.4958437700168322e-08 -1.009190944261381e-07 -0.0005002514395811877 -8.4335887261067157e-08 -2.3212682267073606e-08 -0.00025021818923031509 -4.0158129803957271e-08 -5.0913309092218995e-08 -0.00025020398731658662 -1.7765106146084716e-08 -5.5700452428364355e-08 -0.00050024072853123826 -5.0934102876624418e-08 3.0311069729200318e-09 -0.00050024263371940445 -8.4335887261067157e-08 -2.3212682267073606e-08 -0.00025021818923031509 -4.4958437700168341e-08 -1.009190944261381e-07 -0.0005002514395811877 -8.7987132583379617e-08 -6.6310467107691335e-08 -0.00050024670278527895 -6.5684941231149977e-08 -4.3493554078238384e-08 -0.00050024544080531051 -1.3343362178298839e-07 -1.9517222008477258e-08 -0.00025021885906523959 -8.4335887261067157e-08 -2.3212682267073606e-08 -0.00025021818923031509 -4.4958437700168322e-08 -1.009190944261381e-07 -0.0005002514395811877 -8.7987132583379617e-08 -6.6310467107691322e-08 -0.00050024670278527895 -8.4335887261067157e-08 -2.3212682267073606e-08 -0.00025021818923031509 -8.7987132583379617e-08 -6.6310467107691322e-08 -0.00050024670278527895 -6.5684941231149977e-08 -4.3493554078238384e-08 -0.00050024544080531051 -1.0916642895289089e-07 -1.323886889226984e-08 -0.00050025384485882438 -1.3343362178298839e-07 -1.9517222008477258e-08 -0.00025021885906523959 -8.4335887261067157e-08 -2.3212682267073606e-08 -0.00025021818923031509 -8.7987132583379617e-08 -6.6310467107691322e-08 -0.00050024670278527895 -1.2759872448062535e-07 4.9916605714703669e-08 -0.00025023836984579934 -8.7987132583379617e-08 -6.6310467107691322e-08 -0.00050024670278527895 -6.5684941231149977e-08 -4.3493554078238384e-08 -0.00050024544080531051 -1.0916642895289089e-07 -1.323886889226984e-08 -0.00050025384485882438 -9.7770361242555886e-08 -5.4077178419457087e-08 -0.00075027636077553794 -1.7765106146084716e-08 -5.5700452428364355e-08 -0.00050024072853123826 -5.0934102876624418e-08 3.0311069729200318e-09 -0.00050024263371940445 5.2853845691472187e-09 3.397056788313197e-09 -0.00050024015922823682 -5.0696617651416056e-08 5.2387538274187112e-09 -0.00075027634798611033 -1.7765106146084716e-08 -5.5700452428364355e-08 -0.00050024072853123826 -6.5684941231149977e-08 -4.3493554078238384e-08 -0.00050024544080531051 -5.0934102876624418e-08 3.0311069729200318e-09 -0.00050024263371940445 -5.0696617651416056e-08 5.2387538274187161e-09 -0.00075027634798611033 -5.0934102876624418e-08 3.0311069729200318e-09 -0.00050024263371940445 -1.9840649268396649e-08 3.6185363355264606e-08 -0.00050023854284745304 5.2853845691472187e-09 3.397056788313197e-09 -0.00050024015922823682 -5.0696617651416062e-08 5.2387538274187103e-09 -0.00075027634798611022 -6.5684941231149977e-08 -4.3493554078238384e-08 -0.00050024544080531051 -5.0934102876624418e-08 3.0311069729200318e-09 -0.00050024263371940445 -1.0916642895289089e-07 -1.323886889226984e-08 -0.00050025384485882438 -1.1167807400759656e-07 1.937673861542046e-09 -0.00075027950081697943 -8.4335887261067157e-08 -2.3212682267073606e-08 -0.00025021818923031509 -6.5684941231149977e-08 -4.3493554078238384e-08 -0.00050024544080531051 -5.0934102876624418e-08 3.0311069729200326e-09 -0.00050024263371940445 -1.0916642895289089e-07 -1.323886889226984e-08 -0.00050025384485882438 -8.4335887261067157e-08 -2.3212682267073606e-08 -0.00025021818923031509 -1.0916642895289089e-07 -1.3238868892269855e-08 -0.00050025384485882448 -5.4682828235738334e-08 1.3878110235667989e-08 -0.00025020481773477797 -1.2759872448062535e-07 4.9916605714703669e-08 -0.00025023836984579934 -8.4335887261067157e-08 -2.3212682267073606e-08 -0.00025021818923031509 -5.0934102876624425e-08 3.0311069729200338e-09 -0.00050024263371940445 -1.0916642895289089e-07 -1.323886889226984e-08 -0.00050025384485882438 -5.4682828235738334e-08 1.3878110235667989e-08 -0.00025020481773477797 -8.4335887261067157e-08 -2.3212682267073606e-08 -0.00025021818923031509 -8.7987132583379617e-08 -6.6310467107691322e-08 -0.00050024670278527895 -1.0916642895289089e-07 -1.323886889226984e-08 -0.00050025384485882438 -1.2759872448062535e-07 4.9916605714703669e-08 -0.00025023836984579934 -8.4335887261067157e-08 -2.3212682267073606e-08 -0.00025021818923031509 -4.0158129803957271e-08 -5.0913309092218995e-08 -0.00025020398731658662 -5.0934102876624418e-08 3.0311069729200318e-09 -0.00050024263371940445 -5.4682828235738334e-08 1.3878110235667989e-08 -0.00025020481773477797 -5.0934102876624418e-08 3.0311069729200318e-09 -0.00050024263371940445 -7.0323720161295141e-09 4.0878294471338483e-08 -0.00025017992066521611 4.6043480728712953e-09 -1.6725033280249431e-10 -0.0002501972238203511 -5.4682828235738334e-08 1.3878110235667989e-08 -0.00025020481773477797 -4.0158129803957271e-08 -5.0913309092218995e-08 -0.00025020398731658662 -5.0934102876624405e-08 3.0311069729200351e-09 -0.00050024263371940467 4.6043480728712903e-09 -1.6725033280247614e-10 -0.00025019722382035105 -5.4682828235738334e-08 1.3878110235667989e-08 -0.00025020481773477797 -5.1288148520237277e-08 5.0052271352366144e-08 -0.00050023973668806502 -1.9840649268396649e-08 3.6185363355264606e-08 -0.00050023854284745304 -3.5776833965405153e-08 6.6278349887703606e-08 -0.00025019369361257754 -2.5387338449692557e-08 6.9260101139785379e-08 -0.00050024057265386627 -5.0934102876624418e-08 3.0311069729200318e-09 -0.00050024263371940445 -7.0323720161295256e-09 4.0878294471338516e-08 -0.00025017992066521605 -3.5776833965405153e-08 6.6278349887703606e-08 -0.00025019369361257754 -5.4682828235738334e-08 1.3878110235667989e-08 -0.00025020481773477797 -1.9840649268396649e-08 3.6185363355264606e-08 -0.00050023854284745304 -7.0323720161295141e-09 4.0878294471338483e-08 -0.00025017992066521611 -3.5776833965405153e-08 6.6278349887703606e-08 -0.00025019369361257754 -5.5060934953420149e-10 8.0959633821469437e-08 -0.00025019045422863893 -5.0934102876624418e-08 3.0311069729200318e-09 -0.00050024263371940445 -5.1288148520237277e-08 5.0052271352366144e-08 -0.00050023973668806502 -1.9840649268396649e-08 3.6185363355264606e-08 -0.00050023854284745304 -3.5776833965405153e-08 6.6278349887703606e-08 -0.00025019369361257754 -5.0934102876624418e-08 3.0311069729200318e-09 -0.00050024263371940445 -1.9840649268396649e-08 3.6185363355264606e-08 -0.00050023854284745304 -7.0323720161295141e-09 4.0878294471338483e-08 -0.00025017992066521611 -3.5776833965405153e-08 6.6278349887703606e-08 -0.00025019369361257754 -5.0934102876624418e-08 3.0311069729200318e-09 -0.00050024263371940445 -1.0132650205753619e-07 4.3164003287420103e-08 -0.00050024814242185134 -5.1288148520237277e-08 5.0052271352366144e-08 -0.00050023973668806502 -3.5776833965405153e-08 6.6278349887703606e-08 -0.00025019369361257754 -5.0934102876624418e-08 3.0311069729200318e-09 -0.00050024263371940445 -1.0132650205753618e-07 4.3164003287420103e-08 -0.00050024814242185134 -3.5776833965405153e-08 6.6278349887703606e-08 -0.00025019369361257754 -5.4682828235738334e-08 1.3878110235667989e-08 -0.00025020481773477797 -1.0916642895289089e-07 -1.323886889226984e-08 -0.00050025384485882438 -1.0132650205753619e-07 4.316400328742011e-08 -0.00050024814242185145 -5.4682828235738334e-08 1.3878110235667989e-08 -0.00025020481773477797 -8.514835034921272e-08 1.0636631122138996e-07 -0.00025022553726980506 -1.0916642895289089e-07 -1.323886889226984e-08 -0.00050025384485882438 -5.4682828235738347e-08 1.3878110235667966e-08 -0.00025020481773477802 -1.2759872448062535e-07 4.9916605714703669e-08 -0.00025023836984579934 -8.514835034921272e-08 1.0636631122138996e-07 -0.00025022553726980506 -5.0934102876624418e-08 3.0311069729200318e-09 -0.00050024263371940445 -1.0916642895289089e-07 -1.323886889226984e-08 -0.00050025384485882438 -1.0132650205753621e-07 4.316400328742009e-08 -0.00050024814242185134 -5.4682828235738334e-08 1.3878110235667989e-08 -0.00025020481773477797 -1.0132650205753621e-07 4.316400328742009e-08 -0.00050024814242185134 -3.5776833965405173e-08 6.6278349887703633e-08 -0.00025019369361257748 -5.4682828235738334e-08 1.3878110235667989e-08 -0.00025020481773477797 -8.514835034921272e-08 1.0636631122138996e-07 -0.00025022553726980506 -5.0934102876624418e-08 3.0311069729200318e-09 -0.00050024263371940445 -1.0916642895289089e-07 -1.323886889226984e-08 -0.00050025384485882438 -1.0132650205753621e-07 4.316400328742009e-08 -0.00050024814242185134 -1.1167807400759656e-07 1.937673861542046e-09 -0.00075027950081697943 -5.0934102876624418e-08 3.0311069729200318e-09 -0.00050024263371940445 -1.0132650205753619e-07 4.3164003287420103e-08 -0.00050024814242185134 -5.1288148520237277e-08 5.0052271352366144e-08 -0.00050023973668806502 -9.5745055182052635e-08 5.7469873842171481e-08 -0.00075027822164845236 -5.1288148520237277e-08 5.0052271352366144e-08 -0.00050023973668806502 -1.9840649268396649e-08 3.6185363355264606e-08 -0.00050023854284745304 -2.5387338449692557e-08 6.9260101139785379e-08 -0.00050024057265386627 -1.9290245833704362e-08 3.6140554617613586e-08 -0.00075027600330381536 -5.0934102876624418e-08 3.0311069729200318e-09 -0.00050024263371940445 -5.1288148520237277e-08 5.0052271352366144e-08 -0.00050023973668806502 -1.9840649268396649e-08 3.6185363355264606e-08 -0.00050023854284745304 -5.0696617651416062e-08 5.2387538274187103e-09 -0.00075027634798611022 -1.9840649268396649e-08 3.6185363355264606e-08 -0.00050023854284745304 5.2853845691472187e-09 3.397056788313197e-09 -0.00050024015922823682 1.2954140612465059e-08 5.6981952275973027e-08 -0.00050024586989985708 4.9011080589441071e-09 1.8464300177525696e-09 -0.00075027576101196331 -1.9840649268396649e-08 3.6185363355264606e-08 -0.00050023854284745304 1.2954140612465059e-08 5.6981952275973027e-08 -0.00050024586989985708 -2.5387338449692557e-08 6.9260101139785379e-08 -0.00050024057265386627 1.0865529838618745e-08 5.7025167892418236e-08 -0.00075027892243909305 5.2853845691472187e-09 3.397056788313197e-09 -0.00050024015922823682 5.4738989504757651e-08 -1.5673901793082779e-08 -0.00050024195025731371 5.7244326205538392e-08 3.4702527868837734e-08 -0.00050025570272997785 5.365734999392747e-08 -1.9714371919960965e-08 -0.0007502771343814807 2.1896277513137167e-08 -3.3947339917897608e-08 -0.00050023618606347066 5.2853845691472187e-09 3.397056788313197e-09 -0.00050024015922823682 5.4738989504757651e-08 -1.5673901793082775e-08 -0.00050024195025731371 5.3657349993927476e-08 -1.9714371919960965e-08 -0.00075027713438148081 5.2853845691472187e-09 3.397056788313197e-09 -0.00050024015922823682 5.7244326205538392e-08 3.4702527868837734e-08 -0.00050025570272997785 1.2954140612465059e-08 5.6981952275973027e-08 -0.00050024586989985708 4.9011080589441071e-09 1.8464300177525696e-09 -0.00075027576101196331 5.2853845691472187e-09 3.397056788313197e-09 -0.00050024015922823682 6.9850117026976313e-08 1.962309197798607e-08 -0.00025024114742290435 1.2954140612465059e-08 5.6981952275973027e-08 -0.00050024586989985708 3.7098643065528496e-08 5.4396534368923974e-08 -0.00025020751731104319 5.7244326205538392e-08 3.4702527868837734e-08 -0.00050025570272997785 6.9850117026976313e-08 1.962309197798607e-08 -0.00025024114742290435 4.4878124608134583e-08 1.0091049890921275e-07 -0.00050026551339588912 1.2954140612465059e-08 5.6981952275973027e-08 -0.00050024586989985708 5.2853845691472187e-09 3.397056788313197e-09 -0.00050024015922823682 5.7244326205538392e-08 3.4702527868837734e-08 -0.00050025570272997785 6.9850117026976313e-08 1.962309197798607e-08 -0.00025024114742290435 1.2954140612465059e-08 5.6981952275973027e-08 -0.00050024586989985708 5.2853845691472187e-09 3.397056788313197e-09 -0.00050024015922823682 4.6043480728712903e-09 -1.6725033280247614e-10 -0.00025019722382035105 6.9850117026976313e-08 1.9623091977986089e-08 -0.00025024114742290435 3.7098643065528503e-08 5.4396534368923974e-08 -0.00025020751731104324 1.2402619001852744e-08 -4.2729648551219601e-08 -0.00025018016554376296 5.4738989504757651e-08 -1.5673901793082779e-08 -0.00050024195025731371 4.6043480728712903e-09 -1.6725033280247614e-10 -0.00025019722382035105 5.3191931596592984e-08 -2.6643250054386397e-08 -0.00025019539615658544 1.2402619001852744e-08 -4.2729648551219601e-08 -0.00025018016554376296 5.2853845691472187e-09 3.397056788313197e-09 -0.00050024015922823682 5.4738989504757651e-08 -1.5673901793082779e-08 -0.00050024195025731371 4.6043480728712903e-09 -1.6725033280247614e-10 -0.00025019722382035105 5.2853845691472187e-09 3.397056788313197e-09 -0.00050024015922823682 5.4738989504757651e-08 -1.5673901793082779e-08 -0.00050024195025731371 5.7244326205538392e-08 3.4702527868837734e-08 -0.00050025570272997785 6.9850117026976313e-08 1.962309197798607e-08 -0.00025024114742290435 5.4738989504757651e-08 -1.5673901793082779e-08 -0.00050024195025731371 4.6043480728713019e-09 -1.6725033280249677e-10 -0.000250197223820351 5.3191931596592984e-08 -2.6643250054386397e-08 -0.00025019539615658544 6.9850117026976313e-08 1.962309197798607e-08 -0.00025024114742290435 5.2853845691472187e-09 3.397056788313197e-09 -0.00050024015922823682 5.4738989504757651e-08 -1.5673901793082779e-08 -0.00050024195025731371 4.6043480728712903e-09 -1.6725033280247614e-10 -0.00025019722382035105 6.9850117026976313e-08 1.962309197798607e-08 -0.00025024114742290435 1.2402619001852744e-08 -4.2729648551219601e-08 -0.00025018016554376296 2.1896277513137167e-08 -3.3947339917897608e-08 -0.00050023618606347066 5.2853845691472187e-09 3.397056788313197e-09 -0.00050024015922823682 5.4738989504757651e-08 -1.5673901793082779e-08 -0.00050024195025731371 -5.0934102876624418e-08 3.0311069729200318e-09 -0.00050024263371940445 5.2853845691472187e-09 3.397056788313197e-09 -0.00050024015922823682 -7.0323720161295141e-09 4.0878294471338483e-08 -0.00025017992066521611 4.6043480728712763e-09 -1.6725033280251639e-10 -0.00025019722382035094 -4.0158129803957271e-08 -5.0913309092218995e-08 -0.00025020398731658662 -1.7765106146084716e-08 -5.5700452428364355e-08 -0.00050024072853123826 -5.0934102876624451e-08 3.031106972920033e-09 -0.00050024263371940445 4.6043480728712903e-09 -1.6725033280247614e-10 -0.00025019722382035105 1.2402619001852744e-08 -4.2729648551219601e-08 -0.00025018016554376296 -1.77651061460847e-08 -5.5700452428364349e-08 -0.00050024072853123815 5.2853845691472005e-09 3.3970567883131908e-09 -0.00050024015922823682 4.6043480728712903e-09 -1.6725033280247614e-10 -0.00025019722382035105 -1.7765106146084716e-08 -5.5700452428364355e-08 -0.00050024072853123826 -5.0934102876624418e-08 3.0311069729200318e-09 -0.00050024263371940445 5.2853845691472187e-09 3.397056788313197e-09 -0.00050024015922823682 4.6043480728712903e-09 -1.6725033280247614e-10 -0.00025019722382035105 -5.0934102876624418e-08 3.0311069729200318e-09 -0.00050024263371940445 -1.9840649268396649e-08 3.6185363355264606e-08 -0.00050023854284745304 5.2853845691472187e-09 3.397056788313197e-09 -0.00050024015922823682 -7.0323720161295141e-09 4.0878294471338483e-08 -0.00025017992066521611 -1.9840649268396649e-08 3.6185363355264606e-08 -0.00050023854284745304 5.2853845691472187e-09 3.397056788313197e-09 -0.00050024015922823682 -7.0323720161295141e-09 4.0878294471338483e-08 -0.00025017992066521611 1.2954140612465059e-08 5.6981952275973027e-08 -0.00050024586989985708 5.2853845691472187e-09 3.397056788313197e-09 -0.00050024015922823682 -7.0323720161295124e-09 4.0878294471338476e-08 -0.00025017992066521611 4.6043480728712903e-09 -1.6725033280247606e-10 -0.00025019722382035105 3.7098643065528522e-08 5.4396534368923967e-08 -0.00025020751731104319 5.2853845691472187e-09 3.397056788313197e-09 -0.00050024015922823682 -7.0323720161295165e-09 4.0878294471338476e-08 -0.00025017992066521616 1.2954140612465059e-08 5.6981952275973027e-08 -0.00050024586989985708 3.7098643065528529e-08 5.4396534368923967e-08 -0.00025020751731104319 -1.9840649268396649e-08 3.6185363355264606e-08 -0.00050023854284745304 -7.0323720161295141e-09 4.0878294471338483e-08 -0.00025017992066521611 1.2954140612465059e-08 5.6981952275973027e-08 -0.00050024586989985708 -5.5060934953420149e-10 8.0959633821469437e-08 -0.00025019045422863893 -7.0323720161295141e-09 4.0878294471338483e-08 -0.00025017992066521611 1.2954140612465059e-08 5.6981952275973027e-08 -0.00050024586989985708 3.7098643065528483e-08 5.4396534368923974e-08 -0.00025020751731104319 -5.5060934953420149e-10 8.0959633821469437e-08 -0.00025019045422863893 -7.0323720161295141e-09 4.0878294471338483e-08 -0.00025017992066521611 4.6043480728712903e-09 -1.6725033280247614e-10 -0.00025019722382035105 -6.1942150567346529e-09 8.8918322772329379e-09 -6.9361774057422769e-08 -5.4682828235738334e-08 1.3878110235667989e-08 -0.00025020481773477797 -7.0323720161295141e-09 4.0878294471338483e-08 -0.00025017992066521611 4.6043480728712903e-09 -1.6725033280247614e-10 -0.00025019722382035105 -6.1942150567346529e-09 8.8918322772329379e-09 -6.9361774057422769e-08 3.7098643065528483e-08 5.439653436892398e-08 -0.00025020751731104319 -4.0158129803957271e-08 -5.0913309092218995e-08 -0.00025020398731658662 4.6043480728712903e-09 -1.6725033280247614e-10 -0.00025019722382035105 3.7897867760152035e-09 2.5030873694781776e-09 -1.8649049614677524e-07 -5.4682828235738334e-08 1.3878110235667989e-08 -0.00025020481773477797 4.6043480728712903e-09 -1.6725033280247614e-10 -0.00025019722382035105 5.3191931596592984e-08 -2.6643250054386397e-08 -0.00025019539615658544 6.9850117026976313e-08 1.962309197798607e-08 -0.00025024114742290435 -1.9810294987895858e-08 -1.3053250832188079e-08 -2.5384931543307949e-07 5.7103986720749905e-09 -9.1897550778564871e-09 -7.2571556168424389e-08 1.2402619001852744e-08 -4.2729648551219601e-08 -0.00025018016554376296 4.6043480728712903e-09 -1.6725033280247614e-10 -0.00025019722382035105 5.3191931596592984e-08 -2.6643250054386397e-08 -0.00025019539615658544 6.9850117026976313e-08 1.962309197798607e-08 -0.00025024114742290435 -1.9810294987895858e-08 -1.3053250832188079e-08 -2.5384931543307949e-07 1.0163471781892574e-07 8.6141561073571178e-08 -0.00025025732051554275 3.7098643065528483e-08 5.439653436892398e-08 -0.00025020751731104319 4.6043480728712903e-09 -1.6725033280247614e-10 -0.00025019722382035105 6.9850117026976313e-08 1.962309197798607e-08 -0.00025024114742290435 -1.9810294987895858e-08 -1.3053250832188079e-08 -2.5384931543307949e-07 3.7098643065528483e-08 5.439653436892398e-08 -0.00025020751731104319 4.6043480728712903e-09 -1.6725033280247614e-10 -0.00025019722382035105 -1.9810294987895861e-08 -1.3053250832188099e-08 -2.538493154330463e-07 3.7098643065528483e-08 5.439653436892398e-08 -0.00025020751731104319 -6.1794285836737756e-10 -1.3447575133262593e-08 -1.8495016867784373e-07 4.6043480728712903e-09 -1.6725033280247614e-10 -0.00025019722382035105 -1.9810294987895848e-08 -1.3053250832188078e-08 -2.538493154331327e-07 3.7897867760152035e-09 2.5030873694781784e-09 -1.8649049614678845e-07 -6.1794285836738397e-10 -1.3447575133262601e-08 -1.8495016867783031e-07 5.3191931596592984e-08 -2.6643250054386397e-08 -0.00025019539615658544 -1.9810294987895868e-08 -1.3053250832188081e-08 -2.5384931543305874e-07 -1.2601061664688893e-08 4.778130732620201e-09 -1.7697879554918639e-07 3.7897867760151969e-09 2.5030873694781768e-09 -1.8649049614677527e-07 5.7103986720749905e-09 -9.1897550778564871e-09 -7.2571556168424389e-08 4.6043480728712903e-09 -1.6725033280247614e-10 -0.00025019722382035105 5.3191931596592984e-08 -2.6643250054386397e-08 -0.00025019539615658544 3.7897867760152035e-09 2.5030873694781776e-09 -1.8649049614677524e-07 4.6043480728712903e-09 -1.6725033280247614e-10 -0.00025019722382035105 5.3191931596592984e-08 -2.6643250054386397e-08 -0.00025019539615658544 -1.9810294987895858e-08 -1.3053250832188079e-08 -2.5384931543307949e-07 3.7897867760152035e-09 2.5030873694781776e-09 -1.8649049614677524e-07 5.7103986720749905e-09 -9.1897550778564871e-09 -7.2571556168424389e-08 5.3191931596592984e-08 -2.6643250054386397e-08 -0.00025019539615658544 -1.2601061664688893e-08 4.778130732620201e-09 -1.7697879554918639e-07 3.7897867760152035e-09 2.5030873694781776e-09 -1.8649049614677524e-07 -2.6317448082748908e-09 1.1332133547768977e-08 -2.1468366827821809e-07 -4.0158129803957271e-08 -5.0913309092218995e-08 -0.00025020398731658662 3.7897867760152035e-09 2.5030873694781776e-09 -1.8649049614677524e-07 -5.4682828235738354e-08 1.3878110235668034e-08 -0.00025020481773477797 4.6043480728712903e-09 -1.6725033280247614e-10 -0.00025019722382035105 3.7897867760152035e-09 2.5030873694781776e-09 -1.8649049614677524e-07 -6.1942150567346529e-09 8.8918322772329379e-09 -6.9361774057422769e-08 -5.4682828235738334e-08 1.3878110235667989e-08 -0.00025020481773477797 5.7103986720749905e-09 -9.1897550778564871e-09 -7.2571556168424389e-08 -4.0158129803957238e-08 -5.0913309092218975e-08 -0.00025020398731658662 4.6043480728712639e-09 -1.6725033280249765e-10 -0.00025019722382035105 3.7897867760152035e-09 2.5030873694781776e-09 -1.8649049614677524e-07 4.6043480728712903e-09 -1.6725033280247614e-10 -0.00025019722382035105 -6.1942150567346446e-09 8.8918322772329478e-09 -6.9361774057493787e-08 3.7098643065528483e-08 5.439653436892398e-08 -0.00025020751731104319 -6.1794285836738345e-10 -1.3447575133262652e-08 -1.8495016867782986e-07 -6.1942150567346529e-09 8.8918322772329379e-09 -6.9361774057422769e-08 3.7098643065528483e-08 5.439653436892398e-08 -0.00025020751731104319 5.4298367917836255e-09 -1.6140606187425328e-08 -8.8469819575462514e-08 -6.1794285836737549e-10 -1.3447575133262603e-08 -1.8495016867783028e-07 -7.0323720161295141e-09 4.0878294471338483e-08 -0.00025017992066521611 -6.1942150567346529e-09 8.8918322772329379e-09 -6.9361774057422769e-08 3.7098643065528483e-08 5.439653436892398e-08 -0.00025020751731104319 5.4298367917836255e-09 -1.6140606187425332e-08 -8.8469819575457723e-08 4.6043480728712903e-09 -1.6725033280247614e-10 -0.00025019722382035105 3.7897867760152035e-09 2.5030873694781776e-09 -1.8649049614677524e-07 -6.1942150567346562e-09 8.8918322772329544e-09 -6.9361774057374779e-08 -6.1794285836736618e-10 -1.3447575133262621e-08 -1.8495016867783044e-07 -7.0323720161295141e-09 4.0878294471338483e-08 -0.00025017992066521611 -6.1942150567346529e-09 8.8918322772329379e-09 -6.9361774057422769e-08 1.3274554778910149e-08 -1.1032834448772298e-08 -1.0743404803177053e-07 -5.4682828235738334e-08 1.3878110235667989e-08 -0.00025020481773477797 -6.1942150567346529e-09 8.8918322772329379e-09 -6.9361774057422769e-08 1.3274554778910149e-08 -1.1032834448772298e-08 -1.0743404803177053e-07 -5.4682828235738334e-08 1.3878110235667986e-08 -0.00025020481773477797 9.3687500267599752e-09 -6.949235512310377e-09 -2.3280771182364185e-07 1.3274554778910149e-08 -1.1032834448772298e-08 -1.0743404803177053e-07 -5.4682828235738334e-08 1.3878110235667989e-08 -0.00025020481773477797 9.3687500267599752e-09 -6.949235512310377e-09 -2.3280771182364185e-07 -8.514835034921272e-08 1.0636631122138996e-07 -0.00025022553726980506 -7.0323720161295141e-09 4.0878294471338483e-08 -0.00025017992066521611 -6.1942150567346529e-09 8.8918322772329379e-09 -6.9361774057422769e-08 1.3274554778910149e-08 -1.1032834448772298e-08 -1.0743404803177053e-07 5.4298367917836255e-09 -1.6140606187425332e-08 -8.8469819575457723e-08 -7.0323720161295141e-09 4.0878294471338483e-08 -0.00025017992066521611 1.3274554778910144e-08 -1.103283444877229e-08 -1.0743404803177053e-07 -3.5776833965405153e-08 6.6278349887703606e-08 -0.00025019369361257754 -5.4682828235738334e-08 1.3878110235667989e-08 -0.00025020481773477797 1.3274554778910149e-08 -1.1032834448772298e-08 -1.0743404803177053e-07 -3.5776833965405153e-08 6.6278349887703606e-08 -0.00025019369361257754 -5.4682828235738334e-08 1.3878110235667989e-08 -0.00025020481773477797 -8.514835034921272e-08 1.0636631122138996e-07 -0.00025022553726980506 -7.0323720161295141e-09 4.0878294471338483e-08 -0.00025017992066521611 1.3274554778910137e-08 -1.1032834448772296e-08 -1.0743404803177053e-07 -3.5776833965405153e-08 6.6278349887703606e-08 -0.00025019369361257754 -5.5060934953420149e-10 8.0959633821469437e-08 -0.00025019045422863893 2.4515321134757557e-08 1.6152693604527901e-08 -1.8749941018175025e-07 -2.6317448082748908e-09 1.1332133547768977e-08 -2.1468366827821809e-07 -5.4682828235738334e-08 1.3878110235667989e-08 -0.00025020481773477797 9.3687500267599752e-09 -6.949235512310377e-09 -2.3280771182364185e-07 3.7897867760152035e-09 2.5030873694781776e-09 -1.8649049614677524e-07 -6.1942150567346529e-09 8.8918322772329379e-09 -6.9361774057422769e-08 -5.4682828235738334e-08 1.3878110235667992e-08 -0.00025020481773477797 9.3687500267599752e-09 -6.949235512310377e-09 -2.3280771182364185e-07 -2.6317448082748908e-09 1.1332133547768977e-08 -2.1468366827821809e-07 3.7897867760152035e-09 2.5030873694781776e-09 -1.8649049614677524e-07 -5.468282823573836e-08 1.3878110235667997e-08 -0.00025020481773477808 9.3687500267599752e-09 -6.949235512310377e-09 -2.3280771182364185e-07 -1.3343362178298839e-07 -1.9517222008477258e-08 -0.00025021885906523959 2.4515321134757504e-08 1.6152693604527829e-08 -1.8749941018169898e-07 -5.2296045244082753e-08 -4.3714227390766183e-09 -2.4535997825995118e-07 -1.2759872448062535e-07 4.9916605714703669e-08 -0.00025023836984579934 2.4515321134757557e-08 1.6152693604527901e-08 -1.8749941018175025e-07 -5.468282823573836e-08 1.3878110235667994e-08 -0.00025020481773477797 9.3687500267599752e-09 -6.949235512310377e-09 -2.3280771182364185e-07 -1.2759872448062535e-07 4.9916605714703669e-08 -0.00025023836984579934 2.4515321134757557e-08 1.6152693604527901e-08 -1.8749941018175025e-07 9.3687500267599752e-09 -6.949235512310377e-09 -2.3280771182364185e-07 -5.2296045244082773e-08 -4.3714227390766232e-09 -2.4535997825997892e-07 -1.2759872448062535e-07 4.9916605714703669e-08 -0.00025023836984579934 2.4515321134757557e-08 1.6152693604527901e-08 -1.8749941018175025e-07 -8.4335887261067157e-08 -2.3212682267073606e-08 -0.00025021818923031509 -5.4682828235738341e-08 1.3878110235667991e-08 -0.00025020481773477797 -1.2759872448062535e-07 4.9916605714703669e-08 -0.00025023836984579934 -5.4682828235738334e-08 1.3878110235667989e-08 -0.00025020481773477797 9.3687500267599752e-09 -6.949235512310377e-09 -2.3280771182364185e-07 -1.2759872448062535e-07 4.9916605714703669e-08 -0.00025023836984579934 -8.514835034921272e-08 1.0636631122138996e-07 -0.00025022553726980506 9.3687500267599752e-09 -6.949235512310377e-09 -2.3280771182364185e-07 -5.2296045244082773e-08 -4.3714227390766232e-09 -2.4535997825997892e-07 -1.2759872448062535e-07 4.9916605714703669e-08 -0.00025023836984579934 -4.6484176300298668e-08 2.565667048407922e-08 -2.4541158876294641e-07 9.3687500267599752e-09 -6.949235512310377e-09 -2.3280771182364185e-07 -1.2759872448062535e-07 4.9916605714703669e-08 -0.00025023836984579934 -8.5148350349212707e-08 1.0636631122138998e-07 -0.00025022553726980511 -4.6484176300298668e-08 2.565667048407922e-08 -2.4541158876294641e-07 1.3274554778910149e-08 -1.1032834448772298e-08 -1.0743404803177053e-07 9.3687500267599752e-09 -6.949235512310377e-09 -2.3280771182364185e-07 -8.514835034921272e-08 1.0636631122138996e-07 -0.000250225537269805 -4.6484176300298668e-08 2.565667048407922e-08 -2.4541158876294641e-07 1.3274554778910149e-08 -1.1032834448772298e-08 -1.0743404803177053e-07 -8.514835034921272e-08 1.0636631122138996e-07 -0.000250225537269805 -4.6484176300298668e-08 2.565667048407922e-08 -2.4541158876294641e-07 -2.9779776082134168e-08 4.4554549426015594e-08 -1.4612564950150514e-07 -7.0323720161295141e-09 4.0878294471338483e-08 -0.00025017992066521611 1.3274554778910139e-08 -1.1032834448772351e-08 -1.0743404803169425e-07 -5.5060934953420077e-10 8.0959633821469437e-08 -0.00025019045422863893 5.4298367917836255e-09 -1.6140606187425332e-08 -8.8469819575457723e-08 1.3274554778910149e-08 -1.1032834448772298e-08 -1.0743404803177053e-07 -8.514835034921276e-08 1.0636631122138995e-07 -0.000250225537269805 -2.9779776082134168e-08 4.4554549426015594e-08 -1.4612564950150514e-07 -1.9503380667922353e-08 1.3539519295709028e-07 -0.00025020222819322982 1.3274554778910149e-08 -1.1032834448772298e-08 -1.0743404803177053e-07 -2.9779776082134168e-08 4.4554549426015601e-08 -1.4612564950151748e-07 -1.9503380667922419e-08 1.353951929570903e-07 -0.00025020222819322982 5.4298367917836255e-09 -1.6140606187425332e-08 -8.8469819575457723e-08 1.3274554778910149e-08 -1.1032834448772298e-08 -1.0743404803177053e-07 -1.9503380667922419e-08 1.353951929570903e-07 -0.00025020222819322982 -5.5060934953420097e-10 8.0959633821469437e-08 -0.00025019045422863893 5.4298367917836255e-09 -1.6140606187425332e-08 -8.8469819575457723e-08 -2.9779776082134168e-08 4.4554549426015594e-08 -1.4612564950150514e-07 -1.9503380667922419e-08 1.353951929570903e-07 -0.00025020222819322982 5.4298367917836296e-09 -1.6140606187425348e-08 -8.8469819575457696e-08 -3.9995650759356068e-09 5.3151282975865217e-08 -2.0220333290386059e-07 1.3274554778910149e-08 -1.1032834448772298e-08 -1.0743404803177053e-07 -3.5776833965405153e-08 6.6278349887703606e-08 -0.00025019369361257754 -1.9503380667922425e-08 1.3539519295709033e-07 -0.00025020222819322982 -5.5060934953420149e-10 8.0959633821469437e-08 -0.00025019045422863893 1.3274554778910149e-08 -1.1032834448772298e-08 -1.0743404803177053e-07 -3.5776833965405153e-08 6.6278349887703606e-08 -0.00025019369361257754 -8.514835034921272e-08 1.0636631122138992e-07 -0.00025022553726980506 -1.9503380667922392e-08 1.353951929570903e-07 -0.00025020222819322982 -1.0132650205753621e-07 4.316400328742009e-08 -0.00050024814242185134 -3.5776833965405153e-08 6.6278349887703606e-08 -0.00025019369361257754 -8.514835034921272e-08 1.0636631122138996e-07 -0.00025022553726980506 -1.9503380667922419e-08 1.353951929570903e-07 -0.00025020222819322982 -1.9503380667922419e-08 1.353951929570903e-07 -0.00025020222819322982 -6.6338940277642951e-08 8.7950496210855938e-08 -0.00050024100496393596 5.2027495737938441e-08 1.272352013372134e-07 -0.00025022351707991257 -5.5060934953420149e-10 8.0959633821469437e-08 -0.00025019045422863893 -1.9840649268396649e-08 3.6185363355264606e-08 -0.00050023854284745304 -3.57768339654051e-08 6.6278349887703606e-08 -0.00025019369361257748 -2.5387338449692564e-08 6.9260101139785379e-08 -0.00050024057265386638 -5.5060934953420149e-10 8.0959633821469437e-08 -0.00025019045422863893 -1.0132650205753621e-07 4.316400328742009e-08 -0.00050024814242185134 -3.5776833965405146e-08 6.6278349887703606e-08 -0.00025019369361257748 -1.9503380667922419e-08 1.353951929570903e-07 -0.00025020222819322982 -6.6338940277642951e-08 8.7950496210855938e-08 -0.00050024100496393596 -1.0132650205753621e-07 4.316400328742009e-08 -0.00050024814242185134 -5.1288148520237277e-08 5.0052271352366144e-08 -0.00050023973668806502 -3.5776833965405153e-08 6.6278349887703606e-08 -0.00025019369361257754 -6.6338940277642951e-08 8.7950496210855938e-08 -0.00050024100496393596 -5.1288148520237277e-08 5.0052271352366144e-08 -0.00050023973668806502 -3.5776833965405153e-08 6.6278349887703606e-08 -0.00025019369361257754 -6.6338940277642951e-08 8.7950496210855938e-08 -0.00050024100496393596 -2.5387338449692557e-08 6.9260101139785379e-08 -0.00050024057265386627 -3.5776833965405153e-08 6.6278349887703606e-08 -0.00025019369361257754 -1.9503380667922419e-08 1.353951929570903e-07 -0.00025020222819322982 -6.6338940277642951e-08 8.7950496210855938e-08 -0.00050024100496393596 -5.5060934953420149e-10 8.0959633821469437e-08 -0.00025019045422863893 -3.5776833965405153e-08 6.6278349887703606e-08 -0.00025019369361257754 -6.6338940277642951e-08 8.7950496210855951e-08 -0.00050024100496393596 -2.5387338449692561e-08 6.9260101139785379e-08 -0.00050024057265386627 -5.5060934953420149e-10 8.0959633821469437e-08 -0.00025019045422863893 -6.6338940277642951e-08 8.7950496210855938e-08 -0.00050024100496393596 -1.3462519747498104e-08 1.0928000439040647e-07 -0.00050025034434477268 -2.5387338449692557e-08 6.9260101139785379e-08 -0.00050024057265386627 -5.4063947514565865e-08 9.7721173476500923e-08 -0.00075027603226225908 -5.1288148520237277e-08 5.0052271352366144e-08 -0.00050023973668806502 -6.6338940277642951e-08 8.7950496210855938e-08 -0.00050024100496393596 -2.5387338449692557e-08 6.9260101139785379e-08 -0.00050024057265386627 -5.4063947514565865e-08 9.7721173476500923e-08 -0.00075027603226225908 -1.0132650205753621e-07 4.316400328742009e-08 -0.00050024814242185134 -5.1288148520237277e-08 5.0052271352366144e-08 -0.00050023973668806502 -6.6338940277642951e-08 8.7950496210855938e-08 -0.00050024100496393596 -9.5745055182052635e-08 5.7469873842171481e-08 -0.00075027822164845236 -6.6338940277642951e-08 8.7950496210855938e-08 -0.00050024100496393596 -1.3462519747498101e-08 1.0928000439040647e-07 -0.00050025034434477268 5.2027495737938428e-08 1.272352013372134e-07 -0.00025022351707991257 -5.5060934953420149e-10 8.0959633821469437e-08 -0.00025019045422863893 -1.3462519747498107e-08 1.0928000439040646e-07 -0.00050025034434477268 4.4878124608134577e-08 1.0091049890921275e-07 -0.00050026551339588912 1.2954140612465059e-08 5.6981952275973027e-08 -0.00050024586989985708 1.9989999459651662e-09 1.1165772759755866e-07 -0.00075027970848845862 5.7244326205538392e-08 3.4702527868837734e-08 -0.00050025570272997785 4.4878124608134583e-08 1.0091049890921275e-07 -0.00050026551339588912 1.2954140612465059e-08 5.6981952275973027e-08 -0.00050024586989985708 5.7209199128595728e-08 9.5796432377087115e-08 -0.00075028566214618462 -1.3462519747498107e-08 1.0928000439040646e-07 -0.00050025034434477268 1.2954140612465059e-08 5.6981952275973027e-08 -0.00050024586989985708 -2.5387338449692557e-08 6.9260101139785379e-08 -0.00050024057265386627 1.9989999459651662e-09 1.1165772759755866e-07 -0.00075027970848845862 -1.9840649268396649e-08 3.6185363355264606e-08 -0.00050023854284745304 1.2954140612465059e-08 5.6981952275973027e-08 -0.00050024586989985708 -2.5387338449692557e-08 6.9260101139785379e-08 -0.00050024057265386627 -5.5060934953420149e-10 8.0959633821469437e-08 -0.00025019045422863893 -1.3462519747498107e-08 1.0928000439040646e-07 -0.00050025034434477268 1.2954140612465059e-08 5.6981952275973027e-08 -0.00050024586989985708 3.7098643065528483e-08 5.439653436892398e-08 -0.00025020751731104319 -5.5060934953420149e-10 8.0959633821469437e-08 -0.00025019045422863893 -1.3462519747498107e-08 1.0928000439040646e-07 -0.00050025034434477268 5.2027495737938428e-08 1.272352013372134e-07 -0.00025022351707991257 3.7098643065528483e-08 5.439653436892398e-08 -0.00025020751731104319 -5.5060934953420149e-10 8.0959633821469437e-08 -0.00025019045422863893 -6.6338940277642951e-08 8.7950496210855938e-08 -0.00050024100496393596 -1.3462519747498104e-08 1.0928000439040647e-07 -0.00050025034434477268 -2.5387338449692557e-08 6.9260101139785379e-08 -0.00050024057265386627 -5.5060934953420149e-10 8.0959633821469437e-08 -0.00025019045422863893 -1.3462519747498107e-08 1.0928000439040646e-07 -0.00050025034434477268 1.2954140612465059e-08 5.6981952275973027e-08 -0.00050024586989985708 -2.5387338449692557e-08 6.9260101139785379e-08 -0.00050024057265386627 -5.5060934953420149e-10 8.0959633821469437e-08 -0.00025019045422863893 6.9850117026976313e-08 1.962309197798607e-08 -0.00025024114742290435 4.4878124608134577e-08 1.0091049890921275e-07 -0.00050026551339588912 1.0163471781892572e-07 8.6141561073571178e-08 -0.00025025732051554275 3.7098643065528483e-08 5.439653436892398e-08 -0.00025020751731104319 -1.3462519747498107e-08 1.0928000439040646e-07 -0.00050025034434477268 4.4878124608134577e-08 1.0091049890921275e-07 -0.00050026551339588912 1.2954140612465059e-08 5.6981952275973027e-08 -0.00050024586989985708 3.7098643065528483e-08 5.439653436892398e-08 -0.00025020751731104319 -1.3462519747498107e-08 1.0928000439040646e-07 -0.00050025034434477268 1.016347178189257e-07 8.6141561073571165e-08 -0.0002502573205155428 5.2027495737938415e-08 1.272352013372134e-07 -0.00025022351707991263 3.7098643065528483e-08 5.439653436892398e-08 -0.00025020751731104319 -1.3462519747498107e-08 1.0928000439040646e-07 -0.00050025034434477268 4.4878124608134577e-08 1.0091049890921275e-07 -0.00050026551339588912 1.0163471781892571e-07 8.6141561073571151e-08 -0.0002502573205155428 3.7098643065528483e-08 5.439653436892398e-08 -0.00025020751731104319 6.9850117026976313e-08 1.962309197798607e-08 -0.00025024114742290435 4.4878124608134583e-08 1.0091049890921278e-07 -0.00050026551339588912 1.2954140612465061e-08 5.6981952275973027e-08 -0.00050024586989985697 3.7098643065528483e-08 5.439653436892398e-08 -0.00025020751731104319 1.0163471781892572e-07 8.6141561073571178e-08 -0.00025025732051554275 5.2027495737938428e-08 1.272352013372134e-07 -0.00025022351707991257 3.7098643065528483e-08 5.439653436892398e-08 -0.00025020751731104319 -6.1794285836739224e-10 -1.3447575133262631e-08 -1.849501686777144e-07 -1.9503380667922419e-08 1.353951929570903e-07 -0.00025020222819322982 5.2027495737938441e-08 1.272352013372134e-07 -0.00025022351707991257 -5.5060934953420149e-10 8.0959633821469437e-08 -0.00025019045422863893 5.4298367917836255e-09 -1.6140606187425332e-08 -8.8469819575457723e-08 -7.0323720161295141e-09 4.0878294471338483e-08 -0.00025017992066521611 3.7098643065528483e-08 5.439653436892398e-08 -0.00025020751731104319 -5.5060934953420149e-10 8.0959633821469437e-08 -0.00025019045422863893 5.4298367917836255e-09 -1.6140606187425332e-08 -8.8469819575457723e-08 5.2027495737938428e-08 1.272352013372134e-07 -0.00025022351707991257 3.7098643065528483e-08 5.439653436892398e-08 -0.00025020751731104319 -5.5060934953420149e-10 8.0959633821469437e-08 -0.00025019045422863893 5.4298367917836255e-09 -1.6140606187425332e-08 -8.8469819575457723e-08 5.2027495737938428e-08 1.272352013372134e-07 -0.00025022351707991257 3.7098643065528483e-08 5.439653436892398e-08 -0.00025020751731104319 5.4298367917836255e-09 -1.6140606187425332e-08 -8.8469819575457723e-08 -6.1794285836737549e-10 -1.3447575133262603e-08 -1.8495016867783028e-07 5.2027495737938428e-08 1.272352013372134e-07 -0.00025022351707991257 5.4298367917836255e-09 -1.6140606187425332e-08 -8.8469819575457723e-08 -6.1794285836737549e-10 -1.3447575133262603e-08 -1.8495016867783028e-07 -3.9995650759356068e-09 5.3151282975865217e-08 -2.0220333290386059e-07 -1.9503380667922419e-08 1.353951929570903e-07 -0.00025020222819322982 5.2027495737938421e-08 1.272352013372134e-07 -0.00025022351707991257 5.4298367917836255e-09 -1.6140606187425332e-08 -8.8469819575457723e-08 -3.9995650759356068e-09 5.3151282975865217e-08 -2.0220333290386059e-07 1.0163471781892572e-07 8.6141561073571178e-08 -0.00025025732051554275 5.2027495737938428e-08 1.272352013372134e-07 -0.00025022351707991257 -6.1794285836737745e-10 -1.3447575133262659e-08 -1.8495016867781022e-07 2.4287446514309413e-08 4.6341705734343711e-08 -2.7341331844240079e-07 -1.9810294987895858e-08 -1.3053250832188079e-08 -2.5384931543307949e-07 1.0163471781892575e-07 8.6141561073571191e-08 -0.00025025732051554275 3.7098643065528476e-08 5.4396534368923974e-08 -0.00025020751731104314 -6.1794285836737549e-10 -1.3447575133262603e-08 -1.8495016867783028e-07 -1.9810294987895858e-08 -1.3053250832188079e-08 -2.5384931543307949e-07 1.0163471781892572e-07 8.6141561073571178e-08 -0.00025025732051554275 -6.1794285836737549e-10 -1.3447575133262603e-08 -1.8495016867783028e-07 2.4287446514309413e-08 4.6341705734343711e-08 -2.7341331844240079e-07 5.2027495737938428e-08 1.272352013372134e-07 -0.00025022351707991257 -6.1794285836736815e-10 -1.3447575133262599e-08 -1.8495016867782501e-07 -3.9995650759356068e-09 5.3151282975865217e-08 -2.0220333290386059e-07 2.4287446514309407e-08 4.6341705734343711e-08 -2.7341331844240073e-07 -1.9810294987895858e-08 -1.3053250832188079e-08 -2.5384931543307949e-07 1.0163471781892572e-07 8.6141561073571178e-08 -0.00025025732051554275 5.3715554683300922e-08 3.4992233930774461e-08 -1.8640962241883716e-07 1.3377332827276564e-07 1.9292434944629868e-08 -0.00025024721092535741 -1.9810294987895858e-08 -1.3053250832188079e-08 -2.5384931543307949e-07 1.0163471781892574e-07 8.6141561073571178e-08 -0.00025025732051554275 2.4287446514309413e-08 4.6341705734343711e-08 -2.7341331844240079e-07 5.3715554683300922e-08 3.4992233930774461e-08 -1.8640962241883716e-07 6.9850117026976313e-08 1.962309197798607e-08 -0.00025024114742290435 4.4878124608134583e-08 1.0091049890921275e-07 -0.00050026551339588912 1.3377332827276564e-07 1.9292434944629868e-08 -0.00025024721092535741 8.7884144989017812e-08 6.6381839399468034e-08 -0.00050026243348789837 6.9850117026976313e-08 1.962309197798607e-08 -0.00025024114742290435 4.4878124608134583e-08 1.0091049890921275e-07 -0.00050026551339588912 1.0163471781892572e-07 8.6141561073571178e-08 -0.00025025732051554275 1.3377332827276564e-07 1.9292434944629868e-08 -0.00025024721092535741 5.7244326205538392e-08 3.4702527868837734e-08 -0.00050025570272997785 4.4878124608134577e-08 1.0091049890921275e-07 -0.00050026551339588912 8.7884144989017812e-08 6.6381839399468034e-08 -0.00050026243348789837 5.7209199128595728e-08 9.5796432377087115e-08 -0.00075028566214618462 -1.2701596961926429e-08 1.1314998331789183e-08 -9.8543762261358894e-08 2.9118623287045493e-08 -4.4973803613250513e-08 -1.3795280591751469e-07 1.9424310872831488e-08 -1.3542569724697561e-07 -0.00025019745891852397 8.4821262834518075e-08 -1.069612616627081e-07 -0.00025021793237773731 -1.2701596961926429e-08 1.1314998331789183e-08 -9.8543762261358894e-08 3.6405868261279118e-08 -7.0375785438314704e-08 -0.00025018848977027521 1.9424310872831488e-08 -1.3542569724697561e-07 -0.00025019745891852397 8.4821262834518075e-08 -1.069612616627081e-07 -0.00025021793237773731 -1.2701596961926429e-08 1.1314998331789183e-08 -9.8543762261358894e-08 3.6405868261279118e-08 -7.0375785438314704e-08 -0.00025018848977027521 5.3191931596592984e-08 -2.6643250054386397e-08 -0.00025019539615658544 8.4821262834518075e-08 -1.069612616627081e-07 -0.00025021793237773731 -1.2701596961926429e-08 1.1314998331789183e-08 -9.8543762261358894e-08 2.9118623287045493e-08 -4.4973803613250513e-08 -1.3795280591751469e-07 8.4821262834518075e-08 -1.069612616627081e-07 -0.00025021793237773731 4.7289757540808296e-08 -2.481551637797899e-08 -2.0212896989847653e-07 -1.2701596961926429e-08 1.1314998331789183e-08 -9.8543762261358894e-08 5.3191931596592984e-08 -2.6643250054386397e-08 -0.00025019539615658544 -1.2601061664688893e-08 4.778130732620201e-09 -1.7697879554918639e-07 8.4821262834518075e-08 -1.069612616627081e-07 -0.00025021793237773731 -1.2701596961926429e-08 1.1314998331789183e-08 -9.8543762261358894e-08 -1.2601061664688893e-08 4.778130732620201e-09 -1.7697879554918639e-07 8.4821262834518075e-08 -1.069612616627081e-07 -0.00025021793237773731 4.7289757540808296e-08 -2.481551637797899e-08 -2.0212896989847653e-07 -1.2601061664688893e-08 4.778130732620201e-09 -1.7697879554918639e-07 8.4821262834518062e-08 -1.0696126166270812e-07 -0.00025021793237773736 4.7289757540808296e-08 -2.481551637797899e-08 -2.0212896989847653e-07 1.2751890474078065e-07 -4.9479640063777307e-08 -0.00025025247404304892 -1.2601061664688893e-08 4.778130732620201e-09 -1.7697879554918639e-07 4.7289757540808296e-08 -2.481551637797899e-08 -2.0212896989847653e-07 5.2083113339715994e-08 4.0616433788126759e-09 -2.7385056570807223e-07 1.2751890474078065e-07 -4.9479640063777327e-08 -0.00025025247404304897 -1.9810294987895858e-08 -1.3053250832188079e-08 -2.5384931543307949e-07 -1.2601061664688893e-08 4.778130732620201e-09 -1.7697879554918639e-07 5.2083113339716e-08 4.0616433788126701e-09 -2.738505657080969e-07 1.2751890474078062e-07 -4.9479640063777307e-08 -0.00025025247404304886 5.3191931596592984e-08 -2.6643250054386397e-08 -0.00025019539615658544 -1.9810294987895858e-08 -1.3053250832188079e-08 -2.5384931543307949e-07 -1.2601061664688893e-08 4.778130732620201e-09 -1.7697879554918639e-07 1.2751890474078062e-07 -4.9479640063777307e-08 -0.00025025247404304886 -1.9810294987895858e-08 -1.3053250832188079e-08 -2.5384931543307949e-07 5.3715554683300922e-08 3.4992233930774461e-08 -1.8640962241883716e-07 1.3377332827276564e-07 1.9292434944629868e-08 -0.00025024721092535741 5.2083113339715994e-08 4.0616433788126759e-09 -2.7385056570807223e-07 -1.9810294987895858e-08 -1.3053250832188079e-08 -2.5384931543307949e-07 1.3377332827276564e-07 1.9292434944629769e-08 -0.00025024721092535752 5.2083113339715994e-08 4.0616433788126759e-09 -2.7385056570807223e-07 1.2751890474078065e-07 -4.9479640063777255e-08 -0.00025025247404304886 6.9850117026976313e-08 1.962309197798607e-08 -0.00025024114742290435 -1.9810294987895858e-08 -1.3053250832188079e-08 -2.5384931543307949e-07 1.0163471781892572e-07 8.6141561073571178e-08 -0.00025025732051554275 1.3377332827276564e-07 1.9292434944629868e-08 -0.00025024721092535741 6.9850117026976313e-08 1.962309197798607e-08 -0.00025024114742290435 -1.9810294987895858e-08 -1.3053250832188079e-08 -2.5384931543307949e-07 1.3377332827276564e-07 1.9292434944629868e-08 -0.00025024721092535741 1.2751890474078062e-07 -4.9479640063777307e-08 -0.00025025247404304886 5.3191931596592984e-08 -2.6643250054386397e-08 -0.00025019539615658544 -1.2601061664688893e-08 4.778130732620201e-09 -1.7697879554918639e-07 8.4821262834518075e-08 -1.069612616627081e-07 -0.00025021793237773731 1.2751890474078062e-07 -4.9479640063777307e-08 -0.00025025247404304886 5.3191931596592984e-08 -2.6643250054386397e-08 -0.00025019539615658544 6.9850117026976313e-08 1.962309197798607e-08 -0.00025024114742290435 -1.9810294987895858e-08 -1.3053250832188079e-08 -2.5384931543307949e-07 1.2751890474078062e-07 -4.9479640063777307e-08 -0.00025025247404304886 5.4738989504757651e-08 -1.5673901793082779e-08 -0.00050024195025731371 5.3191931596592984e-08 -2.6643250054386397e-08 -0.00025019539615658544 1.0922075973759865e-07 1.335784036144215e-08 -0.0005002617752814984 1.0146930670985234e-07 -4.2926648009382741e-08 -0.00050024698847501243 5.3191931596592984e-08 -2.6643250054386397e-08 -0.00025019539615658544 8.4821262834518075e-08 -1.069612616627081e-07 -0.00025021793237773731 1.2751890474078062e-07 -4.9479640063777307e-08 -0.00025025247404304886 1.0922075973759864e-07 1.3357840361442182e-08 -0.0005002617752814985 5.4738989504757651e-08 -1.5673901793082779e-08 -0.00050024195025731371 5.3191931596592984e-08 -2.6643250054386397e-08 -0.00025019539615658544 6.9850117026976313e-08 1.962309197798607e-08 -0.00025024114742290435 1.0922075973759865e-07 1.335784036144215e-08 -0.0005002617752814984 5.4738989504757651e-08 -1.5673901793082779e-08 -0.00050024195025731371 5.7244326205538392e-08 3.4702527868837734e-08 -0.00050025570272997785 6.9850117026976313e-08 1.962309197798607e-08 -0.00025024114742290435 1.0922075973759865e-07 1.335784036144215e-08 -0.0005002617752814984 5.3191931596592984e-08 -2.6643250054386397e-08 -0.00025019539615658544 6.9850117026976313e-08 1.962309197798607e-08 -0.00025024114742290435 1.2751890474078062e-07 -4.9479640063777307e-08 -0.00025025247404304886 1.0922075973759865e-07 1.3357840361442177e-08 -0.0005002617752814985 5.7244326205538392e-08 3.4702527868837734e-08 -0.00050025570272997785 6.9850117026976313e-08 1.962309197798607e-08 -0.00025024114742290435 4.4878124608134577e-08 1.0091049890921275e-07 -0.00050026551339588912 8.7884144989017812e-08 6.6381839399468034e-08 -0.00050026243348789837 6.9850117026976313e-08 1.962309197798607e-08 -0.00025024114742290435 8.7884144989017786e-08 6.6381839399468047e-08 -0.00050026243348789848 1.2751890474078062e-07 -4.9479640063777307e-08 -0.00025025247404304886 1.0922075973759867e-07 1.3357840361442165e-08 -0.0005002617752814984 6.9850117026976313e-08 1.962309197798607e-08 -0.00025024114742290435 1.3377332827276564e-07 1.9292434944629868e-08 -0.00025024721092535741 8.7884144989017812e-08 6.6381839399468034e-08 -0.00050026243348789837 1.2751890474078062e-07 -4.9479640063777307e-08 -0.00025025247404304886 5.7244326205538392e-08 3.4702527868837734e-08 -0.00050025570272997785 6.9850117026976313e-08 1.962309197798607e-08 -0.00025024114742290435 8.7884144989017812e-08 6.6381839399468034e-08 -0.00050026243348789837 1.0922075973759865e-07 1.335784036144215e-08 -0.0005002617752814984 5.7244326205538392e-08 3.4702527868837734e-08 -0.00050025570272997785 8.7884144989017812e-08 6.6381839399468034e-08 -0.00050026243348789837 1.0922075973759865e-07 1.335784036144215e-08 -0.0005002617752814984 9.7731749196876193e-08 5.4131343057880855e-08 -0.000750284409580244 5.4738989504757651e-08 -1.5673901793082779e-08 -0.00050024195025731371 1.0922075973759865e-07 1.335784036144215e-08 -0.0005002617752814984 1.0146930670985234e-07 -4.2926648009382741e-08 -0.00050024698847501243 1.1166284956035198e-07 -1.8633836436417527e-09 -0.00075028411205120397 5.4738989504757651e-08 -1.5673901793082779e-08 -0.00050024195025731371 5.7244326205538392e-08 3.4702527868837734e-08 -0.00050025570272997785 1.0922075973759865e-07 1.335784036144215e-08 -0.0005002617752814984 1.1166284956035199e-07 -1.8633836436417515e-09 -0.00075028411205120397 5.1805934189053783e-08 -5.3007706777354911e-08 -0.00050023741773650798 5.4738989504757651e-08 -1.5673901793082779e-08 -0.00050024195025731371 1.0146930670985234e-07 -4.2926648009382741e-08 -0.00050024698847501243 9.5731269343777833e-08 -5.7488857011478796e-08 -0.00075027843508596547 5.1805934189053783e-08 -5.3007706777354911e-08 -0.00050023741773650798 1.0146930670985234e-07 -4.2926648009382741e-08 -0.00050024698847501243 6.6421005118981422e-08 -8.7910681369348247e-08 -0.00050023805451975315 9.5731269343777833e-08 -5.7488857011478796e-08 -0.00075027843508596547 3.6405868261279118e-08 -7.0375785438314704e-08 -0.00025018848977027521 5.3191931596592984e-08 -2.6643250054386397e-08 -0.00025019539615658544 8.4821262834518075e-08 -1.069612616627081e-07 -0.00025021793237773731 1.0146930670985234e-07 -4.2926648009382741e-08 -0.00050024698847501243 3.6405868261279118e-08 -7.0375785438314704e-08 -0.00025018848977027521 5.1805934189053783e-08 -5.3007706777354911e-08 -0.00050023741773650798 5.4738989504757651e-08 -1.5673901793082779e-08 -0.00050024195025731371 1.0146930670985234e-07 -4.2926648009382741e-08 -0.00050024698847501243 5.3191931596592984e-08 -2.6643250054386397e-08 -0.00025019539615658544 8.4821262834518075e-08 -1.069612616627081e-07 -0.00025021793237773731 1.0922075973759867e-07 1.3357840361442169e-08 -0.0005002617752814985 1.0146930670985234e-07 -4.2926648009382741e-08 -0.00050024698847501243 3.6405868261279118e-08 -7.0375785438314704e-08 -0.00025018848977027521 5.4738989504757651e-08 -1.5673901793082779e-08 -0.00050024195025731371 5.3191931596592984e-08 -2.6643250054386397e-08 -0.00025019539615658544 1.0146930670985234e-07 -4.2926648009382741e-08 -0.00050024698847501243 3.6405868261279118e-08 -7.0375785438314704e-08 -0.00025018848977027521 5.1805934189053783e-08 -5.3007706777354911e-08 -0.00050023741773650798 1.0146930670985234e-07 -4.2926648009382741e-08 -0.00050024698847501243 6.6421005118981422e-08 -8.7910681369348247e-08 -0.00050023805451975315 3.6405868261279118e-08 -7.0375785438314704e-08 -0.00025018848977027521 1.9424310872831488e-08 -1.3542569724697561e-07 -0.00025019745891852397 8.4821262834518075e-08 -1.069612616627081e-07 -0.00025021793237773731 1.0146930670985234e-07 -4.2926648009382741e-08 -0.00050024698847501243 3.6405868261279118e-08 -7.0375785438314704e-08 -0.00025018848977027521 1.9424310872831488e-08 -1.3542569724697561e-07 -0.00025019745891852397 1.0146930670985234e-07 -4.2926648009382741e-08 -0.00050024698847501243 6.6421005118981422e-08 -8.7910681369348247e-08 -0.00050023805451975315 5.1805934189053783e-08 -5.3007706777354911e-08 -0.00050023741773650798 6.6421005118981422e-08 -8.7910681369348247e-08 -0.00050023805451975315 5.4070228974203986e-08 -9.7714605222722332e-08 -0.00075027448065851819 9.5731269343777833e-08 -5.7488857011478796e-08 -0.00075027843508596547 5.4070228974203986e-08 -9.7714605222722332e-08 -0.00075027448065851819 9.6706481976002505e-08 -5.5721953136518685e-08 -0.0010003103370432734 5.5907939070241038e-08 -9.659388335319475e-08 -0.001000308373292257 4.9129691809438549e-08 -5.6862899991221627e-08 -0.00075027503192190957 9.6706481976002518e-08 -5.5721953136518692e-08 -0.0010003103370432734 5.3605822391298986e-08 -2.0503146808594925e-08 -0.0010003100323127284 5.3657349993927476e-08 -1.9714371919960965e-08 -0.00075027713438148081 4.9129691809438549e-08 -5.6862899991221627e-08 -0.00075027503192190957 9.5731269343777833e-08 -5.7488857011478796e-08 -0.00075027843508596547 9.6706481976002518e-08 -5.5721953136518692e-08 -0.0010003103370432734 5.365734999392747e-08 -1.9714371919960968e-08 -0.00075027713438148081 4.9129691809438549e-08 -5.6862899991221627e-08 -0.00075027503192190957 9.5731269343777833e-08 -5.7488857011478796e-08 -0.00075027843508596547 1.1161024623460933e-07 1.0837005938581503e-10 -0.0010003128822878382 9.6706481976002518e-08 -5.5721953136518692e-08 -0.0010003103370432734 5.3657349993927476e-08 -1.9714371919960965e-08 -0.00075027713438148081 5.4070228974203986e-08 -9.7714605222722332e-08 -0.00075027448065851819 9.5731269343777833e-08 -5.7488857011478796e-08 -0.00075027843508596547 9.6706481976002518e-08 -5.5721953136518692e-08 -0.0010003103370432734 4.9129691809438549e-08 -5.6862899991221627e-08 -0.00075027503192190957 5.1805934189053783e-08 -5.3007706777354911e-08 -0.00050023741773650798 5.4070228974203986e-08 -9.7714605222722332e-08 -0.00075027448065851819 9.5731269343777833e-08 -5.7488857011478796e-08 -0.00075027843508596547 4.9129691809438549e-08 -5.6862899991221627e-08 -0.00075027503192190957 5.1805934189053783e-08 -5.3007706777354911e-08 -0.00050023741773650798 9.5731269343777833e-08 -5.7488857011478796e-08 -0.00075027843508596547 5.3657349993927476e-08 -1.9714371919960965e-08 -0.00075027713438148081 4.9129691809438549e-08 -5.6862899991221627e-08 -0.00075027503192190957 5.4738989504757651e-08 -1.5673901793082779e-08 -0.00050024195025731371 1.0146930670985234e-07 -4.2926648009382741e-08 -0.00050024698847501243 9.5731269343777846e-08 -5.7488857011478776e-08 -0.00075027843508596536 1.1166284956035199e-07 -1.8633836436417399e-09 -0.00075028411205120397 5.1805934189053783e-08 -5.3007706777354911e-08 -0.00050023741773650798 5.4738989504757651e-08 -1.5673901793082779e-08 -0.00050024195025731371 9.5731269343777833e-08 -5.7488857011478796e-08 -0.00075027843508596547 5.3657349993927476e-08 -1.9714371919960965e-08 -0.00075027713438148081 5.4738989504757651e-08 -1.5673901793082779e-08 -0.00050024195025731371 5.7244326205538392e-08 3.4702527868837734e-08 -0.00050025570272997785 1.1166284956035201e-07 -1.8633836436417469e-09 -0.00075028411205120386 5.3657349993927476e-08 -1.9714371919960965e-08 -0.00075027713438148081 5.4738989504757651e-08 -1.5673901793082779e-08 -0.00050024195025731371 9.5731269343777859e-08 -5.7488857011478796e-08 -0.00075027843508596547 1.1166284956035201e-07 -1.8633836436417382e-09 -0.00075028411205120386 5.3657349993927476e-08 -1.9714371919960965e-08 -0.00075027713438148081 5.7244326205538392e-08 3.4702527868837734e-08 -0.00050025570272997785 1.1166284956035198e-07 -1.8633836436417457e-09 -0.00075028411205120386 5.6585513226819986e-08 3.200159815783274e-08 -0.00075028204803639768 5.3657349993927476e-08 -1.9714371919960965e-08 -0.00075027713438148081 5.7244326205538392e-08 3.4702527868837734e-08 -0.00050025570272997785 1.0922075973759865e-07 1.335784036144215e-08 -0.0005002617752814984 1.1166284956035199e-07 -1.863383643641725e-09 -0.00075028411205120386 9.7731749196876193e-08 5.4131343057880829e-08 -0.00075028440958024411 5.7244326205538392e-08 3.4702527868837734e-08 -0.00050025570272997785 1.1166284956035199e-07 -1.8633836436417271e-09 -0.00075028411205120386 9.7731749196876206e-08 5.4131343057880842e-08 -0.000750284409580244 5.6585513226819986e-08 3.200159815783274e-08 -0.00075028204803639768 5.7244326205538392e-08 3.4702527868837734e-08 -0.00050025570272997785 9.773174919687618e-08 5.4131343057880868e-08 -0.00075028440958024389 5.7209199128595728e-08 9.5796432377087115e-08 -0.00075028566214618462 5.6585513226819986e-08 3.200159815783274e-08 -0.00075028204803639768 1.1166284956035198e-07 -1.8633836436417457e-09 -0.00075028411205120386 1.1161024623460933e-07 1.0837005938581503e-10 -0.0010003128822878382 9.6580073462587518e-08 5.5899338624261322e-08 -0.0010003131464458111 5.6585513226819986e-08 3.200159815783274e-08 -0.00075028204803639768 1.1166284956035198e-07 -1.8633836436417457e-09 -0.00075028411205120386 9.7731749196876193e-08 5.4131343057880855e-08 -0.000750284409580244 9.6580073462587518e-08 5.5899338624261322e-08 -0.0010003131464458111 5.6585513226819986e-08 3.200159815783274e-08 -0.00075028204803639768 1.1166284956035198e-07 -1.8633836436417457e-09 -0.00075028411205120386 1.1161024623460933e-07 1.0837005938581503e-10 -0.0010003128822878382 5.6585513226819986e-08 3.200159815783274e-08 -0.00075028204803639768 5.3657349993927476e-08 -1.9714371919960965e-08 -0.00075027713438148081 1.1161024623460933e-07 1.0837005938581503e-10 -0.0010003128822878382 5.3605822391298993e-08 -2.0503146808594925e-08 -0.0010003100323127284 5.6585513226819986e-08 3.200159815783274e-08 -0.00075028204803639768 5.3657349993927483e-08 -1.9714371919961001e-08 -0.0007502771343814807 9.5731269343777833e-08 -5.7488857011478796e-08 -0.00075027843508596547 1.1166284956035198e-07 -1.8633836436417457e-09 -0.00075028411205120386 1.1161024623460933e-07 1.0837005938581503e-10 -0.0010003128822878382 5.3657349993927476e-08 -1.9714371919960965e-08 -0.00075027713438148081 1.1161024623460933e-07 1.0837005938581503e-10 -0.0010003128822878382 5.5654579960274032e-08 3.1856575675278904e-08 -0.0010003118880433943 5.3605822391298993e-08 -2.0503146808594925e-08 -0.0010003100323127284 5.6585513226819986e-08 3.200159815783274e-08 -0.00075028204803639768 1.1161024623460933e-07 1.0837005938581503e-10 -0.0010003128822878382 1.1152429301387344e-07 5.3578727238333358e-11 -0.0012503445884290041 5.5654579960274032e-08 3.1856575675278904e-08 -0.0010003118880433943 5.3605822391298993e-08 -2.0503146808594925e-08 -0.0010003100323127284 1.1161024623460933e-07 1.0837005938581503e-10 -0.0010003128822878382 1.1152429301387344e-07 5.3578727238333358e-11 -0.0012503445884290041 9.6706481976002518e-08 -5.5721953136518692e-08 -0.0010003103370432734 5.3605822391298993e-08 -2.0503146808594925e-08 -0.0010003100323127284 1.1161024623460933e-07 1.0837005938581503e-10 -0.0010003128822878382 9.6706481976002518e-08 -5.5721953136518692e-08 -0.0010003103370432734 5.3605822391298993e-08 -2.0503146808594925e-08 -0.0010003100323127284 5.3657349993927483e-08 -1.9714371919960968e-08 -0.0007502771343814807 1.1161024623460933e-07 1.0837005938581503e-10 -0.0010003128822878382 9.6580073462587518e-08 5.5899338624261322e-08 -0.0010003131464458111 9.6566409539785319e-08 5.5803111364420658e-08 -0.0012503450450341042 5.5654579960274032e-08 3.1856575675278904e-08 -0.0010003118880433943 1.1161024623460933e-07 1.0837005938581503e-10 -0.0010003128822878382 9.6580073462587518e-08 5.5899338624261322e-08 -0.0010003131464458111 5.5654579960274032e-08 3.1856575675278904e-08 -0.0010003118880433943 5.6585513226819986e-08 3.200159815783274e-08 -0.00075028204803639768 9.6580073462587518e-08 5.5899338624261322e-08 -0.0010003131464458111 5.5758435645408082e-08 9.6693800123574545e-08 -0.0010003136138971428 5.5654579960274032e-08 3.1856575675278904e-08 -0.0010003118880433943 5.6585513226819986e-08 3.200159815783274e-08 -0.00075028204803639768 9.6566409539785319e-08 5.5803111364420658e-08 -0.0012503450450341042 5.5731350237001377e-08 9.6602826548571967e-08 -0.0012503450193562474 5.5648313315408448e-08 3.1980086324339047e-08 -0.0012503459193381099 5.5654579960274032e-08 3.1856575675278904e-08 -0.0010003118880433943 1.1161024623460933e-07 1.0837005938581503e-10 -0.0010003128822878382 1.1152429301387344e-07 5.3578727238333358e-11 -0.0012503445884290041 9.6566409539785319e-08 5.5803111364420658e-08 -0.0012503450450341042 5.5654579960274032e-08 3.1856575675278904e-08 -0.0010003118880433943 1.1152429301387344e-07 5.3578727238333358e-11 -0.0012503445884290041 9.6566409539785319e-08 5.5803111364420658e-08 -0.0012503450450341042 5.5648313315408448e-08 3.1980086324339047e-08 -0.0012503459193381099 5.5654579960274032e-08 3.1856575675278904e-08 -0.0010003118880433943 1.1152429301387344e-07 5.3578727238333358e-11 -0.0012503445884290041 9.6618384010404399e-08 -5.5701674590688676e-08 -0.001250342981444427 5.3694057722861265e-08 -2.0355104470020157e-08 -0.0012503433725540203 5.3605822391299e-08 -2.0503146808594928e-08 -0.0010003100323127281 1.1152429301387344e-07 5.3578727238333358e-11 -0.0012503445884290041 5.3694057722861265e-08 -2.0355104470020157e-08 -0.0012503433725540203 5.5648313315408448e-08 3.1980086324339047e-08 -0.0012503459193381099 5.5654579960274032e-08 3.1856575675278904e-08 -0.0010003118880433943 1.1152429301387344e-07 5.3578727238333358e-11 -0.0012503445884290041 5.3694057722861265e-08 -2.0355104470020157e-08 -0.0012503433725540203 5.5654579960274032e-08 3.1856575675278904e-08 -0.0010003118880433943 5.3605822391299e-08 -2.0503146808594961e-08 -0.0010003100323127281 9.6618384010404399e-08 -5.5701674590688676e-08 -0.001250342981444427 5.5796837196329715e-08 -9.6563937207313736e-08 -0.0012503417873201369 4.9590370818458736e-08 -5.7065573554265421e-08 -0.0010003085485967621 4.965526999426516e-08 -5.6816417593776781e-08 -0.0012503432386827434 9.6618384010404399e-08 -5.5701674590688676e-08 -0.001250342981444427 5.3694057722861258e-08 -2.035510447002016e-08 -0.0012503433725540201 4.9590370818458722e-08 -5.7065573554265421e-08 -0.0010003085485967621 4.965526999426516e-08 -5.6816417593776781e-08 -0.0012503432386827434 9.6618384010404399e-08 -5.5701674590688676e-08 -0.001250342981444427 5.3694057722861258e-08 -2.0355104470020157e-08 -0.0012503433725540203 5.3605822391298993e-08 -2.0503146808594925e-08 -0.0010003100323127284 4.9590370818458736e-08 -5.7065573554265421e-08 -0.0010003085485967621 1.1152429301387344e-07 5.3578727238333358e-11 -0.0012503445884290041 9.6618384010404399e-08 -5.5701674590688676e-08 -0.001250342981444427 9.6706481976002518e-08 -5.5721953136518692e-08 -0.0010003103370432734 5.360582239129896e-08 -2.0503146808594915e-08 -0.0010003100323127284 9.6706481976002518e-08 -5.5721953136518692e-08 -0.0010003103370432734 5.5907939070241038e-08 -9.6593883353194737e-08 -0.001000308373292257 4.9129691809438549e-08 -5.6862899991221627e-08 -0.00075027503192190957 4.9590370818458736e-08 -5.7065573554265421e-08 -0.0010003085485967621 9.6618384010404399e-08 -5.5701674590688676e-08 -0.001250342981444427 9.6706481976002518e-08 -5.5721953136518692e-08 -0.0010003103370432734 5.3605822391298993e-08 -2.0503146808594925e-08 -0.0010003100323127284 4.9590370818458736e-08 -5.7065573554265421e-08 -0.0010003085485967621 9.6706481976002518e-08 -5.5721953136518692e-08 -0.0010003103370432734 5.3605822391298986e-08 -2.0503146808594928e-08 -0.0010003100323127281 4.9129691809438536e-08 -5.6862899991221627e-08 -0.00075027503192190946 4.9590370818458736e-08 -5.7065573554265421e-08 -0.0010003085485967621 9.6618384010404399e-08 -5.5701674590688676e-08 -0.001250342981444427 9.6706481976002518e-08 -5.5721953136518692e-08 -0.0010003103370432734 5.5907939070241038e-08 -9.659388335319475e-08 -0.001000308373292257 4.9590370818458736e-08 -5.7065573554265421e-08 -0.0010003085485967621 9.6618384010404399e-08 -5.5701674590688676e-08 -0.001250342981444427 5.5907939070241005e-08 -9.6593883353194723e-08 -0.001000308373292257 5.5796837196329715e-08 -9.6563937207313736e-08 -0.0012503417873201369 4.9590370818458736e-08 -5.7065573554265421e-08 -0.0010003085485967621 5.7244326205538392e-08 3.4702527868837734e-08 -0.00050025570272997785 8.7884144989017812e-08 6.6381839399468034e-08 -0.00050026243348789837 9.7731749196876193e-08 5.4131343057880855e-08 -0.000750284409580244 5.7209199128595728e-08 9.5796432377087115e-08 -0.00075028566214618462 9.7731749196876193e-08 5.4131343057880855e-08 -0.000750284409580244 5.5758435645408082e-08 9.6693800123574545e-08 -0.0010003136138971428 5.7209199128595728e-08 9.5796432377087115e-08 -0.00075028566214618462 5.6585513226819986e-08 3.200159815783274e-08 -0.00075028204803639768 9.7731749196876193e-08 5.4131343057880855e-08 -0.000750284409580244 9.6580073462587518e-08 5.5899338624261322e-08 -0.0010003131464458111 5.5758435645408082e-08 9.6693800123574545e-08 -0.0010003136138971428 5.6585513226819986e-08 3.200159815783274e-08 -0.00075028204803639768 9.6580073462587518e-08 5.5899338624261322e-08 -0.0010003131464458111 5.5731350237001377e-08 9.6602826548571967e-08 -0.0012503450193562474 5.5758435645408082e-08 9.6693800123574545e-08 -0.0010003136138971428 5.5654579960274032e-08 3.1856575675278904e-08 -0.0010003118880433943 9.6580073462587518e-08 5.5899338624261322e-08 -0.0010003131464458111 9.6566409539785319e-08 5.5803111364420658e-08 -0.0012503450450341042 5.5731350237001377e-08 9.6602826548571967e-08 -0.0012503450193562474 5.5654579960274032e-08 3.1856575675278904e-08 -0.0010003118880433943 5.5731350237001377e-08 9.6602826548571967e-08 -0.0012503450193562474 -6.0501840720367619e-12 1.1152036128804602e-07 -0.0012503434295616908 9.1804589697170675e-09 5.7063848958902916e-08 -0.0012503438593126845 9.2582673489727055e-09 5.700908647452698e-08 -0.0010003108392518324 5.5731350237001377e-08 9.6602826548571967e-08 -0.0012503450193562474 9.1804589697170675e-09 5.7063848958902916e-08 -0.0012503438593126843 9.2582673489726873e-09 5.7009086474527013e-08 -0.0010003108392518327 5.5654579960274032e-08 3.1856575675278904e-08 -0.0010003118880433943 5.5731350237001377e-08 9.6602826548571967e-08 -0.0012503450193562474 -6.0501840720367619e-12 1.1152036128804602e-07 -0.0012503434295616908 9.2582673489727022e-09 5.7009086474526954e-08 -0.0010003108392518329 5.5758435645408082e-08 9.6693800123574545e-08 -0.0010003136138971428 -6.0501840720367619e-12 1.1152036128804602e-07 -0.0012503434295616908 -2.4311345442123964e-08 7.1412898560324e-08 -0.0010003097018008956 -8.6346354776782495e-11 1.1160829615856599e-07 -0.001000310990696047 -5.5767694691918578e-08 9.6579467658339226e-08 -0.0012503425501967909 -6.0501840720367619e-12 1.1152036128804602e-07 -0.0012503434295616908 -2.420236935245114e-08 7.1408478749520873e-08 -0.0012503436387921749 9.1804589697170675e-09 5.7063848958902916e-08 -0.0012503438593126845 -2.4311345442123964e-08 7.1412898560324e-08 -0.0010003097018008956 -6.0501840720367619e-12 1.1152036128804602e-07 -0.0012503434295616908 -2.420236935245114e-08 7.1408478749520873e-08 -0.0012503436387921749 -2.4311345442123964e-08 7.1412898560324e-08 -0.0010003097018008956 -5.5767694691918578e-08 9.6579467658339226e-08 -0.0012503425501967909 -6.0501840720367619e-12 1.1152036128804602e-07 -0.0012503434295616908 9.1804589697170675e-09 5.7063848958902916e-08 -0.0012503438593126845 -2.4311345442123964e-08 7.1412898560324e-08 -0.0010003097018008956 9.2582673489727071e-09 5.700908647452698e-08 -0.0010003108392518327 -2.420236935245114e-08 7.1408478749520873e-08 -0.0012503436387921749 9.1804589697170675e-09 5.7063848958902916e-08 -0.0012503438593126845 -2.4311345442123964e-08 7.1412898560324e-08 -0.0010003097018008956 -1.9820274837956337e-08 3.5855146401522283e-08 -0.0012503432396727219 -6.0501840720367619e-12 1.1152036128804602e-07 -0.0012503434295616908 -2.4311345442123964e-08 7.1412898560324e-08 -0.0010003097018008956 9.2582673489727071e-09 5.700908647452698e-08 -0.0010003108392518327 -8.6346354776782495e-11 1.1160829615856599e-07 -0.001000310990696047 -6.0501840720367619e-12 1.1152036128804602e-07 -0.0012503434295616908 9.2582673489727237e-09 5.7009086474526987e-08 -0.0010003108392518324 -8.6346354776782495e-11 1.1160829615856599e-07 -0.001000310990696047 5.5758435645408062e-08 9.6693800123574545e-08 -0.0010003136138971428 5.5731350237001377e-08 9.6602826548571967e-08 -0.0012503450193562474 9.2582673489726658e-09 5.7009086474526987e-08 -0.0010003108392518327 5.5758435645408082e-08 9.6693800123574545e-08 -0.0010003136138971428 5.5654579960274032e-08 3.1856575675278904e-08 -0.0010003118880433943 9.2582673489727071e-09 5.700908647452698e-08 -0.0010003108392518327 5.5758435645408082e-08 9.6693800123574545e-08 -0.0010003136138971428 1.0865529838618745e-08 5.7025167892418236e-08 -0.00075027892243909305 5.6585513226819973e-08 3.2001598157832746e-08 -0.00075028204803639768 5.5758435645408082e-08 9.6693800123574545e-08 -0.0010003136138971428 1.0865529838618705e-08 5.7025167892418243e-08 -0.00075027892243909305 5.7209199128595728e-08 9.5796432377087115e-08 -0.00075028566214618462 5.6585513226819986e-08 3.200159815783274e-08 -0.00075028204803639768 -8.6346354776782495e-11 1.1160829615856599e-07 -0.001000310990696047 5.5758435645408082e-08 9.6693800123574545e-08 -0.0010003136138971428 1.0865529838618745e-08 5.7025167892418236e-08 -0.00075027892243909305 5.7209199128595722e-08 9.5796432377087102e-08 -0.00075028566214618473 -8.6346354776782495e-11 1.1160829615856599e-07 -0.001000310990696047 1.0865529838618762e-08 5.7025167892418243e-08 -0.00075027892243909305 5.7209199128595708e-08 9.5796432377087115e-08 -0.00075028566214618462 1.9989999459651662e-09 1.1165772759755866e-07 -0.00075027970848845862 9.2582673489727071e-09 5.700908647452698e-08 -0.0010003108392518327 -8.6346354776778824e-11 1.11608296158566e-07 -0.001000310990696047 5.5758435645408082e-08 9.6693800123574545e-08 -0.0010003136138971428 1.0865529838618745e-08 5.7025167892418236e-08 -0.00075027892243909305 -2.4311345442123964e-08 7.1412898560324e-08 -0.0010003097018008956 9.2582673489727071e-09 5.700908647452698e-08 -0.0010003108392518327 -2.3150820546097575e-08 7.1581997542877989e-08 -0.00075027683267862941 -2.0017953205979182e-08 3.5792565918845961e-08 -0.0010003093683224721 -2.4311345442123964e-08 7.1412898560324e-08 -0.0010003097018008956 9.2582673489727071e-09 5.700908647452698e-08 -0.0010003108392518327 -8.6346354776782495e-11 1.1160829615856599e-07 -0.001000310990696047 -2.3150820546097575e-08 7.1581997542877989e-08 -0.00075027683267862941 -8.6346354776782495e-11 1.1160829615856599e-07 -0.001000310990696047 -2.3150820546097575e-08 7.1581997542877989e-08 -0.00075027683267862941 1.0865529838618745e-08 5.7025167892418236e-08 -0.00075027892243909305 1.9989999459651662e-09 1.1165772759755866e-07 -0.00075027970848845862 9.2582673489727071e-09 5.700908647452698e-08 -0.0010003108392518327 -8.6346354776782495e-11 1.1160829615856599e-07 -0.001000310990696047 -2.3150820546097575e-08 7.1581997542877989e-08 -0.00075027683267862941 1.0865529838618745e-08 5.7025167892418236e-08 -0.00075027892243909305 -2.4311345442123964e-08 7.1412898560324e-08 -0.0010003097018008956 -8.6346354776782495e-11 1.1160829615856599e-07 -0.001000310990696047 -2.3150820546097575e-08 7.1581997542877989e-08 -0.00075027683267862941 -5.5889601025332176e-08 9.6605253515862403e-08 -0.0010003093514134873 -2.5387338449692557e-08 6.9260101139785379e-08 -0.00050024057265386627 -2.3150820546097575e-08 7.1581997542877989e-08 -0.00075027683267862941 1.0865529838618745e-08 5.7025167892418236e-08 -0.00075027892243909305 1.9989999459651662e-09 1.1165772759755866e-07 -0.00075027970848845862 -2.5387338449692557e-08 6.9260101139785379e-08 -0.00050024057265386627 -2.3150820546097575e-08 7.1581997542877989e-08 -0.00075027683267862941 1.9989999459651472e-09 1.1165772759755867e-07 -0.00075027970848845862 -5.4063947514565852e-08 9.7721173476500936e-08 -0.00075027603226225908 1.2954140612465059e-08 5.6981952275973027e-08 -0.00050024586989985708 -2.5387338449692557e-08 6.9260101139785379e-08 -0.00050024057265386627 1.0865529838618745e-08 5.7025167892418236e-08 -0.00075027892243909305 1.9989999459651662e-09 1.1165772759755866e-07 -0.00075027970848845862 -2.5387338449692557e-08 6.9260101139785379e-08 -0.00050024057265386627 -2.3150820546097575e-08 7.1581997542877989e-08 -0.00075027683267862941 1.0865529838618745e-08 5.7025167892418236e-08 -0.00075027892243909305 -1.9290245833704362e-08 3.6140554617613586e-08 -0.00075027600330381536 4.4878124608134577e-08 1.0091049890921275e-07 -0.00050026551339588912 1.2954140612465051e-08 5.6981952275973034e-08 -0.00050024586989985708 5.7209199128595728e-08 9.5796432377087115e-08 -0.00075028566214618462 1.9989999459651811e-09 1.1165772759755863e-07 -0.00075027970848845862 1.2954140612465059e-08 5.6981952275973027e-08 -0.00050024586989985708 1.0865529838618745e-08 5.7025167892418236e-08 -0.00075027892243909305 5.7209199128595761e-08 9.5796432377087142e-08 -0.00075028566214618473 1.9989999459651662e-09 1.1165772759755866e-07 -0.00075027970848845862 5.7244326205538392e-08 3.4702527868837734e-08 -0.00050025570272997785 1.2954140612465056e-08 5.6981952275973027e-08 -0.00050024586989985708 1.0865529838618745e-08 5.7025167892418236e-08 -0.00075027892243909305 5.7209199128595742e-08 9.5796432377087129e-08 -0.00075028566214618462 -1.3462519747498107e-08 1.0928000439040646e-07 -0.00050025034434477268 -2.5387338449692557e-08 6.9260101139785379e-08 -0.00050024057265386627 1.9989999459651662e-09 1.1165772759755866e-07 -0.00075027970848845862 -5.4063947514565865e-08 9.7721173476500923e-08 -0.00075027603226225908 -8.6346354776782495e-11 1.1160829615856599e-07 -0.001000310990696047 -2.3150820546097575e-08 7.1581997542877989e-08 -0.00075027683267862941 1.9989999459651662e-09 1.1165772759755866e-07 -0.00075027970848845862 -5.5889601025332176e-08 9.6605253515862403e-08 -0.0010003093514134873 -5.1288148520237277e-08 5.0052271352366144e-08 -0.00050023973668806502 -2.3150820546097575e-08 7.1581997542877989e-08 -0.00075027683267862941 -5.4063947514565865e-08 9.7721173476500923e-08 -0.00075027603226225908 -4.8820580044217829e-08 5.3219316635982271e-08 -0.00075027602972913509 -5.1288148520237277e-08 5.0052271352366144e-08 -0.00050023973668806502 -2.5387338449692557e-08 6.9260101139785379e-08 -0.00050024057265386616 -2.3150820546097575e-08 7.1581997542877989e-08 -0.00075027683267862941 -1.9290245833704362e-08 3.6140554617613586e-08 -0.00075027600330381536 -5.1288148520237277e-08 5.0052271352366144e-08 -0.00050023973668806502 -2.5387338449692557e-08 6.9260101139785379e-08 -0.00050024057265386627 -2.3150820546097575e-08 7.1581997542877989e-08 -0.00075027683267862941 -5.4063947514565865e-08 9.7721173476500923e-08 -0.00075027603226225908 -5.1288148520237277e-08 5.0052271352366144e-08 -0.00050023973668806502 -6.6338940277642938e-08 8.7950496210855938e-08 -0.00050024100496393585 -5.4063947514565852e-08 9.7721173476500923e-08 -0.00075027603226225908 -9.5745055182052648e-08 5.7469873842171475e-08 -0.00075027822164845225 -5.1288148520237277e-08 5.0052271352366144e-08 -0.00050023973668806502 -5.4063947514565845e-08 9.772117347650091e-08 -0.00075027603226225897 -4.8820580044217836e-08 5.3219316635982271e-08 -0.00075027602972913509 -9.5745055182052635e-08 5.7469873842171462e-08 -0.00075027822164845236 -2.4311345442123964e-08 7.1412898560324e-08 -0.0010003097018008956 -2.3150820546097575e-08 7.1581997542877989e-08 -0.00075027683267862941 -2.0017953205979182e-08 3.5792565918845961e-08 -0.0010003093683224721 -4.8820580044217829e-08 5.3219316635982271e-08 -0.00075027602972913509 -2.3150820546097575e-08 7.1581997542877989e-08 -0.00075027683267862941 -5.4063947514565865e-08 9.7721173476500923e-08 -0.00075027603226225908 -5.5889601025332176e-08 9.6605253515862403e-08 -0.0010003093514134873 -4.8820580044217829e-08 5.3219316635982271e-08 -0.00075027602972913509 -2.3150820546097575e-08 7.1581997542877989e-08 -0.00075027683267862941 1.9989999459651662e-09 1.1165772759755866e-07 -0.00075027970848845862 -5.4063947514565865e-08 9.7721173476500923e-08 -0.00075027603226225908 -5.5889601025332176e-08 9.6605253515862403e-08 -0.0010003093514134873 -2.4311345442123964e-08 7.1412898560324e-08 -0.0010003097018008956 -5.5889601025332176e-08 9.6605253515862403e-08 -0.0010003093514134873 -4.9523215207216438e-08 5.2963002428129392e-08 -0.0010003090211555617 -4.8820580044217829e-08 5.3219316635982271e-08 -0.00075027602972913509 -2.4311345442123964e-08 7.1412898560324e-08 -0.0010003097018008956 -2.3150820546097575e-08 7.1581997542877989e-08 -0.00075027683267862941 -5.5889601025332176e-08 9.6605253515862403e-08 -0.0010003093514134873 -4.8820580044217829e-08 5.3219316635982271e-08 -0.00075027602972913509 -5.4063947514565865e-08 9.7721173476500923e-08 -0.00075027603226225908 -5.5889601025332176e-08 9.6605253515862403e-08 -0.0010003093514134873 -9.6698930719529351e-08 5.5735000014114609e-08 -0.0010003098361471535 -4.8820580044217829e-08 5.3219316635982271e-08 -0.00075027602972913509 -5.5889601025332176e-08 9.6605253515862403e-08 -0.0010003093514134873 -9.6698930719529351e-08 5.5735000014114609e-08 -0.0010003098361471535 -4.9523215207216438e-08 5.2963002428129392e-08 -0.0010003090211555617 -4.8820580044217829e-08 5.3219316635982271e-08 -0.00075027602972913509 -5.4063947514565865e-08 9.7721173476500923e-08 -0.00075027603226225908 -9.6698930719529351e-08 5.5735000014114609e-08 -0.0010003098361471535 -4.8820580044217829e-08 5.3219316635982271e-08 -0.00075027602972913509 -9.5745055182052635e-08 5.7469873842171481e-08 -0.00075027822164845236 -5.5889601025332176e-08 9.6605253515862403e-08 -0.0010003093514134873 -9.6597148665367378e-08 5.5734480165415637e-08 -0.0012503423968819225 -9.6698930719529351e-08 5.5735000014114609e-08 -0.0010003098361471535 -4.9523215207216438e-08 5.2963002428129392e-08 -0.0010003090211555617 -2.4311345442123964e-08 7.1412898560324e-08 -0.0010003097018008956 -5.5889601025332176e-08 9.6605253515862403e-08 -0.0010003093514134873 -5.5767694691918578e-08 9.6579467658339226e-08 -0.0012503425501967909 -4.9523215207216438e-08 5.2963002428129392e-08 -0.0010003090211555617 -2.4311345442123964e-08 7.1412898560324e-08 -0.0010003097018008956 -8.6346354776782495e-11 1.1160829615856599e-07 -0.001000310990696047 -5.5889601025332176e-08 9.6605253515862403e-08 -0.0010003093514134873 -5.5767694691918578e-08 9.6579467658339226e-08 -0.0012503425501967909 -5.5767694691918578e-08 9.6579467658339226e-08 -0.0012503425501967909 -9.6597148665367378e-08 5.5734480165415637e-08 -0.0012503423968819225 -4.9523215207216438e-08 5.2963002428129398e-08 -0.0010003090211555617 -4.9234397805926293e-08 5.3029730522212745e-08 -0.0012503435904729395 -2.420236935245114e-08 7.1408478749520873e-08 -0.0012503436387921749 -2.4311345442123964e-08 7.1412898560324e-08 -0.0010003097018008956 -4.9523215207216431e-08 5.2963002428129392e-08 -0.0010003090211555617 -1.9820274837956337e-08 3.5855146401522283e-08 -0.0012503432396727219 -5.5889601025332176e-08 9.6605253515862403e-08 -0.0010003093514134873 -5.5767694691918578e-08 9.6579467658339226e-08 -0.0012503425501967909 -9.6597148665367378e-08 5.5734480165415637e-08 -0.0012503423968819225 -4.9523215207216438e-08 5.2963002428129392e-08 -0.0010003090211555617 -2.420236935245114e-08 7.1408478749520873e-08 -0.0012503436387921749 -2.4311345442123964e-08 7.1412898560324e-08 -0.0010003097018008956 -5.5767694691918578e-08 9.6579467658339226e-08 -0.0012503425501967909 -4.9523215207216438e-08 5.2963002428129392e-08 -0.0010003090211555617 -2.420236935245114e-08 7.1408478749520873e-08 -0.0012503436387921749 -5.5767694691918578e-08 9.6579467658339226e-08 -0.0012503425501967909 -4.9523215207216438e-08 5.2963002428129385e-08 -0.0010003090211555617 -4.9234397805926293e-08 5.3029730522212745e-08 -0.0012503435904729395 -9.6597148665367378e-08 5.5734480165415637e-08 -0.0012503423968819225 -1.1152109486314716e-07 -6.1299054269195286e-12 -0.0012503422485562572 -5.0386895972304458e-08 5.4567616638646693e-09 -0.0012503424187937258 -5.0640904300748583e-08 5.2446758442636481e-09 -0.0010003091045474007 -9.6597148665367378e-08 5.5734480165415637e-08 -0.0012503423968819225 -9.6698930719529351e-08 5.5735000014114609e-08 -0.0010003098361471535 -1.1152109486314716e-07 -6.1299054269146471e-12 -0.0012503422485562574 -5.0640904300748583e-08 5.2446758442636481e-09 -0.0010003091045474007 -9.6597148665367378e-08 5.5734480165415637e-08 -0.0012503423968819225 -9.6698930719529351e-08 5.5735000014114609e-08 -0.0010003098361471535 -5.0640904300748583e-08 5.2446758442636481e-09 -0.0010003091045474007 -4.9523215207216438e-08 5.2963002428129392e-08 -0.0010003090211555617 -9.6698930719529351e-08 5.5735000014114609e-08 -0.0010003098361471535 -1.1160517886772943e-07 -1.0815869395029296e-10 -0.0010003099880740872 -1.1152109486314716e-07 -6.1299054269189817e-12 -0.0012503422485562572 -5.0640904300748583e-08 5.2446758442636481e-09 -0.0010003091045474007 -1.1160517886772943e-07 -1.0815869395029309e-10 -0.001000309988074087 -1.1152109486314716e-07 -6.1299054269189817e-12 -0.0012503422485562572 -5.0640904300748583e-08 5.2446758442636481e-09 -0.0010003091045474007 -6.6118997419926351e-08 -4.0521264637257946e-08 -0.0010003084855542182 -1.1160517886772943e-07 -1.0815869395029309e-10 -0.001000309988074087 -1.1152109486314716e-07 -6.1299054269189817e-12 -0.0012503422485562572 -6.6118997419926351e-08 -4.0521264637257946e-08 -0.0010003084855542182 -9.6577999071699634e-08 -5.5782379673230172e-08 -0.0012503416445531553 -1.1152109486314716e-07 -6.1299054269189817e-12 -0.0012503422485562572 -5.0386895972304451e-08 5.4567616638646751e-09 -0.001250342418793726 -5.0640904300748583e-08 5.2446758442636481e-09 -0.0010003091045474007 -6.6118997419926351e-08 -4.0521264637257946e-08 -0.0010003084855542182 -1.1152109486314716e-07 -6.1299054269189817e-12 -0.0012503422485562572 -5.0386895972304451e-08 5.4567616638646751e-09 -0.001250342418793726 -6.6118997419926351e-08 -4.0521264637257946e-08 -0.0010003084855542182 -6.5861345249869469e-08 -4.032886212899648e-08 -0.0012503429875137012 -5.0386895972304451e-08 5.4567616638646751e-09 -0.001250342418793726 -5.0640904300748583e-08 5.2446758442636481e-09 -0.0010003091045474007 -1.5313441744050266e-08 -5.5565151087264445e-08 -0.0010003084107090483 -6.6118997419926351e-08 -4.0521264637257946e-08 -0.0010003084855542182 -5.0386895972304451e-08 5.4567616638646751e-09 -0.001250342418793726 -5.0640904300748583e-08 5.2446758442636481e-09 -0.0010003091045474007 4.8243636009157774e-09 1.3972275185496892e-09 -0.0010003091416090314 -1.5313441744050286e-08 -5.5565151087264445e-08 -0.0010003084107090483 -5.0386895972304451e-08 5.4567616638646751e-09 -0.001250342418793726 -5.0640904300748583e-08 5.2446758442636481e-09 -0.0010003091045474007 4.8243636009157799e-09 1.3972275185496898e-09 -0.0010003091416090311 -2.0017953205979182e-08 3.5792565918845961e-08 -0.0010003093683224721 -5.0386895972304451e-08 5.4567616638646751e-09 -0.001250342418793726 -5.0640904300748583e-08 5.2446758442636481e-09 -0.0010003091045474007 -4.9523215207216438e-08 5.2963002428129392e-08 -0.0010003090211555617 -2.0017953205979182e-08 3.5792565918845961e-08 -0.0010003093683224721 -2.4311345442123964e-08 7.1412898560324e-08 -0.0010003097018008956 -4.9523215207216438e-08 5.2963002428129392e-08 -0.0010003090211555617 -1.9820274837956337e-08 3.5855146401522283e-08 -0.0012503432396727219 -2.0017953205979182e-08 3.5792565918845961e-08 -0.0010003093683224721 -5.0386895972304451e-08 5.4567616638646751e-09 -0.001250342418793726 -4.9523215207216438e-08 5.2963002428129392e-08 -0.0010003090211555617 -1.9820274837956337e-08 3.5855146401522283e-08 -0.0012503432396727219 -2.0017953205979182e-08 3.5792565918845961e-08 -0.0010003093683224721 -2.420236935245114e-08 7.1408478749520873e-08 -0.0012503436387921749 -4.9523215207216445e-08 5.2963002428129392e-08 -0.0010003090211555617 -4.9234397805926293e-08 5.3029730522212745e-08 -0.0012503435904729395 -1.9820274837956337e-08 3.5855146401522283e-08 -0.0012503432396727219 -9.6597148665367378e-08 5.5734480165415637e-08 -0.0012503423968819225 -5.0386895972304451e-08 5.4567616638646751e-09 -0.001250342418793726 -5.0640904300748583e-08 5.2446758442636481e-09 -0.0010003091045474007 -4.9523215207216438e-08 5.2963002428129392e-08 -0.0010003090211555617 -5.0386895972304451e-08 5.4567616638646751e-09 -0.001250342418793726 -4.9523215207216438e-08 5.2963002428129392e-08 -0.0010003090211555617 -4.9234397805926293e-08 5.3029730522212745e-08 -0.0012503435904729395 -1.9820274837956337e-08 3.5855146401522283e-08 -0.0012503432396727219 -9.6597148665367378e-08 5.5734480165415637e-08 -0.0012503423968819225 -5.0386895972304451e-08 5.4567616638646751e-09 -0.001250342418793726 -4.9523215207216438e-08 5.2963002428129392e-08 -0.0010003090211555617 -4.9234397805926293e-08 5.3029730522212745e-08 -0.0012503435904729395 9.1804589697170675e-09 5.7063848958902916e-08 -0.0012503438593126845 -2.4311345442123964e-08 7.1412898560324e-08 -0.0010003097018008956 -1.9820274837956337e-08 3.5855146401522283e-08 -0.0012503432396727219 -2.0017953205979182e-08 3.5792565918845961e-08 -0.0010003093683224721 9.1804589697170675e-09 5.7063848958902916e-08 -0.0012503438593126845 -1.9820274837956337e-08 3.5855146401522283e-08 -0.0012503432396727219 4.9910993112999283e-09 1.5338074380802888e-09 -0.0012503426991213548 -2.0017953205979182e-08 3.5792565918845961e-08 -0.0010003093683224721 -5.0386895972304451e-08 5.4567616638646751e-09 -0.001250342418793726 -1.9820274837956337e-08 3.5855146401522283e-08 -0.0012503432396727219 4.9910993112999283e-09 1.5338074380802888e-09 -0.0012503426991213548 -2.0017953205979182e-08 3.5792565918845961e-08 -0.0010003093683224721 9.1804589697170675e-09 5.7063848958902916e-08 -0.0012503438593126845 9.2582673489727071e-09 5.700908647452698e-08 -0.0010003108392518327 4.9910993112999283e-09 1.5338074380802888e-09 -0.0012503426991213548 -2.0017953205979182e-08 3.5792565918845961e-08 -0.0010003093683224721 -5.0386895972304451e-08 5.4567616638646751e-09 -0.001250342418793726 4.9910993112999283e-09 1.5338074380802888e-09 -0.0012503426991213548 4.8243636009157617e-09 1.3972275185496977e-09 -0.0010003091416090309 -1.4913665629036498e-08 -5.5367950086076951e-08 -0.0012503418554290814 -5.0386895972304451e-08 5.4567616638646751e-09 -0.001250342418793726 4.9910993112999283e-09 1.5338074380802888e-09 -0.0012503426991213548 4.8243636009157617e-09 1.3972275185496706e-09 -0.0010003091416090311 -2.0017953205979182e-08 3.5792565918845961e-08 -0.0010003093683224721 4.9910993112999283e-09 1.5338074380802888e-09 -0.0012503426991213548 4.8243636009157625e-09 1.3972275185496977e-09 -0.0010003091416090311 2.13585907773173e-08 -3.6555104110489445e-08 -0.001000308580230943 -1.4913665629036498e-08 -5.5367950086076951e-08 -0.0012503418554290814 -5.0386895972304451e-08 5.4567616638646751e-09 -0.001250342418793726 4.8243636009157617e-09 1.3972275185496999e-09 -0.0010003091416090311 -1.5313441744050319e-08 -5.5565151087264438e-08 -0.0010003084107090483 -1.4913665629036498e-08 -5.5367950086076951e-08 -0.0012503418554290814 4.9910993112999283e-09 1.5338074380802888e-09 -0.0012503426991213548 5.3694057722861265e-08 -2.0355104470020157e-08 -0.0012503433725540203 2.1358590777317303e-08 -3.6555104110489451e-08 -0.001000308580230943 2.1590360226464233e-08 -3.6352207097654346e-08 -0.0012503428874360023 4.9910993112999283e-09 1.5338074380802888e-09 -0.0012503426991213548 5.3694057722861265e-08 -2.0355104470020157e-08 -0.0012503433725540203 4.8243636009157625e-09 1.3972275185496977e-09 -0.0010003091416090311 2.1358590777317306e-08 -3.6555104110489445e-08 -0.001000308580230943 4.9910993112999283e-09 1.5338074380802888e-09 -0.0012503426991213548 5.3694057722861265e-08 -2.0355104470020157e-08 -0.0012503433725540203 5.5654579960274032e-08 3.1856575675278904e-08 -0.0010003118880433943 4.8243636009157625e-09 1.3972275185496977e-09 -0.0010003091416090311 4.9910993112999283e-09 1.5338074380802888e-09 -0.0012503426991213548 5.3694057722861265e-08 -2.0355104470020157e-08 -0.0012503433725540203 5.5648313315408448e-08 3.1980086324339047e-08 -0.0012503459193381099 5.5654579960274032e-08 3.1856575675278904e-08 -0.0010003118880433943 5.5731350237001377e-08 9.6602826548571967e-08 -0.0012503450193562474 9.1804589697170725e-09 5.706384895890291e-08 -0.0012503438593126845 5.5648313315408448e-08 3.1980086324339047e-08 -0.0012503459193381099 5.5654579960274032e-08 3.1856575675278904e-08 -0.0010003118880433943 9.1804589697170675e-09 5.7063848958902916e-08 -0.0012503438593126845 9.2582673489727071e-09 5.700908647452698e-08 -0.0010003108392518327 4.9910993112999283e-09 1.5338074380802888e-09 -0.0012503426991213548 5.5654579960274012e-08 3.1856575675278904e-08 -0.0010003118880433941 9.1804589697170675e-09 5.7063848958902916e-08 -0.0012503438593126845 4.9910993112999283e-09 1.5338074380802888e-09 -0.0012503426991213548 5.5648313315408448e-08 3.1980086324339047e-08 -0.0012503459193381099 5.5654579960274032e-08 3.1856575675278904e-08 -0.0010003118880433943 9.2582673489727071e-09 5.700908647452698e-08 -0.0010003108392518327 4.9910993112999283e-09 1.5338074380802888e-09 -0.0012503426991213548 5.5654579960274032e-08 3.1856575675278897e-08 -0.0010003118880433943 4.8243636009157625e-09 1.3972275185496977e-09 -0.0010003091416090311 5.3694057722861265e-08 -2.0355104470020157e-08 -0.0012503433725540203 5.5654579960274052e-08 3.1856575675278904e-08 -0.0010003118880433943 5.3605822391298993e-08 -2.0503146808594925e-08 -0.0010003100323127284 4.8243636009157791e-09 1.3972275185496946e-09 -0.0010003091416090311 5.3694057722861265e-08 -2.0355104470020157e-08 -0.0012503433725540203 5.3605822391298993e-08 -2.0503146808594925e-08 -0.0010003100323127284 4.8243636009157832e-09 1.3972275185497064e-09 -0.0010003091416090311 2.1358590777317316e-08 -3.6555104110489458e-08 -0.001000308580230943 9.1804589697170675e-09 5.7063848958902916e-08 -0.0012503438593126845 -2.4311345442123964e-08 7.1412898560324e-08 -0.0010003097018008956 9.2582673489727104e-09 5.700908647452698e-08 -0.0010003108392518329 -2.0017953205979182e-08 3.5792565918845961e-08 -0.0010003093683224721 9.2582673489727071e-09 5.700908647452698e-08 -0.0010003108392518327 4.99109931129992e-09 1.5338074380802894e-09 -0.0012503426991213545 4.8243636009157625e-09 1.3972275185496977e-09 -0.0010003091416090311 -2.0017953205979182e-08 3.5792565918845961e-08 -0.0010003093683224721 9.2582673489727071e-09 5.700908647452698e-08 -0.0010003108392518327 1.0865529838618745e-08 5.7025167892418236e-08 -0.00075027892243909305 4.8243636009157625e-09 1.3972275185496977e-09 -0.0010003091416090311 -1.9290245833704362e-08 3.6140554617613586e-08 -0.00075027600330381536 1.0865529838618745e-08 5.7025167892418236e-08 -0.00075027892243909305 4.8243636009157543e-09 1.3972275185496983e-09 -0.0010003091416090311 4.9011080589441071e-09 1.8464300177525696e-09 -0.00075027576101196331 -1.9290245833704362e-08 3.6140554617613586e-08 -0.00075027600330381536 9.2582673489727071e-09 5.700908647452698e-08 -0.0010003108392518327 -2.3150820546097575e-08 7.1581997542877989e-08 -0.00075027683267862941 1.0865529838618749e-08 5.7025167892418236e-08 -0.00075027892243909316 -1.9290245833704362e-08 3.6140554617613586e-08 -0.00075027600330381536 -5.0640904300748583e-08 5.2446758442636481e-09 -0.0010003091045474007 4.8243636009157625e-09 1.3972275185496977e-09 -0.0010003091416090311 -2.0017953205979182e-08 3.5792565918845961e-08 -0.0010003093683224721 -1.9290245833704362e-08 3.6140554617613586e-08 -0.00075027600330381536 9.2582673489727071e-09 5.700908647452698e-08 -0.0010003108392518327 -2.3150820546097575e-08 7.1581997542877989e-08 -0.00075027683267862941 -2.0017953205979182e-08 3.5792565918845961e-08 -0.0010003093683224721 -1.9290245833704362e-08 3.6140554617613586e-08 -0.00075027600330381536 9.2582673489727071e-09 5.700908647452698e-08 -0.0010003108392518327 4.8243636009157625e-09 1.3972275185496977e-09 -0.0010003091416090311 -2.0017953205979182e-08 3.5792565918845961e-08 -0.0010003093683224721 -1.9290245833704362e-08 3.6140554617613586e-08 -0.00075027600330381536 4.8243636009157625e-09 1.3972275185496977e-09 -0.0010003091416090311 4.9011080589441071e-09 1.8464300177525696e-09 -0.00075027576101196331 2.0979606637680794e-08 -3.6313414294709916e-08 -0.00075027482276317171 -1.5313441744050299e-08 -5.5565151087264431e-08 -0.0010003084107090483 -5.0640904300748583e-08 5.2446758442636481e-09 -0.0010003091045474007 4.9011080589441063e-09 1.8464300177525719e-09 -0.00075027576101196331 -1.6514482485263153e-08 -5.525677127530865e-08 -0.00075027529800877717 -1.5313441744050299e-08 -5.5565151087264431e-08 -0.0010003084107090483 -5.0640904300748583e-08 5.2446758442636481e-09 -0.0010003091045474007 4.8243636009157625e-09 1.3972275185496977e-09 -0.0010003091416090311 4.9011080589441063e-09 1.8464300177525696e-09 -0.0007502757610119632 -1.5313441744050299e-08 -5.5565151087264431e-08 -0.0010003084107090483 -5.0640904300748583e-08 5.2446758442636481e-09 -0.0010003091045474007 4.8243636009157625e-09 1.3972275185496977e-09 -0.0010003091416090311 4.9011080589441055e-09 1.8464300177525425e-09 -0.00075027576101196331 -1.9290245833704362e-08 3.6140554617613586e-08 -0.00075027600330381536 5.3605822391298993e-08 -2.0503146808594925e-08 -0.0010003100323127284 4.8243636009157625e-09 1.3972275185496977e-09 -0.0010003091416090311 4.9011080589440906e-09 1.8464300177525409e-09 -0.00075027576101196342 2.09796066376808e-08 -3.6313414294709916e-08 -0.00075027482276317182 5.3605822391298993e-08 -2.0503146808594925e-08 -0.0010003100323127284 5.3657349993927476e-08 -1.9714371919960965e-08 -0.00075027713438148081 4.9011080589441278e-09 1.8464300177525785e-09 -0.00075027576101196331 2.097960663768081e-08 -3.6313414294709929e-08 -0.00075027482276317182 5.3605822391298993e-08 -2.0503146808594925e-08 -0.0010003100323127284 4.8243636009157625e-09 1.3972275185496977e-09 -0.0010003091416090311 2.09796066376808e-08 -3.6313414294709916e-08 -0.00075027482276317182 2.1358590777317306e-08 -3.6555104110489445e-08 -0.001000308580230943 5.3605822391298993e-08 -2.0503146808594925e-08 -0.0010003100323127284 4.8243636009157625e-09 1.3972275185496977e-09 -0.0010003091416090311 5.6585513226819986e-08 3.200159815783274e-08 -0.00075028204803639768 4.9011080589441171e-09 1.8464300177525861e-09 -0.00075027576101196342 5.3605822391298993e-08 -2.0503146808594925e-08 -0.0010003100323127284 5.6585513226820006e-08 3.200159815783274e-08 -0.00075028204803639779 5.3657349993927476e-08 -1.9714371919960965e-08 -0.00075027713438148081 4.9011080589441245e-09 1.8464300177525665e-09 -0.00075027576101196331 5.5654579960274032e-08 3.1856575675278904e-08 -0.0010003118880433943 5.3605822391298993e-08 -2.0503146808594925e-08 -0.0010003100323127284 4.8243636009157625e-09 1.3972275185496977e-09 -0.0010003091416090311 5.6585513226819986e-08 3.200159815783274e-08 -0.00075028204803639768 9.2582673489727071e-09 5.700908647452698e-08 -0.0010003108392518327 5.5758435645408082e-08 9.6693800123574545e-08 -0.0010003136138971428 5.5654579960274032e-08 3.1856575675278904e-08 -0.0010003118880433943 5.6585513226819986e-08 3.200159815783274e-08 -0.00075028204803639768 9.2582673489727071e-09 5.700908647452698e-08 -0.0010003108392518327 1.0865529838618745e-08 5.7025167892418236e-08 -0.00075027892243909305 4.8243636009157625e-09 1.3972275185496977e-09 -0.0010003091416090311 5.6585513226819966e-08 3.200159815783274e-08 -0.00075028204803639768 1.0865529838618745e-08 5.7025167892418236e-08 -0.00075027892243909305 4.8243636009157625e-09 1.3972275185496977e-09 -0.0010003091416090311 5.6585513226819986e-08 3.2001598157832733e-08 -0.00075028204803639757 4.9011080589441071e-09 1.8464300177525696e-09 -0.00075027576101196331 9.2582673489727071e-09 5.700908647452698e-08 -0.0010003108392518327 5.5654579960274032e-08 3.1856575675278911e-08 -0.0010003118880433943 4.8243636009157625e-09 1.3972275185496977e-09 -0.0010003091416090311 5.6585513226819986e-08 3.200159815783274e-08 -0.00075028204803639768 5.7244326205538392e-08 3.4702527868837734e-08 -0.00050025570272997785 1.2954140612465059e-08 5.6981952275973027e-08 -0.00050024586989985708 1.0865529838618745e-08 5.7025167892418236e-08 -0.00075027892243909305 4.9011080589441071e-09 1.8464300177525696e-09 -0.00075027576101196331 5.7244326205538392e-08 3.4702527868837734e-08 -0.00050025570272997785 1.0865529838618765e-08 5.702516789241823e-08 -0.00075027892243909305 5.7209199128595761e-08 9.5796432377087129e-08 -0.00075028566214618462 5.6585513226819986e-08 3.200159815783274e-08 -0.00075028204803639768 5.7244326205538392e-08 3.4702527868837734e-08 -0.00050025570272997785 1.0865529838618757e-08 5.7025167892418216e-08 -0.00075027892243909305 5.6585513226819986e-08 3.200159815783274e-08 -0.00075028204803639768 4.9011080589441071e-09 1.8464300177525696e-09 -0.00075027576101196331 2.1896277513137167e-08 -3.3947339917897608e-08 -0.00050023618606347066 5.2853845691472187e-09 3.397056788313197e-09 -0.00050024015922823682 5.3657349993927456e-08 -1.9714371919960978e-08 -0.00075027713438148092 4.9011080589441071e-09 1.8464300177525696e-09 -0.00075027576101196331 2.1896277513137167e-08 -3.3947339917897608e-08 -0.00050023618606347066 5.3657349993927489e-08 -1.9714371919960935e-08 -0.00075027713438148081 4.901108058944103e-09 1.8464300177525646e-09 -0.00075027576101196331 2.09796066376808e-08 -3.6313414294709916e-08 -0.00075027482276317182 5.2853845691472187e-09 3.397056788313197e-09 -0.00050024015922823682 5.7244326205538392e-08 3.4702527868837734e-08 -0.00050025570272997785 5.3657349993927456e-08 -1.9714371919960945e-08 -0.00075027713438148081 4.9011080589441071e-09 1.8464300177525696e-09 -0.00075027576101196331 5.7244326205538392e-08 3.4702527868837734e-08 -0.00050025570272997785 5.6585513226819986e-08 3.200159815783274e-08 -0.00075028204803639768 5.3657349993927496e-08 -1.9714371919960965e-08 -0.00075027713438148092 4.901108058944098e-09 1.8464300177525884e-09 -0.00075027576101196342 -1.9840649268396649e-08 3.6185363355264606e-08 -0.00050023854284745304 5.2853845691472187e-09 3.397056788313197e-09 -0.00050024015922823682 4.9011080589441071e-09 1.8464300177525696e-09 -0.00075027576101196331 -5.0696617651416062e-08 5.2387538274187103e-09 -0.00075027634798611022 5.2853845691472187e-09 3.397056788313197e-09 -0.00050024015922823682 4.9011080589441071e-09 1.8464300177525696e-09 -0.00075027576101196331 -5.0696617651416076e-08 5.2387538274186996e-09 -0.00075027634798611022 -1.651448248526315e-08 -5.5256771275308637e-08 -0.00075027529800877728 -1.7765106146084716e-08 -5.5700452428364355e-08 -0.00050024072853123826 5.2853845691472187e-09 3.397056788313197e-09 -0.00050024015922823682 -5.0696617651416095e-08 5.2387538274187244e-09 -0.00075027634798611033 -1.6514482485263137e-08 -5.5256771275308643e-08 -0.00075027529800877728 2.1896277513137167e-08 -3.3947339917897608e-08 -0.00050023618606347066 5.2853845691472187e-09 3.397056788313197e-09 -0.00050024015922823682 4.9011080589440865e-09 1.8464300177525591e-09 -0.00075027576101196331 -1.6514482485263114e-08 -5.525677127530863e-08 -0.00075027529800877728 -1.9840649268396649e-08 3.6185363355264606e-08 -0.00050023854284745304 -2.5387338449692557e-08 6.9260101139785379e-08 -0.00050024057265386627 1.0865529838618745e-08 5.7025167892418236e-08 -0.00075027892243909305 -1.9290245833704362e-08 3.6140554617613586e-08 -0.00075027600330381536 -1.9840649268396649e-08 3.6185363355264606e-08 -0.00050023854284745304 4.9011080589441071e-09 1.8464300177525696e-09 -0.00075027576101196331 -1.9290245833704362e-08 3.6140554617613586e-08 -0.00075027600330381536 -5.0696617651416062e-08 5.2387538274187103e-09 -0.00075027634798611022 -1.9840649268396649e-08 3.6185363355264606e-08 -0.00050023854284745304 1.2954140612465059e-08 5.6981952275973027e-08 -0.00050024586989985708 1.0865529838618745e-08 5.7025167892418236e-08 -0.00075027892243909305 4.9011080589441071e-09 1.8464300177525696e-09 -0.00075027576101196331 -1.9840649268396649e-08 3.6185363355264606e-08 -0.00050023854284745304 1.0865529838618745e-08 5.7025167892418236e-08 -0.00075027892243909305 4.9011080589441071e-09 1.8464300177525696e-09 -0.00075027576101196331 -1.9290245833704362e-08 3.6140554617613586e-08 -0.00075027600330381536 -5.1288148520237277e-08 5.0052271352366144e-08 -0.00050023973668806502 -4.8820580044217829e-08 5.3219316635982271e-08 -0.00075027602972913509 -9.5745055182052635e-08 5.7469873842171481e-08 -0.00075027822164845236 -5.0696617651416062e-08 5.2387538274187103e-09 -0.00075027634798611022 -5.1288148520237277e-08 5.0052271352366144e-08 -0.00050023973668806502 -2.3150820546097575e-08 7.1581997542877989e-08 -0.00075027683267862941 -1.9290245833704362e-08 3.6140554617613586e-08 -0.00075027600330381536 -4.8820580044217829e-08 5.3219316635982271e-08 -0.00075027602972913509 -5.0934102876624418e-08 3.0311069729200318e-09 -0.00050024263371940445 -5.1288148520237277e-08 5.0052271352366144e-08 -0.00050023973668806502 -9.5745055182052635e-08 5.7469873842171481e-08 -0.00075027822164845236 -5.0696617651416062e-08 5.2387538274187103e-09 -0.00075027634798611022 -5.1288148520237277e-08 5.0052271352366144e-08 -0.00050023973668806502 -1.9840649268396649e-08 3.6185363355264606e-08 -0.00050023854284745304 -1.9290245833704362e-08 3.6140554617613586e-08 -0.00075027600330381536 -5.0696617651416062e-08 5.2387538274187103e-09 -0.00075027634798611022 -5.1288148520237277e-08 5.0052271352366144e-08 -0.00050023973668806502 -1.9290245833704376e-08 3.6140554617613567e-08 -0.00075027600330381547 -4.8820580044217829e-08 5.3219316635982271e-08 -0.00075027602972913509 -5.0696617651416062e-08 5.2387538274187103e-09 -0.00075027634798611022 -5.0934102876624418e-08 3.0311069729200318e-09 -0.00050024263371940445 -9.5745055182052635e-08 5.7469873842171481e-08 -0.00075027822164845236 -1.1167807400759656e-07 1.937673861542046e-09 -0.00075027950081697943 -5.0696617651416062e-08 5.2387538274187103e-09 -0.00075027634798611022 -5.0934102876624418e-08 3.0311069729200318e-09 -0.00050024263371940445 -1.0132650205753621e-07 4.316400328742009e-08 -0.00050024814242185134 -9.5745055182052635e-08 5.7469873842171481e-08 -0.00075027822164845236 -1.1167807400759656e-07 1.937673861542046e-09 -0.00075027950081697943 -9.6698930719529351e-08 5.5735000014114609e-08 -0.0010003098361471535 -1.1160517886772943e-07 -1.0815869395029366e-10 -0.001000309988074087 -5.0640904300748589e-08 5.2446758442636423e-09 -0.0010003091045474005 -5.0696617651416062e-08 5.2387538274187103e-09 -0.00075027634798611022 -9.6698930719529351e-08 5.5735000014114609e-08 -0.0010003098361471535 -4.8820580044217856e-08 5.3219316635982271e-08 -0.00075027602972913498 -9.5745055182052635e-08 5.7469873842171481e-08 -0.00075027822164845236 -5.0696617651416062e-08 5.2387538274187103e-09 -0.00075027634798611022 -1.1160517886772943e-07 -1.0815869395029309e-10 -0.001000309988074087 -9.5745055182052648e-08 5.7469873842171495e-08 -0.00075027822164845236 -1.1167807400759656e-07 1.937673861542046e-09 -0.00075027950081697943 -5.0696617651416062e-08 5.2387538274187103e-09 -0.00075027634798611022 -9.6698930719529351e-08 5.5735000014114609e-08 -0.0010003098361471535 -1.1160517886772943e-07 -1.0815869395029389e-10 -0.001000309988074087 -9.5745055182052635e-08 5.7469873842171481e-08 -0.00075027822164845236 -5.0696617651416062e-08 5.2387538274187103e-09 -0.00075027634798611022 -2.4311345442123964e-08 7.1412898560324e-08 -0.0010003097018008956 -4.9523215207216438e-08 5.2963002428129392e-08 -0.0010003090211555617 -2.0017953205979182e-08 3.5792565918845961e-08 -0.0010003093683224721 -4.8820580044217829e-08 5.3219316635982271e-08 -0.00075027602972913509 -9.6698930719529351e-08 5.5735000014114609e-08 -0.0010003098361471535 -5.0640904300748583e-08 5.2446758442636481e-09 -0.0010003091045474007 -4.9523215207216438e-08 5.2963002428129392e-08 -0.0010003090211555617 -4.8820580044217829e-08 5.3219316635982271e-08 -0.00075027602972913509 -2.3150820546097575e-08 7.1581997542877989e-08 -0.00075027683267862941 -2.0017953205979182e-08 3.5792565918845961e-08 -0.0010003093683224721 -1.9290245833704362e-08 3.6140554617613586e-08 -0.00075027600330381536 -4.8820580044217829e-08 5.3219316635982271e-08 -0.00075027602972913509 -5.0640904300748583e-08 5.2446758442636481e-09 -0.0010003091045474007 -4.9523215207216438e-08 5.2963002428129392e-08 -0.0010003090211555617 -2.0017953205979182e-08 3.5792565918845961e-08 -0.0010003093683224721 -4.8820580044217829e-08 5.3219316635982271e-08 -0.00075027602972913509 -5.0640904300748583e-08 5.2446758442636481e-09 -0.0010003091045474007 -1.9290245833704379e-08 3.6140554617613613e-08 -0.00075027600330381536 -4.8820580044217829e-08 5.3219316635982271e-08 -0.00075027602972913509 -5.0696617651416062e-08 5.2387538274187103e-09 -0.00075027634798611022 -5.0640904300748583e-08 5.2446758442636481e-09 -0.0010003091045474007 -2.0017953205979182e-08 3.5792565918845961e-08 -0.0010003093683224721 -1.9290245833704362e-08 3.6140554617613586e-08 -0.00075027600330381536 -4.8820580044217829e-08 5.3219316635982271e-08 -0.00075027602972913509 -9.6698930719529351e-08 5.5735000014114609e-08 -0.0010003098361471535 -5.0640904300748583e-08 5.2446758442636481e-09 -0.0010003091045474007 -4.8820580044217829e-08 5.3219316635982271e-08 -0.00075027602972913509 -5.0696617651416062e-08 5.2387538274187103e-09 -0.00075027634798611022 -5.0640904300748583e-08 5.2446758442636481e-09 -0.0010003091045474007 4.9011080589441353e-09 1.8464300177525638e-09 -0.00075027576101196331 -5.0696617651416062e-08 5.2387538274187103e-09 -0.00075027634798611022 -1.651448248526311e-08 -5.5256771275308657e-08 -0.00075027529800877728 -5.0640904300748583e-08 5.2446758442636481e-09 -0.0010003091045474007 4.9011080589441311e-09 1.8464300177525545e-09 -0.00075027576101196331 -1.9290245833704362e-08 3.6140554617613586e-08 -0.00075027600330381536 -5.0696617651416062e-08 5.2387538274187103e-09 -0.00075027634798611022 -5.0640904300748583e-08 5.2446758442636481e-09 -0.0010003091045474007 -5.0696617651416062e-08 5.2387538274187103e-09 -0.00075027634798611022 -6.6852162399206748e-08 -4.0015026301675886e-08 -0.00075027665554074964 -1.6514482485263107e-08 -5.5256771275308663e-08 -0.00075027529800877739 -1.1160517886772943e-07 -1.0815869395029309e-10 -0.001000309988074087 -1.1167807400759656e-07 1.937673861542046e-09 -0.00075027950081697943 -6.6852162399206761e-08 -4.0015026301675886e-08 -0.00075027665554074964 -9.657820190824976e-08 -5.5901835498154579e-08 -0.0010003085674506467 -1.1160517886772943e-07 -1.0815869395029309e-10 -0.001000309988074087 -5.0640904300748583e-08 5.2446758442636481e-09 -0.0010003091045474007 -6.6852162399206761e-08 -4.0015026301675886e-08 -0.00075027665554074964 -6.6118997419926351e-08 -4.0521264637257946e-08 -0.0010003084855542182 -1.1160517886772943e-07 -1.0815869395029309e-10 -0.001000309988074087 -1.1167807400759656e-07 1.937673861542046e-09 -0.00075027950081697943 -5.0696617651416049e-08 5.238753827418731e-09 -0.00075027634798611022 -6.6852162399206774e-08 -4.0015026301675906e-08 -0.00075027665554074964 -1.1160517886772943e-07 -1.0815869395029309e-10 -0.001000309988074087 -5.0640904300748583e-08 5.2446758442636481e-09 -0.0010003091045474007 -5.0696617651416062e-08 5.2387538274187103e-09 -0.00075027634798611022 -6.6852162399206761e-08 -4.0015026301675886e-08 -0.00075027665554074964 -6.5684941231149977e-08 -4.3493554078238384e-08 -0.00050024544080531051 -1.0916642895289089e-07 -1.3238868892269825e-08 -0.00050025384485882438 -1.1167807400759656e-07 1.937673861542046e-09 -0.00075027950081697943 -9.7770361242555886e-08 -5.4077178419457087e-08 -0.00075027636077553794 -6.5684941231149977e-08 -4.3493554078238384e-08 -0.00050024544080531051 -5.0934102876624418e-08 3.0311069729200318e-09 -0.00050024263371940445 -1.1167807400759656e-07 1.937673861542046e-09 -0.00075027950081697943 -5.0696617651416062e-08 5.2387538274187103e-09 -0.00075027634798611022 -6.5684941231149977e-08 -4.3493554078238384e-08 -0.00050024544080531051 -1.1167807400759656e-07 1.937673861542046e-09 -0.00075027950081697943 -5.0696617651416056e-08 5.2387538274187203e-09 -0.00075027634798611033 -6.6852162399206761e-08 -4.0015026301675886e-08 -0.00075027665554074964 -1.7765106146084716e-08 -5.5700452428364355e-08 -0.00050024072853123826 -6.5684941231149977e-08 -4.3493554078238384e-08 -0.00050024544080531051 -5.0696617651416056e-08 5.2387538274187409e-09 -0.00075027634798611033 -1.6514482485263137e-08 -5.5256771275308643e-08 -0.00075027529800877728 -6.5684941231149977e-08 -4.3493554078238384e-08 -0.00050024544080531051 -5.0696617651416102e-08 5.2387538274186996e-09 -0.00075027634798611022 -6.6852162399206761e-08 -4.0015026301675886e-08 -0.00075027665554074964 -1.6514482485263097e-08 -5.5256771275308663e-08 -0.00075027529800877728 -1.7765106146084716e-08 -5.5700452428364355e-08 -0.00050024072853123826 -6.5684941231149977e-08 -4.3493554078238384e-08 -0.00050024544080531051 -5.717062538027873e-08 -9.5808382509300664e-08 -0.00075027800275263119 -1.6514482485263137e-08 -5.5256771275308643e-08 -0.00075027529800877728 -6.5684941231149977e-08 -4.3493554078238384e-08 -0.00050024544080531051 -6.6852162399206761e-08 -4.0015026301675886e-08 -0.00075027665554074964 -5.7170625380278743e-08 -9.5808382509300678e-08 -0.00075027800275263119 -1.6514482485263097e-08 -5.5256771275308617e-08 -0.00075027529800877728 -6.5684941231149977e-08 -4.3493554078238384e-08 -0.00050024544080531051 -6.6852162399206761e-08 -4.0015026301675886e-08 -0.00075027665554074964 -9.7770361242555872e-08 -5.40771784194571e-08 -0.00075027636077553794 -5.7170625380278756e-08 -9.5808382509300664e-08 -0.00075027800275263119 -6.5684941231149977e-08 -4.3493554078238384e-08 -0.00050024544080531051 -1.1167807400759656e-07 1.937673861542046e-09 -0.00075027950081697943 -6.6852162399206761e-08 -4.0015026301675886e-08 -0.00075027665554074964 -9.7770361242555886e-08 -5.4077178419457087e-08 -0.00075027636077553794 -8.7987132583379617e-08 -6.6310467107691322e-08 -0.00050024670278527895 -6.5684941231149977e-08 -4.3493554078238378e-08 -0.00050024544080531051 -9.7770361242555886e-08 -5.4077178419457087e-08 -0.00075027636077553794 -5.717062538027873e-08 -9.5808382509300664e-08 -0.00075027800275263119 -6.6852162399206761e-08 -4.0015026301675886e-08 -0.00075027665554074964 -9.7770361242555886e-08 -5.4077178419457087e-08 -0.00075027636077553794 -5.5763241742873202e-08 -9.6694592930030379e-08 -0.0010003090631392555 -9.6578201908249746e-08 -5.5901835498154585e-08 -0.0010003085674506467 -1.1167807400759656e-07 1.937673861542046e-09 -0.00075027950081697943 -6.6852162399206761e-08 -4.0015026301675886e-08 -0.00075027665554074964 -9.7770361242555886e-08 -5.4077178419457087e-08 -0.00075027636077553794 -9.657820190824976e-08 -5.5901835498154579e-08 -0.0010003085674506467 -1.1160517886772943e-07 -1.0815869395029309e-10 -0.001000309988074087 -6.6852162399206788e-08 -4.0015026301675886e-08 -0.00075027665554074953 -6.6118997419926365e-08 -4.0521264637257953e-08 -0.0010003084855542182 -9.657820190824976e-08 -5.5901835498154579e-08 -0.0010003085674506467 -6.6852162399206761e-08 -4.0015026301675886e-08 -0.00075027665554074964 -5.5763241742873222e-08 -9.6694592930030379e-08 -0.0010003090631392555 -6.6118997419926351e-08 -4.0521264637257946e-08 -0.0010003084855542182 -9.657820190824976e-08 -5.5901835498154592e-08 -0.0010003085674506467 -6.6852162399206761e-08 -4.0015026301675886e-08 -0.00075027665554074964 -1.5313441744050269e-08 -5.5565151087264418e-08 -0.0010003084107090483 -5.5763241742873208e-08 -9.6694592930030379e-08 -0.0010003090631392553 -6.6118997419926351e-08 -4.0521264637257946e-08 -0.0010003084855542182 -5.0640904300748583e-08 5.2446758442636481e-09 -0.0010003091045474007 -6.6852162399206748e-08 -4.0015026301675886e-08 -0.00075027665554074964 -1.5313441744050299e-08 -5.5565151087264431e-08 -0.0010003084107090483 -6.6118997419926351e-08 -4.0521264637257946e-08 -0.0010003084855542182 -6.6852162399206761e-08 -4.0015026301675886e-08 -0.00075027665554074964 -1.6514482485263137e-08 -5.5256771275308643e-08 -0.00075027529800877728 -1.5313441744050299e-08 -5.5565151087264431e-08 -0.0010003084107090483 -5.5763241742873195e-08 -9.6694592930030393e-08 -0.0010003090631392555 -5.0640904300748583e-08 5.2446758442636481e-09 -0.0010003091045474007 -6.6852162399206761e-08 -4.0015026301675886e-08 -0.00075027665554074953 -1.6514482485263101e-08 -5.5256771275308624e-08 -0.00075027529800877717 -1.5313441744050299e-08 -5.5565151087264431e-08 -0.0010003084107090483 -6.6852162399206761e-08 -4.0015026301675886e-08 -0.00075027665554074964 -5.717062538027873e-08 -9.5808382509300664e-08 -0.00075027800275263119 -1.6514482485263137e-08 -5.5256771275308643e-08 -0.00075027529800877728 -5.5763241742873195e-08 -9.6694592930030393e-08 -0.0010003090631392555 -6.6852162399206761e-08 -4.0015026301675886e-08 -0.00075027665554074964 -9.7770361242555886e-08 -5.4077178419457087e-08 -0.00075027636077553794 -5.717062538027873e-08 -9.5808382509300664e-08 -0.00075027800275263119 -5.5763241742873195e-08 -9.6694592930030393e-08 -0.0010003090631392555 -5.717062538027873e-08 -9.5808382509300664e-08 -0.00075027800275263119 -1.6514482485263134e-08 -5.5256771275308643e-08 -0.00075027529800877728 9.1322762626435671e-11 -1.1160988334912509e-07 -0.0010003081014458924 -5.5763241742873195e-08 -9.6694592930030393e-08 -0.0010003090631392555 -1.7765106146084716e-08 -5.5700452428364355e-08 -0.00050024072853123826 -4.4958437700168328e-08 -1.009190944261381e-07 -0.0005002514395811877 -5.717062538027871e-08 -9.5808382509300678e-08 -0.00075027800275263119 -1.9359718673685897e-09 -1.1165202289930204e-07 -0.00075027482618200095 2.1584306972143467e-08 -7.3844905161841126e-08 -0.0005002370529161599 -1.7765106146084716e-08 -5.5700452428364355e-08 -0.00050024072853123826 -1.9359718673686067e-09 -1.1165202289930201e-07 -0.00075027482618200095 -1.6514482485263137e-08 -5.5256771275308643e-08 -0.00075027529800877728 -1.7765106146084716e-08 -5.5700452428364355e-08 -0.00050024072853123826 -5.7170625380278723e-08 -9.5808382509300678e-08 -0.00075027800275263119 -1.9359718673686162e-09 -1.1165202289930203e-07 -0.00075027482618200095 -1.6514482485263137e-08 -5.5256771275308643e-08 -0.00075027529800877728 2.1584306972143467e-08 -7.3844905161841126e-08 -0.0005002370529161599 -1.9359718673686067e-09 -1.1165202289930201e-07 -0.00075027482618200095 -1.6514482485263137e-08 -5.5256771275308643e-08 -0.00075027529800877728 1.9442731937291601e-08 -7.5924905279544205e-08 -0.00075027448358013502 2.1584306972143467e-08 -7.3844905161841126e-08 -0.0005002370529161599 2.1896277513137167e-08 -3.3947339917897608e-08 -0.00050023618606347066 -1.6514482485263137e-08 -5.5256771275308643e-08 -0.00075027529800877728 1.9442731937291601e-08 -7.5924905279544205e-08 -0.00075027448358013502 2.1896277513137167e-08 -3.3947339917897608e-08 -0.00050023618606347066 4.9011080589440873e-09 1.8464300177525597e-09 -0.00075027576101196331 -1.651448248526314e-08 -5.5256771275308617e-08 -0.00075027529800877728 2.09796066376808e-08 -3.6313414294709916e-08 -0.00075027482276317182 2.1896277513137167e-08 -3.3947339917897608e-08 -0.00050023618606347066 -1.6514482485263127e-08 -5.525677127530867e-08 -0.00075027529800877728 2.09796066376808e-08 -3.6313414294709916e-08 -0.00075027482276317182 1.9442731937291601e-08 -7.5924905279544205e-08 -0.00075027448358013502 5.1805934189053783e-08 -5.3007706777354911e-08 -0.00050023741773650798 5.3657349993927443e-08 -1.9714371919960962e-08 -0.00075027713438148081 4.9129691809438549e-08 -5.6862899991221627e-08 -0.00075027503192190957 2.0979606637680823e-08 -3.6313414294709902e-08 -0.00075027482276317182 2.1896277513137167e-08 -3.3947339917897608e-08 -0.00050023618606347066 5.1805934189053783e-08 -5.3007706777354911e-08 -0.00050023741773650798 5.3657349993927476e-08 -1.9714371919960965e-08 -0.00075027713438148081 2.09796066376808e-08 -3.6313414294709916e-08 -0.00075027482276317182 5.1805934189053783e-08 -5.3007706777354911e-08 -0.00050023741773650798 4.9129691809438549e-08 -5.6862899991221627e-08 -0.00075027503192190957 2.09796066376808e-08 -3.6313414294709916e-08 -0.00075027482276317182 1.9442731937291601e-08 -7.5924905279544205e-08 -0.00075027448358013502 2.1896277513137167e-08 -3.3947339917897608e-08 -0.00050023618606347066 5.1805934189053783e-08 -5.3007706777354911e-08 -0.00050023741773650798 2.09796066376808e-08 -3.6313414294709916e-08 -0.00075027482276317182 1.9442731937291601e-08 -7.5924905279544205e-08 -0.00075027448358013502 2.1584306972143467e-08 -7.3844905161841126e-08 -0.0005002370529161599 1.3426711730289978e-08 -1.0928212300937195e-07 -0.00050024182634960843 5.4070228974203986e-08 -9.7714605222722332e-08 -0.00075027448065851819 -1.9359718673686067e-09 -1.1165202289930201e-07 -0.00075027482618200095 2.1584306972143467e-08 -7.3844905161841126e-08 -0.0005002370529161599 5.4070228974203986e-08 -9.7714605222722332e-08 -0.00075027448065851819 -1.9359718673686067e-09 -1.1165202289930201e-07 -0.00075027482618200095 1.9442731937291601e-08 -7.5924905279544205e-08 -0.00075027448358013502 5.1805934189053783e-08 -5.3007706777354911e-08 -0.00050023741773650798 5.4070228974204013e-08 -9.7714605222722319e-08 -0.00075027448065851819 4.9129691809438556e-08 -5.6862899991221634e-08 -0.00075027503192190957 1.9442731937291601e-08 -7.5924905279544205e-08 -0.00075027448358013502 2.1584306972143467e-08 -7.3844905161841126e-08 -0.0005002370529161599 5.1805934189053783e-08 -5.3007706777354911e-08 -0.00050023741773650798 5.4070228974203986e-08 -9.7714605222722332e-08 -0.00075027448065851819 1.9442731937291601e-08 -7.5924905279544205e-08 -0.00075027448358013502 5.5907939070241038e-08 -9.6593883353194737e-08 -0.001000308373292257 1.9442731937291601e-08 -7.5924905279544205e-08 -0.00075027448358013502 9.1322762626420433e-11 -1.1160988334912507e-07 -0.0010003081014458926 2.0278997423499247e-08 -7.6063704812226812e-08 -0.0010003081372121708 5.4070228974203986e-08 -9.7714605222722332e-08 -0.00075027448065851819 5.5907939070241038e-08 -9.6593883353194737e-08 -0.001000308373292257 4.9129691809438549e-08 -5.6862899991221627e-08 -0.00075027503192190957 1.9442731937291601e-08 -7.5924905279544205e-08 -0.00075027448358013502 5.5907939070241038e-08 -9.6593883353194737e-08 -0.001000308373292257 4.9129691809438549e-08 -5.6862899991221627e-08 -0.00075027503192190957 1.9442731937291601e-08 -7.5924905279544205e-08 -0.00075027448358013502 2.0278997423499247e-08 -7.6063704812226812e-08 -0.0010003081372121708 5.5907939070241038e-08 -9.6593883353194737e-08 -0.001000308373292257 4.9129691809438549e-08 -5.6862899991221627e-08 -0.00075027503192190957 4.9590370818458736e-08 -5.7065573554265421e-08 -0.0010003085485967621 2.0278997423499247e-08 -7.6063704812226812e-08 -0.0010003081372121708 5.4070228974203986e-08 -9.7714605222722332e-08 -0.00075027448065851819 5.5907939070241038e-08 -9.6593883353194737e-08 -0.001000308373292257 -1.9359718673686096e-09 -1.1165202289930201e-07 -0.00075027482618200095 1.9442731937291601e-08 -7.5924905279544205e-08 -0.00075027448358013502 5.5907939070241038e-08 -9.6593883353194737e-08 -0.001000308373292257 -1.9359718673686195e-09 -1.1165202289930201e-07 -0.00075027482618200095 1.9442731937291601e-08 -7.5924905279544205e-08 -0.00075027448358013502 9.1322762626420433e-11 -1.1160988334912507e-07 -0.0010003081014458926 4.9129691809438549e-08 -5.6862899991221627e-08 -0.00075027503192190957 2.09796066376808e-08 -3.6313414294709916e-08 -0.00075027482276317182 2.1358590777317306e-08 -3.6555104110489445e-08 -0.001000308580230943 2.0278997423499247e-08 -7.6063704812226812e-08 -0.0010003081372121708 5.3605822391298993e-08 -2.0503146808594925e-08 -0.0010003100323127284 4.9129691809438549e-08 -5.6862899991221627e-08 -0.00075027503192190957 2.09796066376808e-08 -3.6313414294709916e-08 -0.00075027482276317182 2.1358590777317306e-08 -3.6555104110489445e-08 -0.001000308580230943 5.3605822391298993e-08 -2.0503146808594925e-08 -0.0010003100323127284 5.3657349993927476e-08 -1.9714371919960965e-08 -0.00075027713438148081 4.9129691809438549e-08 -5.6862899991221627e-08 -0.00075027503192190957 2.09796066376808e-08 -3.6313414294709916e-08 -0.00075027482276317182 5.3605822391298993e-08 -2.0503146808594925e-08 -0.0010003100323127284 4.9129691809438549e-08 -5.6862899991221627e-08 -0.00075027503192190957 4.9590370818458736e-08 -5.7065573554265421e-08 -0.0010003085485967621 2.1358590777317306e-08 -3.6555104110489445e-08 -0.001000308580230943 4.9129691809438549e-08 -5.6862899991221627e-08 -0.00075027503192190957 4.9590370818458736e-08 -5.7065573554265421e-08 -0.0010003085485967621 2.1358590777317306e-08 -3.6555104110489445e-08 -0.001000308580230943 2.0278997423499247e-08 -7.6063704812226812e-08 -0.0010003081372121708 4.9129691809438549e-08 -5.6862899991221627e-08 -0.00075027503192190957 2.09796066376808e-08 -3.6313414294709916e-08 -0.00075027482276317182 1.9442731937291601e-08 -7.5924905279544205e-08 -0.00075027448358013502 2.0278997423499247e-08 -7.6063704812226812e-08 -0.0010003081372121708 4.8243636009157625e-09 1.3972275185496977e-09 -0.0010003091416090311 2.0979606637680807e-08 -3.6313414294709916e-08 -0.00075027482276317182 -1.5313441744050299e-08 -5.5565151087264431e-08 -0.0010003084107090483 2.1358590777317306e-08 -3.6555104110489445e-08 -0.001000308580230943 4.9011080589441071e-09 1.8464300177525696e-09 -0.00075027576101196331 -1.6514482485263137e-08 -5.5256771275308643e-08 -0.00075027529800877728 2.09796066376808e-08 -3.6313414294709916e-08 -0.00075027482276317182 -1.5313441744050299e-08 -5.5565151087264431e-08 -0.0010003084107090483 2.09796066376808e-08 -3.6313414294709916e-08 -0.00075027482276317182 -1.5313441744050286e-08 -5.5565151087264458e-08 -0.001000308410709048 2.1358590777317306e-08 -3.6555104110489445e-08 -0.001000308580230943 2.0278997423499247e-08 -7.6063704812226812e-08 -0.0010003081372121708 -1.6514482485263137e-08 -5.5256771275308643e-08 -0.00075027529800877728 2.09796066376808e-08 -3.6313414294709916e-08 -0.00075027482276317182 1.9442731937291601e-08 -7.5924905279544205e-08 -0.00075027448358013502 -1.5313441744050299e-08 -5.5565151087264431e-08 -0.0010003084107090483 2.09796066376808e-08 -3.6313414294709916e-08 -0.00075027482276317182 1.9442731937291601e-08 -7.5924905279544205e-08 -0.00075027448358013502 -1.5313441744050299e-08 -5.5565151087264431e-08 -0.0010003084107090483 2.0278997423499247e-08 -7.6063704812226812e-08 -0.0010003081372121708 1.9442731937291601e-08 -7.5924905279544205e-08 -0.00075027448358013502 9.1322762626420433e-11 -1.1160988334912507e-07 -0.0010003081014458926 -1.5313441744050299e-08 -5.5565151087264431e-08 -0.0010003084107090483 2.0278997423499247e-08 -7.6063704812226812e-08 -0.0010003081372121708 -1.9359718673686067e-09 -1.1165202289930201e-07 -0.00075027482618200095 -1.6514482485263137e-08 -5.5256771275308643e-08 -0.00075027529800877728 1.9442731937291601e-08 -7.5924905279544205e-08 -0.00075027448358013502 9.1322762626420433e-11 -1.1160988334912507e-07 -0.0010003081014458926 -1.6514482485263137e-08 -5.5256771275308643e-08 -0.00075027529800877728 1.9442731937291601e-08 -7.5924905279544205e-08 -0.00075027448358013502 9.1322762626406733e-11 -1.1160988334912509e-07 -0.0010003081014458926 -1.5313441744050299e-08 -5.5565151087264431e-08 -0.0010003084107090483 -5.717062538027873e-08 -9.5808382509300664e-08 -0.00075027800275263119 -1.9359718673686034e-09 -1.11652022899302e-07 -0.00075027482618200095 -1.6514482485263137e-08 -5.5256771275308643e-08 -0.00075027529800877728 9.1322762626420976e-11 -1.1160988334912507e-07 -0.0010003081014458926 -1.6514482485263137e-08 -5.5256771275308643e-08 -0.00075027529800877728 9.1322762626402442e-11 -1.1160988334912511e-07 -0.0010003081014458926 -1.5313441744050299e-08 -5.5565151087264431e-08 -0.0010003084107090483 -5.5763241742873175e-08 -9.6694592930030393e-08 -0.0010003090631392555 9.1322762626420433e-11 -1.1160988334912507e-07 -0.0010003081014458926 -1.5313441744050299e-08 -5.5565151087264431e-08 -0.0010003084107090483 2.0278997423499247e-08 -7.6063704812226812e-08 -0.0010003081372121708 3.6230636720099031e-11 -1.1152039188024242e-07 -0.0012503411252352348 9.1322762626420433e-11 -1.1160988334912507e-07 -0.0010003081014458926 -1.5313441744050299e-08 -5.5565151087264431e-08 -0.0010003084107090483 3.6230636720099031e-11 -1.1152039188024242e-07 -0.0012503411252352348 -5.5763241742873195e-08 -9.6694592930030393e-08 -0.0010003090631392555 -1.5313441744050299e-08 -5.5565151087264431e-08 -0.0010003084107090483 2.1358590777317306e-08 -3.6555104110489445e-08 -0.001000308580230943 2.0278997423499247e-08 -7.6063704812226812e-08 -0.0010003081372121708 -1.4913665629036498e-08 -5.5367950086076951e-08 -0.0012503418554290814 4.8243636009157625e-09 1.3972275185496977e-09 -0.0010003091416090311 -1.5313441744050299e-08 -5.5565151087264431e-08 -0.0010003084107090483 2.1358590777317306e-08 -3.6555104110489445e-08 -0.001000308580230943 -1.4913665629036498e-08 -5.5367950086076951e-08 -0.0012503418554290814 5.3694057722861265e-08 -2.0355104470020157e-08 -0.0012503433725540203 5.3605822391298993e-08 -2.0503146808594925e-08 -0.0010003100323127284 4.9590370818458736e-08 -5.7065573554265421e-08 -0.0010003085485967621 2.1358590777317306e-08 -3.6555104110489445e-08 -0.001000308580230943 4.9590370818458736e-08 -5.7065573554265421e-08 -0.0010003085485967621 2.1358590777317306e-08 -3.6555104110489445e-08 -0.001000308580230943 2.0278997423499247e-08 -7.6063704812226812e-08 -0.0010003081372121708 2.0501982703536763e-08 -7.5845160859519126e-08 -0.0012503420984372161 5.5907939070241038e-08 -9.6593883353194737e-08 -0.001000308373292257 5.5796837196329715e-08 -9.6563937207313736e-08 -0.0012503417873201369 4.9590370818458736e-08 -5.7065573554265421e-08 -0.0010003085485967621 2.0278997423499247e-08 -7.6063704812226812e-08 -0.0010003081372121708 5.5907939070241038e-08 -9.6593883353194737e-08 -0.001000308373292257 5.5796837196329715e-08 -9.6563937207313736e-08 -0.0012503417873201369 9.1322762626417176e-11 -1.1160988334912507e-07 -0.0010003081014458924 2.0278997423499247e-08 -7.6063704812226812e-08 -0.0010003081372121708 5.5796837196329715e-08 -9.6563937207313736e-08 -0.0012503417873201369 4.9590370818458736e-08 -5.7065573554265421e-08 -0.0010003085485967621 2.0501982703536763e-08 -7.5845160859519126e-08 -0.0012503420984372161 4.965526999426516e-08 -5.6816417593776781e-08 -0.0012503432386827434 5.5796837196329715e-08 -9.6563937207313736e-08 -0.0012503417873201369 4.9590370818458736e-08 -5.7065573554265421e-08 -0.0010003085485967621 2.0278997423499247e-08 -7.6063704812226812e-08 -0.0010003081372121708 2.0501982703536763e-08 -7.5845160859519126e-08 -0.0012503420984372161 5.5796837196329715e-08 -9.6563937207313736e-08 -0.0012503417873201369 2.0278997423499247e-08 -7.6063704812226812e-08 -0.0010003081372121708 2.0501982703536763e-08 -7.5845160859519126e-08 -0.0012503420984372161 3.6230636720099031e-11 -1.1152039188024242e-07 -0.0012503411252352348 5.5796837196329715e-08 -9.6563937207313736e-08 -0.0012503417873201369 9.1322762626408064e-11 -1.1160988334912507e-07 -0.0010003081014458926 2.0278997423499247e-08 -7.6063704812226812e-08 -0.0010003081372121708 3.6230636720099031e-11 -1.1152039188024242e-07 -0.0012503411252352348 4.9590370818458736e-08 -5.7065573554265421e-08 -0.0010003085485967621 2.0501982703536763e-08 -7.5845160859519126e-08 -0.0012503420984372161 4.965526999426516e-08 -5.6816417593776781e-08 -0.0012503432386827434 2.1590360226464233e-08 -3.6352207097654346e-08 -0.0012503428874360023 4.9590370818458736e-08 -5.7065573554265421e-08 -0.0010003085485967621 2.1358590777317306e-08 -3.6555104110489445e-08 -0.001000308580230943 2.0501982703536763e-08 -7.5845160859519126e-08 -0.0012503420984372161 2.1590360226464233e-08 -3.6352207097654346e-08 -0.0012503428874360023 5.3694057722861265e-08 -2.0355104470020157e-08 -0.0012503433725540203 4.9590370818458736e-08 -5.7065573554265421e-08 -0.0010003085485967621 4.965526999426516e-08 -5.6816417593776781e-08 -0.0012503432386827434 2.1590360226464233e-08 -3.6352207097654346e-08 -0.0012503428874360023 5.3694057722861265e-08 -2.0355104470020157e-08 -0.0012503433725540203 4.9590370818458736e-08 -5.7065573554265421e-08 -0.0010003085485967621 2.1358590777317306e-08 -3.6555104110489445e-08 -0.001000308580230943 2.1590360226464233e-08 -3.6352207097654346e-08 -0.0012503428874360023 2.1358590777317306e-08 -3.6555104110489445e-08 -0.001000308580230943 2.0278997423499247e-08 -7.6063704812226812e-08 -0.0010003081372121708 2.0501982703536763e-08 -7.5845160859519126e-08 -0.0012503420984372161 -1.4913665629036498e-08 -5.5367950086076951e-08 -0.0012503418554290814 2.1358590777317306e-08 -3.6555104110489445e-08 -0.001000308580230943 2.0501982703536763e-08 -7.5845160859519126e-08 -0.0012503420984372161 2.1590360226464233e-08 -3.6352207097654346e-08 -0.0012503428874360023 -1.4913665629036498e-08 -5.5367950086076951e-08 -0.0012503418554290814 4.9910993112999283e-09 1.5338074380802888e-09 -0.0012503426991213548 2.1358590777317313e-08 -3.6555104110489445e-08 -0.001000308580230943 2.1590360226464227e-08 -3.6352207097654339e-08 -0.0012503428874360023 -1.4913665629036498e-08 -5.5367950086076951e-08 -0.0012503418554290814 -1.5313441744050299e-08 -5.5565151087264431e-08 -0.0010003084107090483 -1.4913665629036498e-08 -5.5367950086076951e-08 -0.0012503418554290814 3.6230636720090805e-11 -1.1152039188024245e-07 -0.001250341125235235 -5.5722794865057599e-08 -9.6604921456095295e-08 -0.0012503414717970022 -1.5313441744050299e-08 -5.5565151087264431e-08 -0.0010003084107090483 2.0278997423499247e-08 -7.6063704812226812e-08 -0.0010003081372121708 -1.4913665629036498e-08 -5.5367950086076951e-08 -0.0012503418554290814 3.6230636720090062e-11 -1.1152039188024245e-07 -0.001250341125235235 2.0278997423499247e-08 -7.6063704812226812e-08 -0.0010003081372121708 2.0501982703536763e-08 -7.5845160859519126e-08 -0.0012503420984372161 -1.4913665629036498e-08 -5.5367950086076951e-08 -0.0012503418554290814 3.6230636720099031e-11 -1.1152039188024242e-07 -0.0012503411252352348 -1.5313441744050299e-08 -5.5565151087264431e-08 -0.0010003084107090483 3.6230636720090288e-11 -1.1152039188024241e-07 -0.001250341125235235 -5.5722794865057599e-08 -9.6604921456095295e-08 -0.0012503414717970019 -5.5763241742873195e-08 -9.6694592930030393e-08 -0.0010003090631392555 -1.5313441744050299e-08 -5.5565151087264431e-08 -0.0010003084107090483 -5.5722794865057612e-08 -9.6604921456095282e-08 -0.0012503414717970022 -5.5763241742873202e-08 -9.6694592930030393e-08 -0.0010003090631392555 -6.6118997419926351e-08 -4.0521264637257946e-08 -0.0010003084855542182 -5.5722794865057612e-08 -9.6604921456095282e-08 -0.0012503414717970022 -5.5763241742873195e-08 -9.6694592930030393e-08 -0.0010003090631392555 -6.6118997419926365e-08 -4.0521264637257946e-08 -0.0010003084855542182 -9.657820190824976e-08 -5.5901835498154579e-08 -0.0010003085674506467 -1.5313441744050299e-08 -5.5565151087264431e-08 -0.0010003084107090483 -1.4913665629036498e-08 -5.5367950086076951e-08 -0.0012503418554290814 -5.5722794865057619e-08 -9.6604921456095282e-08 -0.0012503414717970022 -6.6118997419926351e-08 -4.0521264637257946e-08 -0.0010003084855542182 -1.4913665629036498e-08 -5.5367950086076951e-08 -0.0012503418554290814 -5.5722794865057619e-08 -9.6604921456095282e-08 -0.0012503414717970022 -6.6118997419926351e-08 -4.0521264637257933e-08 -0.001000308485554218 -6.5861345249869469e-08 -4.032886212899648e-08 -0.0012503429875137012 -5.0386895972304451e-08 5.4567616638646751e-09 -0.001250342418793726 -1.5313441744050262e-08 -5.5565151087264425e-08 -0.0010003084107090483 -1.4913665629036498e-08 -5.5367950086076951e-08 -0.0012503418554290814 -6.6118997419926351e-08 -4.0521264637257946e-08 -0.0010003084855542182 -5.0386895972304451e-08 5.4567616638646751e-09 -0.001250342418793726 -1.4913665629036498e-08 -5.5367950086076951e-08 -0.0012503418554290814 -6.6118997419926351e-08 -4.0521264637257946e-08 -0.0010003084855542182 -6.5861345249869469e-08 -4.032886212899648e-08 -0.0012503429875137012 -1.1152109486314716e-07 -6.1299054269189817e-12 -0.0012503422485562572 -6.6118997419926378e-08 -4.0521264637257946e-08 -0.0010003084855542182 -6.5861345249869482e-08 -4.0328862128996486e-08 -0.0012503429875137012 -9.6577999071699634e-08 -5.5782379673230172e-08 -0.0012503416445531553 -5.5722794865057612e-08 -9.6604921456095282e-08 -0.0012503414717970022 -6.6118997419926351e-08 -4.0521264637257946e-08 -0.0010003084855542182 -6.5861345249869469e-08 -4.032886212899648e-08 -0.001250342987513701 -9.6577999071699634e-08 -5.5782379673230172e-08 -0.0012503416445531553 -5.5722794865057612e-08 -9.6604921456095282e-08 -0.0012503414717970022 -6.6118997419926365e-08 -4.0521264637257959e-08 -0.0010003084855542182 -9.6577999071699634e-08 -5.5782379673230172e-08 -0.0012503416445531553 -9.657820190824976e-08 -5.5901835498154579e-08 -0.0010003085674506467 -1.1160517886772943e-07 -1.0815869395029309e-10 -0.001000309988074087 -6.6118997419926351e-08 -4.0521264637257946e-08 -0.0010003084855542182 -9.6577999071699634e-08 -5.5782379673230172e-08 -0.0012503416445531553 -9.657820190824976e-08 -5.5901835498154579e-08 -0.0010003085674506467 
</DataArray>
</PointData>
<CellData Scalars="" Vectors="" Tensors="effective_stress,">
<DataArray type="Float64" Name="effective_stress" NumberOfComponents="9" format="ascii">
-3329.1259930977012 -0.15910995128408295 -1.2979935306723291 -0.15910995128408295 -3329.6552050514847 -0.79595257457094704 -1.2979935306723291 -0.79595257457094704 -9999.0516268750744 -3329.2605431702368 -0.07726669194804725 -1.5429463258565193 -0.07726669194804725 -3329.8321712004467 -0.29995473254166427 -1.5429463258565193 -0.29995473254166427 -9999.1295059304484 -3327.527927826532 1.5865405082153874 -2.7500494517003062 1.5865405082153874 -3327.1118084203877 -1.1688087866436945 -2.7500494517003062 -1.1688087866436945 -10000.769074748454 -3327.9975512585529 1.688331232417887 -2.1791741936077269 1.688331232417887 -3330.4369379468417 -2.3247576129047323 -2.1791741936077269 -2.3247576129047323 -10001.717762988072 -3334.0571053909503 -0.35684347860128429 -1.0815049363372964 -0.35684347860128429 -3330.5678754115897 -1.1839626659793794 -1.0815049363372964 -1.1839626659793794 -9999.1330334775812 -3332.7168465405966 1.4997886868219963 -0.72017807410770729 1.4997886868219963 -3331.2664124441812 0.031443847968148475 -0.72017807410770729 0.031443847968148475 -9998.9726030231413 -3330.3546046556548 0.047844413548791903 -1.15441950248578 0.047844413548791903 -3330.463031143408 -0.3623977612469389 -1.15441950248578 -0.3623977612469389 -9999.5607362875435 -3330.0723542379715 0.22851121316516876 -1.1126770275786839 0.22851121316516876 -3329.9294261031851 -0.22198728748378471 -1.1126770275786839 -0.22198728748378471 -9999.356772423067 -3329.6537026341798 -0.48519330439915676 -0.60070672286383342 -0.48519330439915676 -3328.064619175143 -0.51470319483587446 -0.60070672286383342 -0.51470319483587446 -9997.7271989474393 -3333.0482333736804 0.96187566728589924 -1.2826775531094889 0.96187566728589924 -3330.458364320591 0.16726763602017369 -1.2826775531094889 0.16726763602017369 -9999.1742679186755 -3326.8805222871397 2.0303741573943004 -3.5401934231275209 2.0303741573943004 -3328.0624416375504 -0.24180813413097146 -3.5401934231275209 -0.24180813413097146 -9997.0333594762797 -3331.1862919976938 0.19322429408800418 0.0058075767079638352 0.19322429408800418 -3329.9883249853588 -1.3278490709413457 0.0058075767079638352 -1.3278490709413457 -9999.519553714721 -3332.8886951709414 0.69275691103171089 2.3645828834136955 0.69275691103171089 -3330.0787992807041 -0.69581712775589133 2.3645828834136955 -0.69581712775589133 -9999.9677730818694 -3331.5192772424489 1.1949208482489873 3.0332903133007676 1.1949208482489873 -3328.6693309232746 0.17723598330121604 3.0332903133007676 0.17723598330121604 -9998.0239403183768 -3332.5910427682502 -0.48947437701285929 3.4766628894468394 -0.48947437701285929 -3332.8796622319151 -1.7514299961761428 3.4766628894468394 -1.7514299961761428 -9999.3444645269883 -3333.5278499823703 0.035270840116295166 2.7401049902951264 0.035270840116295166 -3334.8531618419688 -0.33057589381016905 2.7401049902951264 -0.33057589381016905 -10000.072041233032 -3332.0260573565392 -0.94356893787769303 0.79431118927368516 -0.94356893787769303 -3335.1667677099231 -0.78829720191981778 0.79431118927368516 -0.78829720191981778 -10003.043686867071 -3333.6245366580747 1.9423759981720665 -0.4978592840325291 1.9423759981720665 -3334.8255753985454 -0.12103472277249239 -0.4978592840325291 -0.12103472277249239 -10004.032327600638 -3335.4128980769096 0.55486177153422733 -1.182979829941194 0.55486177153422733 -3334.7583002082456 -2.1335901582720807 -1.182979829941194 -2.1335901582720807 -10001.490044939166 -3334.7263719543666 1.713898505359202 -0.64079347567576406 1.713898505359202 -3332.3182712606181 -0.3190486484372741 -0.64079347567576406 -0.3190486484372741 -10003.680960390231 -3336.2966597868162 0.47300819634676922 -0.40597037962848037 0.47300819634676922 -3336.6733482465347 -0.76130433246803841 -0.40597037962848037 -0.76130433246803841 -10004.487982608796 -3331.9685815118946 -1.7928224018548016 -0.67883775494751064 -1.7928224018548016 -3330.38072012874 -0.39877552663323579 -0.67883775494751064 -0.39877552663323579 -10000.904195830375 -3327.2427231710381 -1.7845757387834311 -1.2307672162005474 -1.7845757387834311 -3325.7879332641237 1.3799592198133723 -1.2307672162005474 1.3799592198133723 -9997.483563577749 -3330.5374339453915 -0.96654897043179167 0.01902188335154209 -0.96654897043179167 -3327.6411855694123 0.80995283406849183 0.01902188335154209 0.80995283406849183 -9999.8615252989166 -3332.9301091697321 -1.4612164286727434 -0.18053262415514837 -1.4612164286727434 -3331.5109660336948 -1.1086300712622688 -0.18053262415514837 -1.1086300712622688 -10002.355749401315 -3330.1935448020508 0.11873975495524558 0.010427608016470913 0.11873975495524558 -3329.3935555475905 -0.77787724400968727 0.010427608016470913 -0.77787724400968727 -10001.142255687868 -3330.3489939090227 0.048864259430954293 0.43996050882924465 0.048864259430954293 -3329.4045845389032 -0.91987907337170327 0.43996050882924465 -0.91987907337170327 -10001.269928212443 -3330.4946780581968 0.21851784236509586 0.29564144779760682 0.21851784236509586 -3330.2897337504901 -1.221512355195955 0.29564144779760682 -1.221512355195955 -10001.527636552633 -3330.4918834936261 0.18361701368605632 0.47471786909591174 0.18361701368605632 -3330.6599157368069 -0.97342878073322936 0.47471786909591174 -0.97342878073322936 -10001.619483408069 -3330.5172822156983 0.083250092773754947 0.62412377320015366 0.083250092773754947 -3330.8193272598573 -0.34749509554498559 0.62412377320015366 -0.34749509554498559 -10002.253951955372 -3330.4903402720524 0.058578932159853769 0.73559542735301875 0.058578932159853769 -3330.9675566407318 -0.56252904913253587 0.73559542735301875 -0.56252904913253587 -10002.284273814681 -3329.7936165298433 0.34533137205469688 0.60285226856876761 0.34533137205469688 -3329.7860237408713 -1.1199137812081972 0.60285226856876761 -1.1199137812081972 -10001.140390668137 -3329.3761399601849 0.076469491811479884 -0.041959500013490469 0.076469491811479884 -3328.9138422463197 -0.64677472673292868 -0.041959500013490469 -0.64677472673292868 -9997.5492838285718 -3329.0829958457921 0.34533137205469644 1.4774683800237653 0.34533137205469644 -3329.0754030568205 0.46223003131217411 1.4774683800237653 0.46223003131217411 -9999.0085286159792 -3330.6554536536214 -0.2317865322565249 0.47765350641930127 -0.2317865322565249 -3330.5852784875165 0.18756597999345104 0.47765350641930127 0.18756597999345104 -10000.376151578852 -3330.9582143595585 -0.71674710142257636 0.87525868144348351 -0.71674710142257636 -3330.872687095507 0.10825880602715188 0.87525868144348351 0.10825880602715188 -10000.015765852155 -3330.3511699372357 -0.16467820138605704 0.46935333628607623 -0.16467820138605704 -3330.3058875461616 -0.00050320420450589154 0.46935333628607623 -0.00050320420450589154 -9999.7223048592386 -3329.9729962055376 0.076469491811479884 1.3299607577423558 0.076469491811479884 -3329.5106984916724 0.42270548275564579 1.3299607577423558 0.42270548275564579 -9999.3398525646298 -3329.5456366328135 0.058578932159854102 0.94493947172850312 0.058578932159854102 -3330.0228530014933 -0.17915904730489274 0.94493947172850312 -0.17915904730489274 -9999.4501628969647 -3329.4627641117604 0.45681309774308032 0.51117239452287322 0.45681309774308032 -3329.9960133889858 0.24562239739174174 0.51117239452287322 0.24562239739174174 -9999.930662918754 -3330.2928419258569 0.097740370382622774 0.25700760051495308 0.097740370382622774 -3330.3880553180738 0.081268804342471412 0.25700760051495308 0.081268804342471412 -10000.370908301238 -3329.5725785764598 0.083250092773755169 0.83346781757518329 0.083250092773755169 -3329.8746236206189 0.035874906284476538 0.83346781757518329 0.035874906284476538 -9999.4198410376575 -3330.2203119440815 0.05055385141309876 0.22940364886017051 0.05055385141309876 -3330.375617984093 0.13451809810499071 0.22940364886017051 0.13451809810499071 -10000.349666472299 -3330.2856960842714 0.030254637353172076 0.094204179846201441 0.030254637353172076 -3330.3167857060694 0.13165797725741868 0.094204179846201441 0.13165797725741868 -10000.114885988682 -3329.9161192943898 0.21851784236509542 -0.33849731640384562 0.21851784236509542 -3329.7111749866831 0.013956071890788735 -0.33849731640384562 0.013956071890788735 -9999.791960261211 -3330.386103540141 0.072788568766431638 -0.076164514472111478 0.072788568766431638 -3329.8185149257679 0.20143402940811939 -0.076164514472111478 0.20143402940811939 -10000.251838606737 -3330.9079637749956 -0.226267031764535 -0.11881432896825572 -0.226267031764535 -3330.5879223037196 0.1423490959823539 -0.11881432896825572 0.1423490959823539 -10000.574655509934 -3329.9856574708683 0.18361701368605676 0.17586733280677436 0.18361701368605676 -3330.1536897140495 0.25316299952373811 0.17586733280677436 0.25316299952373811 -10000.100805339796 -3330.2672186493191 0.037157156715541984 0.18096733760103234 0.037157156715541984 -3330.3273414857854 0.25185534412275956 0.18096733760103234 0.25185534412275956 -10000.11290557487 -3329.5699605782575 0.11873975495524514 0.64009785160578758 0.11873975495524514 -3328.7699713237967 1.1982591392579707 0.64009785160578758 1.1982591392579707 -9999.2715030164854 -3330.3884329158295 -0.21455068314477566 0.38912216079916107 -0.21455068314477566 -3330.6151318538582 0.23867957621041569 0.38912216079916107 0.23867957621041569 -10000.316859735989 -3330.849033096752 0.87881898043111084 0.76148543387353129 0.87881898043111084 -3329.9994306997587 0.87560297795334918 0.76148543387353129 0.87560297795334918 -9999.6810448394535 -3329.7949715149962 0.12808442131800124 0.2931554722972578 0.12808442131800124 -3330.9244216022462 0.072460394430891029 0.2931554722972578 0.072460394430891029 -10000.245816822879 -3329.6909884852266 0.048864259430954515 0.41181689580207603 0.048864259430954515 -3328.7465791151071 0.80286492193135928 0.41181689580207603 0.80286492193135928 -9999.2959119410552 -3330.0671979608842 -0.052572896219061693 0.18668206357961026 -0.052572896219061693 -3330.5163359923686 0.24305082325736294 0.18668206357961026 0.24305082325736294 -10000.110149029406 -3330.1810606819372 -0.21455068314477566 -0.13147052115164115 -0.21455068314477566 -3330.407759619965 -0.02942073849044391 -0.13147052115164115 -0.02942073849044391 -9999.6947430343134 -3329.900506927981 -0.052572896219061693 -0.18332916405506694 -0.052572896219061693 -3330.349644959465 -0.11924254359837505 -0.18332916405506694 -0.11924254359837505 -9999.6100759306973 -3330.1139212858834 0.037157156715541539 -0.052921208567568101 0.037157156715541539 -3330.1740441223501 -0.0074523729264228677 -0.052921208567568101 -0.0074523729264228677 -9999.6530134845598 -3330.1024448567268 0.030254637353172131 -0.12555189266640809 0.030254637353172131 -3330.1335344785257 -0.1537893399126915 -0.12555189266640809 -0.1537893399126915 -9999.565132306052 -3329.9342980484989 0.05055385141309876 0.11949651752183854 0.05055385141309876 -3330.08960408851 0.023336398368655864 0.11949651752183854 0.023336398368655864 -9999.4916247855544 -3330.0068280302748 0.097740370382622982 0.14710046917571162 0.097740370382622982 -3330.1020414224922 -0.029912895395682426 0.14710046917571162 -0.029912895395682426 -9999.5128666144919 -3330.3012848404478 -0.16467820138605682 -0.034056093787512509 -0.16467820138605682 -3330.2560024493741 0.031726708411952131 -0.034056093787512509 0.031726708411952131 -9999.5726495688723 -3330.4023973347603 -0.23178653225652512 -0.083097941569576506 -0.23178653225652512 -3330.3322221686549 0.018585984804303735 -0.083097941569576506 0.018585984804303735 -9999.6169826222722 -3330.4123330080693 -0.1267680946273958 -0.045589998778268637 -0.1267680946273958 -3330.1249504163789 0.18500871644027939 -0.045589998778268637 0.18500871644027939 -9999.3530932375616 -3330.5017120392786 -0.0012408460983822645 -0.17248716219182825 -0.0012408460983822645 -3330.0907777521788 0.1620141694056656 -0.17248716219182825 0.1620141694056656 -9999.3668948293125 -3329.8080687225406 0.3660162595141726 1.00083581898798 0.3660162595141726 -3330.4079766910422 0.19065423860047304 1.00083581898798 0.19065423860047304 -9998.9906447983012 -3329.904476680822 0.22851121316516898 1.0826238636709604 0.22851121316516898 -3329.7615485460356 0.10886619384575624 1.0826238636709604 0.10886619384575624 -9998.8531397516199 -3329.0926656130869 -0.077266691948047694 0.65235456539335246 -0.077266691948047694 -3329.6642936432968 0.030898748787421937 0.65235456539335246 0.030898748787421937 -9998.6258732590013 -3330.280621080286 0.059735939222564441 0.33858804257033626 0.059735939222564441 -3330.1795048599784 -0.24547788536801818 0.33858804257033626 -0.24547788536801818 -9999.3567506515774 -3330.4215117220947 -0.1267680946273958 0.36591845068960538 -0.1267680946273958 -3330.1341291304038 -0.15354573326567333 0.36591845068960538 -0.15354573326567333 -9999.3806293796388 -3330.4904511913146 -0.28535443721584608 0.54387374135831124 -0.28535443721584608 -3329.6839013474009 -0.075023609346317244 0.54387374135831124 -0.075023609346317244 -9999.6016286230679 -3330.8386955582264 -0.31569269533055611 0.58982241515877831 -0.31569269533055611 -3330.9655112490436 0.079535387732903473 0.58982241515877831 0.079535387732903473 -10000.009092190207 -3330.5108907533031 -0.0012408460983822645 0.23902128727604577 -0.0012408460983822645 -3330.0999564662034 -0.17654028030301561 0.23902128727604577 -0.17654028030301561 -9999.3944309713897 -3329.4699699762145 0.0042718638376417206 0.58476740414516826 0.0042718638376417206 -3331.134616942818 -0.54156638287895476 0.58476740414516826 -0.54156638287895476 -9999.4126040644041 -3330.6279691958084 0.069883355958259716 0.33093096316406445 0.069883355958259716 -3330.2552908736238 -0.36264552914053638 0.33093096316406445 -0.36264552914053638 -9999.462534183871 -3329.0880450964473 -0.15910995128408295 0.75930910393321938 -0.15910995128408295 -3329.6172570502308 -0.89499083093869558 0.75930910393321938 -0.89499083093869558 -9998.937782871315 -3330.6600547326552 0.069883355958259716 -0.04819136602418439 0.069883355958259716 -3330.2873764104706 0.070876610851883015 -0.04819136602418439 0.070876610851883015 -9999.5587907944173 -3330.138023140491 0.12670060644298203 0.042807625046407338 0.12670060644298203 -3330.150215807399 0.024801115469017532 0.042807625046407338 0.024801115469017532 -9999.5292019605004 -3330.3667903030919 0.059735939222564552 0.093075231841794448 0.059735939222564552 -3330.2656740827842 0.054369030174711952 0.093075231841794448 0.054369030174711952 -9999.6152583199982 -3330.1547041153535 0.082160578229509493 0.04897540100137121 0.082160578229509493 -3330.1728466614777 0.10407746877899626 0.04897540100137121 0.10407746877899626 -9999.5390299177343 -3330.2601922329168 0.1719195448666189 0.13098250449456827 0.1719195448666189 -3330.2617751676453 0.20247910682519432 0.13098250449456827 0.20247910682519432 -9999.3190237886374 -3330.2814671241231 0.17191954486661915 0.41315038562242989 0.17191954486661915 -3330.2830500588511 -0.27028642070717979 0.41315038562242989 -0.27028642070717979 -9999.3828484622572 -3329.4613790816857 -0.37583756948969432 0.72968963756693483 -0.37583756948969432 -3329.7102646160738 -0.74181668772848752 0.72968963756693483 -0.74181668772848752 -9998.6420780252756 -3330.6865001643523 0.48711513928731948 0.19682446929084563 0.48711513928731948 -3331.0174837594054 0.06778495245907834 0.19682446929084563 0.06778495245907834 -10000.019862135156 -3330.7828535679309 -1.0327929643495721 0.63047942824050551 -1.0327929643495721 -3330.9890598904922 -0.85326196679352506 0.63047942824050551 -0.85326196679352506 -9999.2921454654406 -3330.449620182229 0.047844413548791889 0.34691294758044933 0.047844413548791889 -3330.5580466699826 0.017847206871010712 0.34691294758044933 0.017847206871010712 -9999.8457828672672 -3329.9177573734864 0.25923017906028029 0.21679824410057336 0.25923017906028029 -3330.0022407583733 0.42162417087456561 0.21679824410057336 0.42162417087456561 -9999.5738656871799 -3330.0203351835721 0.20703117573477964 0.17763740192413024 0.20703117573477964 -3330.2819433375739 -0.08172238108181773 0.17763740192413024 -0.08172238108181773 -9999.6694357845008 -3330.2788279533129 0.048569586261143494 -0.2000390721432268 0.048569586261143494 -3330.5045926741236 -0.2660818673484755 -0.2000390721432268 -0.2660818673484755 -10000.06395767311 -3329.6323108238444 0.14049513690497187 0.58724706995508313 0.14049513690497187 -3329.8127471384637 0.05117534681539837 0.58724706995508313 0.05117534681539837 -9999.4551306447938 -3329.9933896898292 0.093413309953456425 0.11356956257395723 0.093413309953456425 -3330.1414701878439 -0.29075847111653275 0.11356956257395723 -0.29075847111653275 -10000.32112104398 -3330.2404299949321 0.071692353909247108 -0.1389841222026007 0.071692353909247108 -3330.3740161176756 -0.16373001017427669 -0.1389841222026007 -0.16373001017427669 -10000.021714044402 -3330.3426778580811 -0.097154830780213475 0.13759094713896047 -0.097154830780213475 -3329.9318223677042 -0.25048928205796983 0.13759094713896047 -0.25048928205796983 -10000.35603113101 -3330.2251094429498 0.15834846098361954 -0.043873101205463172 0.15834846098361954 -3330.3741275898205 -0.16587459659967863 -0.043873101205463172 -0.16587459659967863 -10000.017911774443 -3328.8524452839843 0.61801958876250318 0.37878978977823863 0.61801958876250318 -3329.5818622310476 0.05587569225099287 0.37878978977823863 0.05587569225099287 -9999.202443032973 -3330.8742910109268 -0.64383450935231346 0.1730075701370879 -0.64383450935231346 -3329.8664011684359 -0.85561465485034205 0.1730075701370879 -0.85561465485034205 -9999.2720114463809 -3329.3617441717138 -0.21598068303730822 0.73177929537763475 -0.21598068303730822 -3329.2972983069471 -0.76697920036849609 0.73177929537763475 -0.76697920036849609 -9998.5139277204999 -3330.3905852240291 0.061646559263904638 0.21045836701966891 0.061646559263904638 -3330.4017086046301 -0.096386962273754762 0.21045836701966891 -0.096386962273754762 -9999.7919396113793 -3329.7616900502335 -0.36700173844094075 0.40175447026194888 -0.36700173844094075 -3329.689995720174 -0.64870373081497235 0.40175447026194888 -0.64870373081497235 -9998.9497598441449 -3330.2284515377432 0.061646559263904638 0.12698676150182564 0.061646559263904638 -3330.2395749183443 0.25059365128072386 0.12698676150182564 0.25059365128072386 -9999.3055385525222 -3330.0122581244641 0.15834846098361954 0.23736371786435484 0.15834846098361954 -3330.1612762713348 0.24121805793402018 0.23736371786435484 0.24121805793402018 -9999.379357818987 -3330.164393031645 0.048569586261143494 0.014117167714175594 0.048569586261143494 -3330.3901577524557 -0.050331603379163425 0.014117167714175594 -0.050331603379163425 -9999.720652908105 -3330.0760458778441 0.071692353909247108 0.070999874864355661 0.071692353909247108 -3330.2096320005876 0.08205299502287744 0.070999874864355661 0.08205299502287744 -9999.528561693136 -3330.0257115696713 0.066124355963747439 -0.17338954785554961 0.066124355963747439 -3330.269521786232 -0.10004661121001845 -0.17338954785554961 -0.10004661121001845 -9999.5938677965241 -3329.8649819344937 0.016828491811069046 -0.20198169732975657 0.016828491811069046 -3330.2644770821926 -0.070871775502382661 -0.20198169732975657 -0.070871775502382661 -9999.467449395368 -3330.2181466821339 0.046291443767185581 -0.14970706287704161 0.046291443767185581 -3330.3288730728655 -0.28301219336026406 -0.14970706287704161 -0.28301219336026406 -9999.6428924109896 -3330.1638431929214 0.070620801206969064 -0.10783046949654818 0.070620801206969064 -3330.1662273158372 -0.18942944547598017 -0.10783046949654818 -0.18942944547598017 -9999.5886550994292 -3330.3137194526698 0.09579242116490938 -0.23396590234824544 0.09579242116490938 -3330.3698064903519 -0.095818127523671137 -0.23396590234824544 -0.095818127523671137 -9999.6909409433028 -3330.9726966999942 -0.11976571520483359 -0.98963344658477581 -0.11976571520483359 -3330.5710272259657 -0.010036279618532262 -0.98963344658477581 -0.010036279618532262 -9999.9976839419523 -3330.3675401535202 -0.11426156123095843 -0.42733398724703875 -0.11426156123095843 -3330.0576692866225 0.069704979302272818 -0.42733398724703875 0.069704979302272818 -9998.9248125958202 -3330.0330997639626 0.09579242116490938 -0.39691942649733392 0.09579242116490938 -3330.0891868016447 0.12591604129556799 -0.39691942649733392 0.12591604129556799 -9998.8490818771825 -3330.3991780086021 0.27006805353409036 -0.69675083329866538 0.27006805353409036 -3330.3804562817472 -0.067444843275552557 -0.69675083329866538 -0.067444843275552557 -9999.9594221687803 -3329.9466716685738 0.22188633782164235 -0.16304937550194154 0.22188633782164235 -3329.9849250614734 -0.33889274136481617 -0.16304937550194154 -0.33889274136481617 -9999.8680358734546 -3329.7637348516732 0.39982036784927488 -0.25724265902317711 0.39982036784927488 -3329.6908436868257 -0.47444917360371619 -0.25724265902317711 -0.47444917360371619 -9999.6281582308184 -3329.9430957875525 0.046291443767185581 -0.30336241368559058 0.046291443767185581 -3330.053822178284 -0.028080113124815398 -0.30336241368559058 -0.028080113124815398 -9998.817739727243 -3330.1629410800683 0.1194835448237187 -0.28913144877242303 0.1194835448237187 -3330.583290631193 -0.62065173660903383 -0.28913144877242303 -0.62065173660903383 -10000.071694618755 -3330.2156785035822 0.1824459175244314 -0.33878180199712915 0.1824459175244314 -3330.9109522747249 -0.65666688625060488 -0.33878180199712915 -0.65666688625060488 -10000.046171290767 -3330.4416618001287 0.070620801206969008 0.033173504130900255 0.070620801206969008 -3330.444045923045 -0.018459062007423199 0.033173504130900255 -0.018459062007423199 -10000.42211092105 -3329.9660668790461 0.4682179317706725 0.088230134245122827 0.4682179317706725 -3329.5903996710144 0.55070492610775545 0.088230134245122827 0.55070492610775545 -9999.6536302337081 -3329.1581413941831 0.2015753071637422 0.44314999674043065 0.2015753071637422 -3330.0724163464579 -0.0067388121769909048 0.44314999674043065 -0.0067388121769909048 -9999.3656799235487 -3330.8567437740003 0.032130489313671309 0.53154051965793769 0.032130489313671309 -3330.3164631714562 -0.12301181578641263 0.53154051965793769 -0.12301181578641263 -10000.057815332555 -3330.2609716895563 0.12670060644298203 0.048721641995143727 0.12670060644298203 -3330.2731643564643 0.042889919023764378 0.048721641995143727 0.042889919023764378 -9999.8980476076977 -3330.4868096557693 0.082160578229509493 -0.12496809869844583 0.082160578229509493 -3330.5049522018935 0.012069762504324899 -0.12496809869844583 0.012069762504324899 -10000.535346538978 -3330.3326502164778 0.066124355963747439 -0.3390428910843184 0.066124355963747439 -3330.5764604330384 -0.1419440024828873 -0.3390428910843184 -0.1419440024828873 -10000.514683736943 -3329.9071104831887 0.20794111114555125 -0.76441540850100864 0.20794111114555125 -3330.2069850908106 -0.062721572045120411 -0.76441540850100864 -0.062721572045120411 -9999.7930374896932 -3328.9345175799576 -0.19756061972807593 -1.1525232992098609 -0.19756061972807593 -3329.8859717016135 0.0013341154860881943 -1.1525232992098609 0.0013341154860881943 -9999.316875280856 -3330.6568110915841 0.17325543620738082 -0.20089095181901939 0.17325543620738082 -3330.3283964868624 -0.32850136197157553 -0.20089095181901939 -0.32850136197157553 -10000.533707969174 -3329.443604372821 0.0048511054503102002 -0.92886468417145807 0.0048511054503102002 -3329.8101132834154 -0.3006895902180986 -0.92886468417145807 -0.3006895902180986 -9999.4251823745217 -3330.8876627939158 0.25923017906028045 0.15563981318609876 0.25923017906028045 -3330.9721461788031 0.99273704363213255 0.15563981318609876 0.99273704363213255 -10002.483581948469 -3330.8087569268278 0.20794111114555158 -0.78467132124296768 0.20794111114555158 -3331.1086315344496 0.31624049559513878 -0.78467132124296768 0.31624049559513878 -10002.497976820609 -3329.6592330446097 0.20703117573477958 0.13851521442757075 0.20703117573477958 -3329.920841198611 0.027299826391526949 0.13851521442757075 0.027299826391526949 -9998.5861293676153 -3329.3728611699748 0.1194835448237187 0.88571327265162836 0.1194835448237187 -3329.7932107211004 -0.3312251426250441 0.88571327265162836 -0.3312251426250441 -9997.7014548884781 -3330.7605368267909 0.22188633782164224 -0.094447209880854643 0.22188633782164224 -3330.798790219691 -0.93234929782693143 -0.094447209880854643 -0.93234929782693143 -10002.309631348104 -3329.6799140661492 0.25395426029152257 0.43677940757424949 0.25395426029152257 -3329.5674933631576 0.22301909520516716 0.43677940757424949 0.22301909520516716 -9997.7217887730367 -3329.6573473364087 0.27006805353409047 0.48964084028148136 0.27006805353409047 -3329.6386256095534 0.32071563257795788 0.48964084028148136 0.32071563257795788 -9997.7339301521988 -3333.0466848961405 0.98549274901681605 -0.85336773041151215 0.98549274901681605 -3331.2026325966249 0.83502152803354712 -0.85336773041151215 0.83502152803354712 -10000.147900785369 -3334.8940200300071 -0.16848370841080357 -1.2469489317464646 -0.16848370841080357 -3334.604296443164 0.0767727595944665 -1.2469489317464646 0.0767727595944665 -10001.065689925101 -3334.9268114526067 -0.20352253724779912 0.4728527452879332 -0.20352253724779912 -3334.8277406785928 -1.711320017034669 0.4728527452879332 -1.711320017034669 -10001.385883400677 -3330.1476581605193 -0.01246924236655813 -1.4527910497504406 -0.01246924236655813 -3332.1644726123363 -3.3811498467827672 -1.4527910497504406 -3.3811498467827672 -9999.2691435000233 -3332.2734567543962 -1.6324576875377739 -0.47443620921332252 -1.6324576875377739 -3332.5461612652898 -1.1947940095724032 -0.47443620921332252 -1.1947940095724032 -9999.8960153117314 -3334.4096250969774 -0.017029825661630197 -0.41091835136244459 -0.017029825661630197 -3332.8732693673801 -3.6863070216081626 -0.41091835136244459 -3.6863070216081626 -10000.767968983966 -3331.9157485914857 -1.1842847088254755 -0.009659460284638044 -1.1842847088254755 -3332.0656055376958 -0.55349231667332788 -0.009659460284638044 -0.55349231667332788 -9998.9721268092417 -3330.4928878602709 0.23072024665356328 0.3898456099032046 0.23072024665356328 -3332.4779380345526 3.2577280024856918 0.3898456099032046 3.2577280024856918 -9999.4338172805146 -3330.044947682703 1.043950386393028 3.5592061353569324 1.043950386393028 -3330.8055560643425 -1.1480861916081773 3.5592061353569324 -1.1480861916081773 -9998.9037367435703 -3333.3331978493206 -0.87580547637597583 -3.1458329957289815 -0.87580547637597583 -3330.9498598213872 0.99504522143135277 -3.1458329957289815 0.99504522143135277 -10000.156335829855 -3334.3975558976531 0.073111830008732448 -2.4628670835292032 0.073111830008732448 -3335.6187897600694 0.07278297976917647 -2.4628670835292032 0.07278297976917647 -10001.589657826609 -3332.156776914439 1.2252222489566547 -0.47289597895582713 1.2252222489566547 -3335.3274110203624 -0.10477411280208049 -0.47289597895582713 -0.10477411280208049 -10003.88967668899 -3332.9824758104496 -0.61810380140507915 -3.7853062123721433 -0.61810380140507915 -3333.8915773547778 0.25396074728323104 -3.7853062123721433 0.25396074728323104 -10000.409624098116 -3334.2346689064598 1.929104781694875 0.99073436011804006 1.929104781694875 -3334.3046384769382 0.1576425007524449 0.99073436011804006 0.1576425007524449 -10004.153456551139 -3334.6794503345268 0.64052410889962386 1.672112174746021 0.64052410889962386 -3333.7701596981428 2.5640459434390692 1.672112174746021 2.5640459434390692 -9999.5127366066445 -3331.0243624696209 -1.7792883668640873 2.0667712978274722 -1.7792883668640873 -3332.4079244908057 2.5551470735799597 2.0667712978274722 2.5551470735799597 -9998.2584058385837 -3336.7628390559662 0.4895971876123173 0.93499841866773514 0.4895971876123173 -3337.0400827107155 0.064207371837431193 0.93499841866773514 0.064207371837431193 -10005.469360146961 -3330.278225222768 0.1404951369049719 -0.1167544514232759 0.1404951369049719 -3330.4586615373873 1.2266178481386305 -0.1167544514232759 1.2266178481386305 -10001.392873841565 -3330.6104155502262 -0.36700173844094097 -0.036555356885401125 -0.36700173844094097 -3330.5387212201672 1.2248094994568106 -0.036555356885401125 1.2248094994568106 -10001.495936344125 -3330.3618881206135 0.093413309953456425 -0.36967192398651605 0.093413309953456425 -3330.5099686186281 0.80262973491790035 -0.36967192398651605 0.80262973491790035 -10001.426616336335 -3334.8829674951444 -0.32433048312428203 -1.5265873553966454 -0.32433048312428203 -3334.6283110513136 -0.38381485673867566 -1.5265873553966454 -0.38381485673867566 -9999.7781537350911 -3333.0194170942132 -0.1660377927017021 0.18806600577216903 -0.1660377927017021 -3332.2039453311427 4.0480921052128913 0.18806600577216903 4.0480921052128913 -9998.7061747048174 -3333.3874902924344 0.26717569340233804 -0.09104543875291915 0.26717569340233804 -3333.6009403490702 0.46058541722961821 -0.09104543875291915 0.46058541722961821 -9999.1474417588543 -3325.3941468567277 2.4771181268358107 0.11707477606614702 2.4771181268358107 -3326.3576250958567 0.71206854456340807 0.11707477606614702 0.71206854456340807 -9996.0382719061254 -3329.8671063878464 -1.1756152279467151 -0.27217186756388401 -1.1756152279467151 -3332.6845975706424 -0.80118654446619075 -0.27217186756388401 -0.80118654446619075 -9998.0382600881003 -3330.8243578055008 -0.61427259658563804 -0.73903563618896184 -0.61427259658563804 -3333.6382883578935 -0.24962143121279912 -0.73903563618896184 -0.24962143121279912 -9999.2159904588261 -3329.6642431764635 -0.37583756948969438 -0.96742374808081877 -0.37583756948969438 -3329.9131287108512 -0.42461537125723225 -0.96742374808081877 -0.42461537125723225 -9999.2506703096078 -3328.7822109707718 -0.21598068303730839 -0.36800568849247384 -0.21598068303730839 -3328.7177651060051 0.35279173769731642 -0.36800568849247384 0.35279173769731642 -9996.775328117672 -3329.9862085998784 -0.23231259876877425 -0.81561688446768321 -0.23231259876877425 -3330.8174951589031 0.67252793608524186 -0.81561688446768321 0.67252793608524186 -9998.3012548576735 -3327.9883578529743 0.58048934079866754 -0.15128367147496791 0.58048934079866754 -3329.1673236431352 1.183852307273791 -0.15128367147496791 1.183852307273791 -9996.959776408763 -3329.7128624585425 -0.6537636960356582 2.2512589611418639 -0.6537636960356582 -3332.1112264722101 3.3570503522521626 2.2512589611418639 3.3570503522521626 -9998.1268782674251 -3328.7551068173211 -1.3556653264711092 2.0796657372738117 -1.3556653264711092 -3328.8463651746579 0.65097432631471897 2.0796657372738117 0.65097432631471897 -9997.0712240327302 -3334.8985019894853 -0.72728964187438028 0.72168035223070426 -0.72728964187438028 -3332.3702204342821 1.1285451202393695 0.72168035223070426 1.1285451202393695 -10003.549994241392 -3326.9257643393398 -1.0301441832125775 1.2754082837191163 -1.0301441832125775 -3328.8394727330697 0.58227155398139985 1.2754082837191163 0.58227155398139985 -9999.1447273923786 -3332.0817181787393 -1.7537641228965506 1.2795486606442181 -1.7537641228965506 -3330.7395556413762 0.58285072653834336 1.2795486606442181 0.58285072653834336 -10000.908736579306 -3333.4736179740198 -1.368291180706191 0.43759251205468064 -1.368291180706191 -3331.9195789210066 1.5135078684665992 0.43759251205468064 1.5135078684665992 -10003.081112859205 -3330.6680616025101 -0.87833759197447969 -0.13015253236815028 -0.87833759197447969 -3328.3239308721541 -1.1402513792267275 -0.13015253236815028 -1.1402513792267275 -9999.9514162429423 -3330.3770219852654 -0.0050952866486890791 -0.4326199239530979 -0.0050952866486890791 -3329.533697798975 0.88792953179404321 -0.4326199239530979 0.88792953179404321 -10001.186332097586 -3330.2668062829739 -0.21168432268368309 -0.054563638137722137 -0.21168432268368309 -3329.5764574599953 0.94081356377591874 -0.054563638137722137 0.94081356377591874 -10001.169468087268 -3329.4180807829812 -0.21168432268368309 0.38374618900871837 -0.21168432268368309 -3328.7277319600021 -0.93269966649768321 0.38374618900871837 -0.93269966649768321 -9998.6232915872861 -3329.5409985857323 0.068159715940873555 -0.79759685852195616 0.068159715940873555 -3328.894136134737 -1.2577124402614572 -0.79759685852195616 -1.2577124402614572 -9999.2346760369892 -3329.431100558551 -0.063470147424241841 -0.19037002680124715 -0.063470147424241841 -3330.3058820401461 -0.18964372275411279 -0.19037002680124715 -0.18964372275411279 -9999.9381931572534 -3331.354935008429 0.0082274917725211338 -0.33509770025193575 0.0082274917725211338 -3329.4043922067817 -0.76597320330279217 -0.33509770025193575 -0.76597320330279217 -9999.8157241606732 -3330.3303429927041 0.0063398397785250915 -0.047296914388084588 0.0063398397785250915 -3330.6152017363279 -0.21986914579065342 -0.047296914388084588 -0.21986914579065342 -10000.104488698509 -3330.0239134654839 -0.053553320286312545 -0.21665918893995695 -0.053553320286312545 -3330.5409116630208 -0.2435602211121477 -0.21665918893995695 -0.2435602211121477 -10000.009308798375 -3329.7439180674046 -0.005095286648688635 -0.40307553549337172 -0.005095286648688635 -3328.9005938811138 -0.77548221597589873 -0.40307553549337172 -0.77548221597589873 -9999.2870203439998 -3329.6558792167361 0.075775365774460424 -0.26430213731509866 0.075775365774460424 -3330.7321276159373 -0.089459538777191483 -0.26430213731509866 -0.089459538777191483 -10000.100949215746 -3330.208893633795 -0.17983847054590907 0.05416767558972424 -0.17983847054590907 -3330.4466915373368 -0.01874956689789542 0.05416767558972424 -0.01874956689789542 -9999.6648062368877 -3329.8770364366264 -0.053553320286312545 0.15382490863157727 -0.053553320286312545 -3330.3940346341633 0.10306318956554605 0.15382490863157727 0.10306318956554605 -9999.5686777118026 -3330.1174916742184 0.0063398397785250915 0.23393990468355241 0.0063398397785250915 -3330.4023504178422 0.18722350874486438 0.23393990468355241 0.18722350874486438 -9999.4659347430534 -3330.7986067737233 0.85132447663752275 -0.81759361317972434 0.85132447663752275 -3330.12904680774 -1.0046099575383778 -0.81759361317972434 -1.0046099575383778 -9999.4594888907013 -3330.2994373734209 -0.20125741446533041 -0.067247920213048928 -0.20125741446533041 -3330.27463251667 -0.082858660276542651 -0.067247920213048928 -0.082858660276542651 -9999.4556555953895 -3330.4421193964808 -0.11426156123095843 -0.094842449354473501 -0.11426156123095843 -3330.1322485295832 -0.19954171967152945 -0.094842449354473501 -0.19954171967152945 -9999.1485503246986 -3330.1491724197231 -0.24637856795737312 0.018892327865614789 -0.24637856795737312 -3330.2462198423009 -0.069694827144758165 0.018892327865614789 -0.069694827144758165 -9999.4109861883699 -3330.0925270810449 0.016828491811069046 -0.50528994168053032 0.016828491811069046 -3330.4920222287437 -0.22744175281150092 -0.50528994168053032 -0.22744175281150092 -10000.150084835024 -3330.3921064063888 -0.66221379880827991 -0.84917401134316606 -0.66221379880827991 -3330.5753090779608 -0.11888175974695514 -0.84917401134316606 -0.11888175974695514 -9999.8536068315516 -3328.9325015595059 0.21555264180642286 -1.4885192635001658 0.21555264180642286 -3329.0313985962212 -0.59368519397321506 -1.4885192635001658 -0.59368519397321506 -9998.7185505342677 -3330.4101086591845 -0.17983847054590907 -0.44065528258533959 -0.17983847054590907 -3330.6479065627263 -0.30501903286312881 -0.44065528258533959 -0.30501903286312881 -10000.268451313055 -3330.4258961736086 -0.24637856795737312 -0.51841765604876855 -0.24637856795737312 -3330.5229435961865 -0.25739157232919752 -0.51841765604876855 -0.25739157232919752 -10000.241157450026 -3329.9585110378166 0.25395426029152257 -1.5154473287684596 0.25395426029152257 -3329.846090334825 -0.015746304455056759 -1.5154473287684596 -0.015746304455056759 -9998.5575796880421 -3330.4192833084612 -0.20125741446533041 -0.59532821549964865 -0.20125741446533041 -3330.3944784517103 -0.080089397612027824 -0.59532821549964865 -0.080089397612027824 -9999.8151934005073 -3329.8740822588825 0.025117990978561489 -1.5098587044180931 0.025117990978561489 -3329.4037735784959 -0.5969462577104423 -1.5098587044180931 -0.5969462577104423 -9999.0470394546828 -3329.779172232119 0.29648747929680408 -1.1672174086882023 0.29648747929680408 -3330.4640537961423 -0.42916226600118534 -1.1672174086882023 -0.42916226600118534 -9998.6672358519445 -3330.9153707854371 -0.1002238219380478 -0.85849127202482123 -0.1002238219380478 -3329.9908896272877 0.23233581855265584 -0.85849127202482123 0.23233581855265584 -9999.8383180636447 -3329.8172806256193 0.025117990978561489 -0.13377068562704153 0.025117990978561489 -3329.3469719452337 0.5470444949432931 -0.13377068562704153 0.5470444949432931 -9998.876634554892 -3330.3837670971634 0.068159715940874221 -0.25286201227686433 0.068159715940874221 -3329.7369046461681 0.66955338313982793 -0.25286201227686433 0.66955338313982793 -10001.762981571283 -3330.2920286428148 0.0048511054503104223 -0.68667726668081741 0.0048511054503104223 -3330.6585375534087 0.95950803780760907 -0.68667726668081741 0.95950803780760907 -10001.970455184504 -3329.9345968155512 0.21555264180642242 -0.69505833890980284 0.21555264180642242 -3330.0334938522669 0.94038729877070182 -0.69505833890980284 0.94038729877070182 -10001.724836302403 -3332.5345223377562 0.86797923275990652 -2.4072755188446395 0.86797923275990652 -3329.8496957670909 0.1996106423939461 -2.4072755188446395 0.1996106423939461 -9999.6816259383904 -3333.0463562628079 0.50107862340226061 -2.1727137810646875 0.50107862340226061 -3330.2992529856974 0.26095682641044071 -2.1727137810646875 0.26095682641044071 -9999.8801938790839 -3327.3805778907026 -1.7354444930233881 1.1457598546347536 -1.7354444930233881 -3326.3950062542367 -1.771523215905106 1.1457598546347536 -1.771523215905106 -9997.4876876031922 -3329.3664807788259 -0.51958548035867369 0.21894766331770144 -0.51958548035867369 -3327.5846856009948 -0.48256585191320056 0.21894766331770144 -0.48256585191320056 -9997.0346981649654 -3332.4525794305655 1.3823657110540117 -0.66679214685988297 1.3823657110540117 -3332.1026042785666 1.1798435946574815 -0.66679214685988297 1.1798435946574815 -10000.224367339462 -3332.4310272491866 1.049466979335598 -0.42311597557635627 1.049466979335598 -3330.733819367319 0.27968730710971812 -0.42311597557635627 0.27968730710971812 -9998.5881182241374 -3331.1356917986941 0.20381855660614367 -0.51938561010192963 0.20381855660614367 -3329.8244276268256 0.51361614235762232 -0.51938561010192963 0.51361614235762232 -9999.2838214233361 -3328.8074512754565 0.66368590690814377 2.0620700386280078 0.66368590690814377 -3328.171775044882 0.5643430962986713 2.0620700386280078 0.5643430962986713 -9999.6048500113702 -3328.6132371056965 1.1486258038563077 2.6460133059159903 1.1486258038563077 -3329.4647794988614 0.24379295706505039 2.6460133059159903 0.24379295706505039 -9997.3164107211505 -3329.4276427157697 -0.01057530588350708 -0.66911657483933595 -0.01057530588350708 -3330.9087422906373 0.50328220724077255 -0.66911657483933595 0.50328220724077255 -9998.9248483363008 -3329.151048781267 -0.12132499742240299 -0.75732717299797514 -0.12132499742240299 -3329.5653298959501 -0.02461273781512574 -0.75732717299797514 -0.02461273781512574 -9998.2855240141853 -3330.4118561598652 -0.027816988953395461 0.098119140850030817 -0.027816988953395461 -3330.1248605709916 -0.20179846099082965 0.098119140850030817 -0.20179846099082965 -9999.1391375258936 -3326.7867576426852 -1.1872804735174669 -1.2865158318973045 -1.1872804735174669 -3328.5117262240874 -0.49624316612562325 -1.2865158318973045 -0.49624316612562325 -9999.1414913869085 -3330.475116793878 -0.2074782354757545 0.093524651896586874 -0.2074782354757545 -3329.5543065885631 -0.97544514773323954 0.093524651896586874 -0.97544514773323954 -10001.338889446071 -3330.6603061075753 -0.41270307882417234 0.10095915385045373 -0.41270307882417234 -3330.1657677916692 -1.2010535964965925 0.10095915385045373 -1.2010535964965925 -10001.538052075271 -3328.8976912972885 -1.486401951833946 -1.4799935519273979 -1.486401951833946 -3328.8938181007688 -0.51752331441967192 -1.4799935519273979 -0.51752331441967192 -9998.3079909441421 -3331.7585514889547 -1.7058533246562393 -0.97742550257407856 -1.7058533246562393 -3332.9403187772436 -2.1551914364259233 -0.97742550257407856 -2.1551914364259233 -10000.121962934427 -3330.2140188170492 -0.7984862270591383 -1.4039122622191464 -0.7984862270591383 -3332.672328847495 -2.8262969027229179 -1.4039122622191464 -2.8262969027229179 -9999.5817005107638 -3328.2537088117942 0.39477557801085694 -0.29053325316590417 0.39477557801085694 -3329.402706921765 -1.4360079460489032 -0.29053325316590417 -1.4360079460489032 -9998.2742175280182 -3329.3344038124237 -0.40631046820100769 -0.1773722060500158 -0.40631046820100769 -3330.4372885842008 -1.5443964507352668 -0.1773722060500158 -1.5443964507352668 -9997.563705677183 -3330.2120218342388 -0.057116634637965472 -0.017628557280468193 -0.057116634637965472 -3332.919301404816 -1.9858812420167518 -0.017628557280468193 -1.9858812420167518 -9998.4036133877908 -3330.2829175503402 -0.40490631811589406 0.47062884396973459 -0.40490631811589406 -3333.2665695783403 -1.7112468363064295 0.47062884396973459 -1.7112468363064295 -9999.8346171500471 -3329.4252713873011 1.0291128930641225 1.6112269092519838 1.0291128930641225 -3330.7933276363192 1.3354325086908529 1.6112269092519838 1.3354325086908529 -10000.414693187191 -3327.4729562793686 1.5119206397526488 0.68985251359936228 1.5119206397526488 -3327.5146340159718 -0.71433459783111175 0.68985251359936228 -0.71433459783111175 -9996.3676801518614 -3328.8724518095996 -0.12132499742240299 1.1948995633438244 -0.12132499742240299 -3329.2867329242827 0.21415266184509818 1.1948995633438244 0.21415266184509818 -9997.4497330991799 -3328.8087520020727 -0.1581093458958924 1.0404275612340825 -0.1581093458958924 -3329.1797764703533 0.47835037847426065 1.0404275612340825 0.47835037847426065 -9997.4070690338158 -3329.4960196071715 -0.33709356699865256 0.13062019857579799 -0.33709356699865256 -3329.2253316531787 -0.77156224163127263 0.13062019857579799 -0.77156224163127263 -9998.6275831829644 -3329.2115112641745 -0.39330708146017845 0.59530164072293701 -0.39330708146017845 -3329.6945688603791 -0.32166872275877267 0.59530164072293701 -0.32166872275877267 -9997.6364569468478 -3330.4657411828744 0.021301458373357562 -0.22081591377764198 0.021301458373357562 -3330.4838130071571 -0.025636376254624338 -0.22081591377764198 -0.025636376254624338 -10000.122525238448 -3329.3744713060146 -0.33709356699865289 -0.99059497828511667 -0.33709356699865289 -3329.1037833520218 0.48522257453214479 -0.99059497828511667 0.48522257453214479 -9998.262938279493 -3330.9508836198079 0.42080116920803973 -0.0021023283561589778 0.42080116920803973 -3330.8716298003751 -0.63009684998181115 -0.0021023283561589778 -0.63009684998181115 -10000.340765045987 -3330.1894913757524 0.15194842644148224 -0.38983710562115448 0.15194842644148224 -3330.1449916028005 -0.025234536800837759 -0.38983710562115448 -0.025234536800837759 -9998.9021309804211 -3329.5048863438842 -0.39330708146017845 -0.84414578618452651 -0.39330708146017845 -3329.9879439400888 0.0804797787749294 -0.84414578618452651 0.0804797787749294 -9998.5165821859773 -3330.3372769169041 -0.027816988953395461 -0.23437239704071544 -0.027816988953395461 -3330.0502813280305 0.067448237982972614 -0.23437239704071544 0.067448237982972614 -9998.9153997970152 -3330.2642187241881 -0.8416688580713958 -0.46096901447890559 -0.8416688580713958 -3330.6501573884893 0.76915847032796592 -0.46096901447890559 0.76915847032796592 -9998.8719686431523 -3329.1810780696683 -0.1581093458958924 -0.766900376081594 -0.1581093458958924 -3329.5521025379489 0.67052453373617027 -0.766900376081594 0.67052453373617027 -9998.524047236604 -3330.4136726820084 0.015944202966426471 -0.28760856082362807 0.015944202966426471 -3330.1136703891366 0.15849951408108609 -0.28760856082362807 0.15849951408108609 -9998.9503460035685 -3330.5126164856374 0.015944202966426471 0.011770039566272317 0.015944202966426471 -3330.2126141927656 -0.20589958235086669 0.011770039566272317 -0.20589958235086669 -9999.2471774144542 -3330.1428434359032 0.021301458373357562 -0.2088821549155 0.021301458373357562 -3330.1609152601859 -0.37484400647190341 -0.2088821549155 -0.37484400647190341 -9999.1538319975371 -3330.2932442108458 0.15194842644148224 -0.18919869703222503 0.15194842644148224 -3330.2487444378939 -0.42924333541310489 -0.18919869703222503 -0.42924333541310489 -9999.2133894856997 -3330.0266124865175 0.13445202846512172 -0.25466764450357005 0.13445202846512172 -3330.1045984275324 -0.28703510084790196 -0.25466764450357005 -0.28703510084790196 -9999.4143564269471 -3330.0943828125237 -0.016396424089670972 -0.25724953879893064 -0.016396424089670972 -3330.3483974586743 -0.20868457100368687 -0.25724953879893064 -0.20868457100368687 -9999.4922487662334 -3329.848440631059 -0.41270307882417279 -0.33183313078916399 -0.41270307882417279 -3329.3539023151534 0.74195170248259501 -0.33183313078916399 0.74195170248259501 -9999.1024556457232 -3330.2596972235815 0.13445202846512172 0.02717373274754209 0.13445202846512172 -3330.3376831645969 0.13870206799208518 0.02717373274754209 0.13870206799208518 -10000.113610638138 -3330.7596333600654 -0.8100783599871586 -0.31624203889077762 -0.8100783599871586 -3329.7831565454803 0.76142047521170753 -0.31624203889077762 0.76142047521170753 -9999.4375673855557 -3329.3269175017949 0.56542090098375608 -0.20070543297515542 0.56542090098375608 -3329.6181529897594 -0.00052419149972138257 -0.20070543297515542 -0.00052419149972138257 -9999.6214043138298 -3330.3274675495882 -0.016396424089670972 0.024591838452181491 -0.016396424089670972 -3330.5814821957383 0.21705259783630027 0.024591838452181491 0.21705259783630027 -10000.191502977425 -3329.6632513173613 -0.20747823547575406 -0.33926763274121186 -0.20747823547575406 -3328.7424411120464 0.96756015124697115 -0.33926763274121186 0.96756015124697115 -9998.9032930165213 -3331.4820859769297 0.011988698297080047 0.28273151564462751 0.011988698297080047 -3329.3182078754871 0.78216046051647936 0.28273151564462751 0.78216046051647936 -9999.8865935040758 -3329.8014920708019 -0.086042815225624847 -0.25162829136752407 -0.086042815225624847 -3330.3333632743688 -0.1301972825822304 -0.25162829136752407 -0.1301972825822304 -9999.5812517951308 -3330.2663048623654 -0.0035257513546631536 -0.0016913132294575917 -0.0035257513546631536 -3330.1499701231205 -0.0017834677510109032 -0.0016913132294575917 -0.0017834677510109032 -9999.5671565376651 -3330.1541619463023 0.023182328734476565 -0.044713584145938512 0.023182328734476565 -3330.1288193038545 -0.057654827440273948 -0.044713584145938512 -0.057654827440273948 -9999.5006763541278 -3330.1943055846423 -0.023327200024165551 -0.049947908593821921 -0.023327200024165551 -3330.1197393227249 -0.021590406246104976 -0.049947908593821921 -0.021590406246104976 -9999.4752431371089 -3330.2391087903561 -0.046561913284488332 -0.035908634557927144 -0.046561913284488332 -3330.1664719130422 -0.0040594060233161144 -0.035908634557927144 -0.0040594060233161144 -9999.4981270861172 -3330.1929783708656 -0.013091146423162447 -0.05068634619601653 -0.013091146423162447 -3330.1130388151214 0.00081832573414430954 -0.05068634619601653 0.00081832573414430954 -9999.4732362067662 -3330.2691414121136 -0.013091146423162225 -0.099372413016681094 -0.013091146423162225 -3330.1892018563685 -0.074142968785963603 -0.099372413016681094 -0.074142968785963603 -9999.7017253305094 -3330.2704686258912 -0.023327200024165773 -0.098633975419943454 -0.023327200024165773 -3330.195902363972 -0.0965517007643939 -0.098633975419943454 -0.0965517007643939 -9999.7037322608521 -3330.0141007743205 0.12210822255853251 -0.2218463066028562 0.12210822255853251 -3330.2221277629487 -0.24605072512895276 -0.2218463066028562 -0.24605072512895276 -9999.440610832753 -3330.320861130821 -0.056170661634053709 -0.12156700166997325 -0.056170661634053709 -3330.1798790828789 -0.15420810384557626 -0.12156700166997325 -0.15420810384557626 -9999.6313225256636 -3330.2949798305008 -0.023157022971931784 -0.037040384939245996 -0.023157022971931784 -3330.348313799147 -0.28671965532413424 -0.037040384939245996 -0.28671965532413424 -9999.666960879651 -3330.2530407443674 -0.035183276254608098 -0.096371396619360894 -0.035183276254608098 -3330.2074868274631 -0.12274606695564216 -0.096371396619360894 -0.12274606695564216 -9999.6212693651978 -3330.1619919978539 -0.024220452233682438 -0.086379489857790759 -0.024220452233682438 -3330.164012509993 -0.11691931955829205 -0.086379489857790759 -0.11691931955829205 -9999.2930113409566 -3330.2291356098758 0.1862721634107159 -0.083196730093732185 0.1862721634107159 -3329.9723679974704 -0.23872736136763706 -0.083196730093732185 -0.23872736136763706 -9999.1282682253513 -3330.1722497672754 -0.030565110606079915 -0.05018418347935949 -0.030565110606079915 -3330.1549874177799 -0.051865960168925085 -0.05018418347935949 -0.051865960168925085 -9999.293319510256 -3330.1586689520891 -0.038157883916500268 -0.030657747520308476 -0.038157883916500268 -3330.1778649646049 -0.085262561005947646 -0.030657747520308476 -0.085262561005947646 -9999.2956436931672 -3330.2429091239501 -0.053363020884216406 -0.041752258555789012 -0.053363020884216406 -3330.2103123374018 0.011063971408020734 -0.041752258555789012 0.011063971408020734 -9999.4056465864815 -3330.2041372225704 -0.030565110606079915 -0.056755686886390322 -0.030565110606079915 -3330.1868748730758 0.0077197101968522475 -0.056755686886390322 0.0077197101968522475 -9999.3889818761454 -3330.1943244007161 -0.024220452233682521 -0.078296694487107743 -0.024220452233682521 -3330.1963449128543 -0.054616874036582885 -0.078296694487107743 -0.054616874036582885 -9999.390008549537 -3330.2508184121525 0.018569874461125208 -0.014300715281024168 0.018569874461125208 -3330.2556216962039 -0.093529331325044041 -0.014300715281024168 -0.093529331325044041 -9999.5565410686722 -3330.1675222439317 -0.035183276254608209 -0.082650914151599864 -0.035183276254608209 -3330.1219683270283 -0.042583082557484886 -0.082650914151599864 -0.042583082557484886 -9999.3647138638844 -3330.182570432713 -0.00055125292613872334 -0.045046186583931558 -0.00055125292613872334 -3330.176181109573 -0.032380068198108347 -0.045046186583931558 -0.032380068198108347 -9999.4176881187959 -3330.2074522216371 -0.00055125292613872334 -0.033779785975639243 -0.00055125292613872334 -3330.2010628984972 -0.031176986194623169 -0.033779785975639243 -0.031176986194623169 -9999.492333485563 -3330.1958705534435 -0.007882695812849394 -0.033165426535560982 -0.007882695812849394 -3330.1812901164831 -0.032874896259272646 -0.033165426535560982 -0.032874896259272646 -9999.4844948730097 -3330.2117610878668 -0.0078826958128492275 -0.032706418289308203 -0.0078826958128492275 -3330.1971806509064 -0.042661343679355923 -0.032706418289308203 -0.042661343679355923 -9999.5321664762778 -3330.2252204225479 -0.0097313784198076458 -0.02138894338713726 -0.0097313784198076458 -3330.2041669164173 -0.011191891314410896 -0.02138894338713726 -0.011191891314410896 -9999.5039664445139 -3330.1977726719251 -0.0097313784198076458 -0.03361920130555518 -0.0097313784198076458 -3330.1767191657946 -0.011842494283882843 -0.03361920130555518 -0.011842494283882843 -9999.4216231926548 -3330.193102033938 -0.012349364948370467 -0.025681155904749176 -0.012349364948370467 -3330.1833570700765 -0.025419151807000162 -0.025681155904749176 -0.025419151807000162 -9999.4221150092271 -3330.2518643503008 -0.01565216937098729 0.011547123212949373 -0.01565216937098729 -3330.2479409554999 0.013838712849974399 0.011547123212949373 0.013838712849974399 -9999.5926611503019 -3330.2211647115764 -0.0088056058202483634 -0.024366190860746428 -0.0088056058202483634 -3330.2031820569991 -0.014258052579862124 -0.024366190860746428 -0.014258052579862124 -9999.4962913976706 -3330.2574875278842 -0.012509164460086097 0.019827640666335355 -0.012509164460086097 -3330.2383209931795 -0.00032368404754379299 0.019827640666335355 -0.00032368404754379299 -9999.5916619541167 -3330.2269710019882 -0.010011963110896749 -0.0091430389948072843 -0.010011963110896749 -3330.2072710434859 -0.020972751050976512 -0.0091430389948072843 -0.020972751050976512 -9999.5532352210939 -3330.2451091927687 -0.0050783523150354226 -0.0030895070640326594 -0.0050783523150354226 -3330.2351318990986 -0.041512379386404064 -0.0030895070640326594 -0.041512379386404064 -9999.5877700968194 -3330.2372368318247 -0.0036064430751463761 -0.0061277818467715406 -0.0036064430751463761 -3330.2252405451873 -0.029306041200470645 -0.0061277818467715406 -0.029306041200470645 -9999.5602940539757 -3330.2267380580561 -0.0055345727338382833 0.0067914386236225255 -0.0055345727338382833 -3330.2016010992847 -0.028703302650683327 0.0067914386236225255 -0.028703302650683327 -9999.5967543220468 -3330.2301326454763 -0.0024933573047085655 0.0058620204472390469 -0.0024933573047085655 -3330.2110100869595 -0.00049904709885595366 0.0058620204472390469 -0.00049904709885595366 -9999.5999552158173 -3330.2111116643864 -0.0011844085984040742 -0.018375830801232951 -0.0011844085984040742 -3330.186547771249 -0.032501842564670369 -0.018375830801232951 -0.032501842564670369 -9999.5440895686334 -3330.2093017246061 -0.0086463916940240915 -0.023295855509786634 -0.0086463916940240915 -3330.1967443714002 -0.01951401073802117 -0.023295855509786634 -0.01951401073802117 -9999.5229915624514 -3330.2063170188267 -0.0045759437662700186 -0.027413047544541769 -0.0045759437662700186 -3330.1957316259413 -0.012067420389939798 -0.027413047544541769 -0.012067420389939798 -9999.5510679896033 -3330.1920375432783 0.00089109956023492032 -0.033948385702387895 0.00089109956023492032 -3330.1746847825489 -0.032815945625770837 -0.033948385702387895 -0.032815945625770837 -9999.5131606199138 -3330.2036678592649 0.00089109956023514236 -0.02663135937473271 0.00089109956023514236 -3330.1863150985373 -0.03578864041264751 -0.02663135937473271 -0.03578864041264751 -9999.548051567861 -3330.1946867028437 -0.0045759437662704627 -0.03473007388311089 -0.0045759437662704627 -3330.1841013099565 -0.0090947256030631252 -0.03473007388311089 -0.0090947256030631252 -9999.5161770416526 -3330.2036777397061 -0.0046885399521805482 -0.020540611832984723 -0.0046885399521805482 -3330.1940173326075 -0.006640730473009171 -0.020540611832984723 -0.006640730473009171 -9999.5465580307427 -3330.3978740446701 -0.051113281580681624 0.050270297752831539 -0.051113281580681624 -3329.8739690828788 -0.2717476335419633 0.050270297752831539 -0.2717476335419633 -9999.1338305267418 -3330.1800882126008 -0.038157883916500213 -0.041217087580662337 -0.038157883916500213 -3330.1992842251148 -0.037285261571014416 -0.041217087580662337 -0.037285261571014416 -9999.3599014747015 -3330.1953287171218 -0.035262140582166146 -0.043560509357121191 -0.035262140582166146 -3330.24336438512 -0.014848365097350325 -0.043560509357121191 -0.014848365097350325 -9999.4009021277961 -3330.2139747287147 -0.012349364948370467 -0.01362985113155446 -0.012349364948370467 -3330.2042297648513 -0.024698499706573784 -0.01362985113155446 -0.024698499706573784 -9999.4847330935445 -3330.2201526268218 -0.012576844266793175 -0.017427550943466485 -0.012576844266793175 -3330.2104792072478 -0.017967169838811969 -0.017427550943466485 -0.017967169838811969 -9999.5042775682887 -3330.2236514589258 -0.015097131022907162 -0.02560719105622411 -0.015097131022907162 -3330.2287632536227 0.0039657312445342541 -0.02560719105622411 0.0039657312445342541 -9999.5471057065297 -3330.2369280495004 -0.010108478993767545 -0.021802723127620993 -0.010108478993767545 -3330.2316046140768 -0.00055090468231355771 -0.021802723127620993 -0.00055090468231355771 -9999.5511351942841 -3330.2003432324582 -0.015295111311791398 -0.032268470326016541 -0.015295111311791398 -3330.2000505294764 -0.025361658503243234 -0.032268470326016541 -0.025361658503243234 -9999.4802804106366 -3330.1907391815512 -0.011785260986842072 -0.0066249192459508777 -0.011785260986842072 -3330.205524641071 -0.024961689698102418 -0.0066249192459508777 -0.024961689698102418 -9999.5136948104482 -3330.2164981951464 -0.011109705222053901 -0.0016351754347851966 -0.011109705222053901 -3330.2332970743264 0.0064594155483064242 -0.0016351754347851966 0.0064594155483064242 -9999.5770151933466 -3330.2123137172948 -0.011951987634788441 -0.016862376101926202 -0.011951987634788441 -3330.2319246722673 0.015785685649461811 -0.016862376101926202 0.015785685649461811 -9999.575625973368 -3330.1883418036323 -0.011995026392762398 -0.03062129054160323 -0.011995026392762398 -3330.2164580251901 0.003199483519892965 -0.03062129054160323 0.003199483519892965 -9999.5352019856 -3330.2017615054538 0.00025407672939925519 -0.0094209669496194692 0.00025407672939925519 -3330.2296838390757 -0.011303238650725689 -0.0094209669496194692 -0.011303238650725689 -9999.5724277121117 -3330.1817293053118 -0.013660933231712358 -0.032954482584500511 -0.013660933231712358 -3330.2024537139932 -0.0088355070402030833 -0.032954482584500511 -0.0088355070402030833 -9999.5106746096208 -3330.2102553849709 -0.016805688266495089 -0.04338084260962205 -0.016805688266495089 -3330.2126571905992 -0.010428848906485655 -0.04338084260962205 -0.010428848906485655 -9999.5203569986843 -3330.2145370243888 -0.0097255564489548973 -0.033018061883922201 -0.0097255564489548973 -3330.2044989619608 -0.024471749000440468 -0.033018061883922201 -0.024471749000440468 -9999.484940966744 -3330.2467825058138 0.0011334965933810226 -0.078287938722496619 0.0011334965933810226 -3330.2245496321102 0.0052578804643417243 -0.078287938722496619 0.0052578804643417243 -9999.5150601258065 -3330.2098066126728 -0.0077243539379269199 -0.10540421867699479 -0.0077243539379269199 -3330.2101359320677 -0.036534574604957015 -0.10540421867699479 -0.036534574604957015 -9999.3700440014582 -3330.1680532618666 -0.023611154764167475 -0.081814263128308085 -0.023611154764167475 -3330.2000175133799 -0.064540393736024271 -0.081814263128308085 -0.064540393736024271 -9999.357076059081 -3330.2219240187951 -0.025959093573974634 -0.13070250639248115 -0.025959093573974634 -3330.2111939427559 -0.0291695852047269 -0.13070250639248115 -0.0291695852047269 -9999.484353076663 -3330.2032946795844 -0.016805688266494867 -0.065881624748726608 -0.016805688266494867 -3330.2056964852145 -0.009470802872783679 -0.065881624748726608 -0.009470802872783679 -9999.4994748825193 -3330.166951958905 0.0023114160930316485 -0.051684999836652423 0.0023114160930316485 -3330.2044311539976 -0.014905416814144701 -0.051684999836652423 -0.014905416814144701 -9999.5218165204278 -3330.1874660602789 -0.013660933231712913 -0.049498763473820873 -0.013660933231712913 -3330.2081904689603 -0.009917695202602772 -0.049498763473820873 -0.009917695202602772 -9999.5278848745111 -3330.1167146953703 -0.0075202099859074112 -0.094197076156888215 -0.0075202099859074112 -3330.1707522125653 -0.023590876031448715 -0.094197076156888215 -0.023590876031448715 -9999.4479403132609 -3330.1367174648258 -0.016109807225975992 -0.082973236003454076 -0.016109807225975992 -3330.1846111714622 -0.012082719178579282 -0.082973236003454076 -0.012082719178579282 -9999.4775592503938 -3330.1948151243068 -0.011083466381961449 -0.037715027770900633 -0.011083466381961449 -3330.2126507471639 -0.017134931278633303 -0.037715027770900633 -0.017134931278633303 -9999.5308372100699 -3330.183085591033 -0.0075202099859078553 -0.036572220095877128 -0.0075202099859078553 -3330.237123108227 0.00802682852736325 -0.036572220095877128 0.00802682852736325 -9999.6470530002516 -3330.2354449125314 -0.0092269738056871553 -0.020161655102128861 -0.0092269738056871553 -3330.2314362399147 -0.0020242218906787457 -0.020161655102128861 -0.0020242218906787457 -9999.6587211135484 -3329.7553195652254 0.077423763481892061 -0.18692422281674226 0.077423763481892061 -3330.0391906033165 -0.036519364159175893 -0.18692422281674226 -0.036519364159175893 -9999.3837121833312 -3330.1642893638646 0.0087985562613752122 -0.03920506489885156 0.0087985562613752122 -3330.2476179701953 0.0020202058585709892 -0.03920506489885156 0.0020202058585709892 -9999.6449776589507 -3330.1826000376659 -0.24708492692438244 0.0028749460161634488 -0.24708492692438244 -3329.8658701214163 -0.31555108198517701 0.0028749460161634488 -0.31555108198517701 -9999.0170758829518 -3330.2455284407615 -0.025959093573974634 -0.13074603270251828 -0.025959093573974634 -3330.2347983647232 -0.027934291132623912 -0.13074603270251828 -0.027934291132623912 -9999.5551663425686 -3330.3657642923381 0.044033141476527482 -0.19206768988806289 0.044033141476527482 -3330.4086974072679 0.044866322505185963 -0.19206768988806289 0.044866322505185963 -9999.6287000660996 -3329.8637301017106 -0.35870684125695851 0.20505496045007021 -0.35870684125695851 -3330.0501730693959 -0.18371466786084056 0.20505496045007021 -0.18371466786084056 -9999.2906139156439 -3330.1964896568279 0.01423155117736008 -0.038796719691163162 0.01423155117736008 -3330.2075453603047 -0.057522174336554599 -0.038796719691163162 -0.057522174336554599 -9999.4770823405597 -3330.1992199825117 0.0090850983103232252 0.0068831488733849255 0.0090850983103232252 -3330.197751133388 0.038536199273949023 0.0068831488733849255 0.038536199273949023 -9999.6423441479783 -3330.1796402109157 0.047187303068208841 0.016333035155184916 0.047187303068208841 -3330.2401912322885 0.0086861252784729004 0.016333035155184916 0.0086861252784729004 -9999.6469586862368 -3330.1662937547871 0.030305289771505928 0.0031811252592888195 0.030305289771505928 -3330.1346388750862 0.0265080615390616 0.0031811252592888195 0.0265080615390616 -9999.6172339829063 -3329.8105992123246 -0.062665808295363945 0.22831168276752578 -0.062665808295363945 -3330.3764735403438 0.1134826987595261 0.22831168276752578 0.1134826987595261 -9999.5476781322723 -3330.2352667153336 -0.0054109763927507881 0.074925992348653381 -0.0054109763927507881 -3330.2145785063603 0.048054305563709931 0.074925992348653381 0.048054305563709931 -9999.6555626744266 -3330.1345435134699 0.0055634041439971416 -0.036246919891709695 0.0055634041439971416 -3330.1929994683396 -0.013052472671915893 -0.036246919891709695 -0.013052472671915893 -9999.5108564876573 -3330.1595681179533 0.0090850983103232252 -0.050359810951704276 0.0090850983103232252 -3330.1580992688287 -0.018570003980130423 -0.050359810951704276 -0.018570003980130423 -9999.5233885543021 -3330.1962332653984 -0.0092269738056875994 -0.074323940625617979 -0.0092269738056875994 -3330.1922245927817 -0.047861773413387709 -0.074323940625617979 -0.047861773413387709 -9999.5410861721502 -3330.169337071271 0.00081365504473274175 -0.026952321815770119 0.00081365504473274175 -3330.1997132565484 -0.012604846655449364 -0.026952321815770119 -0.012604846655449364 -9999.5253101295057 -3330.1438608694334 0.0097053133587279294 -0.035359217434233869 0.0097053133587279294 -3330.1954840231338 -0.01425538362673251 -0.035359217434233869 -0.01425538362673251 -9999.5138069653476 -3330.244101744398 0.0041187356913482409 -0.015002379213910899 0.0041187356913482409 -3330.1866619021584 -0.013624064393297886 -0.015002379213910899 -0.013624064393297886 -9999.5516626192439 -3330.1948858218675 -0.00058869924440818622 0.0058279543482058216 -0.00058869924440818622 -3330.2083087567225 -0.008019409935513977 0.0058279543482058216 -0.008019409935513977 -9999.5338461921965 -3330.1728861504143 -0.0054109763927512322 0.029306738835657598 -0.0054109763927512322 -3330.1521979414392 -0.017304615928878775 0.029306738835657598 -0.017304615928878775 -9999.4684209796687 -3330.1891432664324 -0.00058869924440863031 0.016553517241845839 -0.00058869924440863031 -3330.2025662012875 -0.0046088184899417683 0.016553517241845839 -0.0046088184899417683 -9999.5166185258931 -3330.1721018296321 0.00081365504473274175 -0.015958435196807841 0.00081365504473274175 -3330.2024780149095 -0.0095311353179567959 -0.015958435196807841 -0.0095311353179567959 -9999.5336044045907 -3330.1992106048056 -0.011083466381961449 -0.020615944711607881 -0.011083466381961449 -3330.2170462276626 -0.015224089611365343 -0.020615944711607881 -0.015224089611365343 -9999.5440236515715 -3330.2075392640945 -0.0023487265704688065 -0.017679526499705389 -0.0023487265704688065 -3330.2311418161244 0.019069221008976456 -0.017679526499705389 0.019069221008976456 -9999.5953141826467 -3330.1906476272106 0.0057260088709998325 -0.01419041661938536 0.0057260088709998325 -3330.2243623919876 -0.011875688320287736 -0.01419041661938536 -0.011875688320287736 -9999.5683188807816 -3330.1965607448346 -0.0010191789640789928 0.0045877470802224707 -0.0010191789640789928 -3330.2108909505205 -0.0066570528033480514 0.0045877470802224707 -0.0066570528033480514 -9999.5418223672968 -3330.1828676933546 0.0013435477155877562 -0.026189852822426474 0.0013435477155877562 -3330.2136805330811 0.0043845498294103891 -0.026189852822426474 0.0043845498294103891 -9999.5637034325919 -3330.2030889020698 -0.0041323724253833349 -0.011891928159457166 -0.0041323724253833349 -3330.2304059880917 0.019878813513059868 -0.011891928159457166 0.019878813513059868 -9999.594017635136 -3330.1962002789624 0.0046411385500051971 0.0010339103355363477 0.0046411385500051971 -3330.2099279837967 0.0010850491999008227 0.0010339103355363477 0.0010850491999008227 -9999.5453402765415 -3330.1921511882356 0.0020630014501098887 0.010310784220564528 0.0020630014501098887 -3330.1996009226423 -0.0047792759787625982 0.010310784220564528 -0.0047792759787625982 -9999.5166291866844 -3330.1859472634533 0.0045436602645727575 0.016921904152695788 0.0045436602645727575 -3330.1955094781515 0.0012007523146166932 0.016921904152695788 0.0012007523146166932 -9999.5140553443634 -3330.1876065409688 0.0032439414560731239 0.014172108491038671 0.0032439414560731239 -3330.1920416319499 0.00029421299313980853 0.014172108491038671 0.00029421299313980853 -9999.5035947822325 -3330.1886734325126 0.0093650514157044701 0.015484876585333041 0.0093650514157044701 -3330.191149803959 -0.015513419974013232 0.015484876585333041 -0.015513419974013232 -9999.5036385481144 -3330.2034217248565 0.0044017344802387282 0.028413129759428557 0.0044017344802387282 -3330.1931754474426 -0.00099079380379407667 0.028413129759428557 -0.00099079380379407667 -9999.5078320320754 -3330.1955845877128 0.010172561815327621 0.0018511683483666275 0.010172561815327621 -3330.2042936599573 -0.0087559233470528852 0.0018511683483666275 -0.0087559233470528852 -9999.5437777727639 -3330.211006994703 0.010066493612742006 -8.2275145359744783e-05 0.010066493612742006 -3330.2189371761269 0.014848126662400318 -8.2275145359744783e-05 0.014848126662400318 -9999.5908846921375 -3330.2104606588709 0.0081647143073433348 0.0013071621397102717 0.0081647143073433348 -3330.2058826664488 -0.0085749204863532213 0.0013071621397102717 -0.0085749204863532213 -9999.5478940421744 -3330.1887993626715 0.017106075537407839 0.0019289656527234911 0.017106075537407839 -3330.1903391465767 -0.0082091693693655543 0.0019289656527234911 -0.0082091693693655543 -9999.5385928381584 -3330.1943138893621 0.011884368278602286 0.0022702726851093757 0.011884368278602286 -3330.2038445611761 -0.0038222433868213557 0.0022702726851093757 -0.0038222433868213557 -9999.5433478234845 -3330.1825564252686 0.0083112955864361737 -0.0061535418681160081 0.0083112955864361737 -3330.2013097344134 0.0046015711250220193 -0.0061535418681160081 0.0046015711250220193 -9999.5397747507668 -3330.1927320915183 0.0066241081317137684 -0.014115869926172309 0.0066241081317137684 -3330.2203864536914 -0.009480714794335654 -0.014115869926172309 -0.009480714794335654 -9999.5656579779679 -3330.1946008496761 0.0056276693124983623 -0.01303349859881564 0.0056276693124983623 -3330.2176292618697 -0.0076662392129946966 -0.01303349859881564 -0.0076662392129946966 -9999.5654358695465 -3330.2171003662552 0.0026767036229757846 0.0089999643168994226 0.0026767036229757846 -3330.2395494473894 -0.0084314455234562047 0.0089999643168994226 -0.0084314455234562047 -9999.5998063660081 -3330.1874186516961 0.0085131462793170964 0.0046521789518010337 0.0085131462793170964 -3330.2029404178556 0.0043579211051110178 0.0046521789518010337 0.0043579211051110178 -9999.5413979782315 -3330.2090559826938 0.0072910977842437497 0.0015280435109161772 0.0072910977842437497 -3330.2284402995265 -0.020957292684897766 0.0015280435109161772 -0.020957292684897766 -9999.5950179831489 -3330.204698370746 0.0062174386926556746 -0.020186574292893056 0.0062174386926556746 -3330.2269251632752 -0.020467666203330737 -0.020186574292893056 -0.020467666203330737 -9999.5935497960963 -3330.2038607801533 0.0011479812629187069 -0.0093499663998954929 0.0011479812629187069 -3330.225713996073 -0.0089086907501041424 -0.0093499663998954929 -0.0089086907501041424 -9999.5697720357202 -3330.2127188752384 0.005466506891673658 -0.0031560149454890052 0.005466506891673658 -3330.2317085494105 -0.017272867433348438 -0.0031560149454890052 -0.017272867433348438 -9999.5734851978268 -3330.2089798094676 0.010204246543348571 -0.0033135403900814708 0.010204246543348571 -3330.2215566111081 -0.017386197385349078 -0.0033135403900814708 -0.017386197385349078 -9999.5700124468058 -3330.1743807060266 0.0050936032050687974 -0.03464596710546175 0.0050936032050687974 -3330.2114096955593 -0.015435378375514119 -0.03464596710546175 -0.015435378375514119 -9999.5304496287863 -3330.1975249815023 0.012733928443118089 -0.0031997436994970485 0.012733928443118089 -3330.1968061832104 -0.0096339983465441037 -0.0031997436994970485 -0.0096339983465441037 -9999.5504998686301 -3330.2029710493334 0.0095162191403289215 -0.003059077110265207 0.0095162191403289215 -3330.2113732171492 -0.0078259666734084021 -0.003059077110265207 -0.0078259666734084021 -9999.5555031440745 -3330.202313933878 0.0083567458323923205 0.0021653956537193153 0.0083567458323923205 -3330.1937042038298 -0.01147751766438887 0.0021653956537193153 -0.01147751766438887 -9999.5509216118808 -3330.1835732660875 0.016083106683381976 0.0018182643252657726 0.016083106683381976 -3330.1895421402205 -0.0077017638250254095 0.0018182643252657726 -0.0077017638250254095 -9999.5414361860167 -3330.2158012055352 0.0061247930162052211 -0.0098015812654921319 0.0061247930162052211 -3330.2095650868123 0.0014138031401671469 -0.0098015812654921319 0.0014138031401671469 -9999.5832484083949 -3330.2012687058905 0.0089216599008508646 -0.020575588419887936 0.0089216599008508646 -3330.1928345536126 -0.021609619325317908 -0.020575588419887936 -0.021609619325317908 -9999.5504428923305 -3330.2108569745233 0.0043982397323525727 -0.025439609958084475 0.0043982397323525727 -3330.2195117413594 -0.032479378915013513 -0.025439609958084475 -0.032479378915013513 -9999.5595092564254 -3330.2212803865114 0.0014044767815494519 -0.0312951072701253 0.0014044767815494519 -3330.2277809850275 -0.040584232825494837 -0.0312951072701253 -0.040584232825494837 -9999.5799751667364 -3330.2488612374564 -0.01029708904244403 -0.032632659631417482 -0.01029708904244403 -3330.2471073018551 0.014355408125993563 -0.032632659631417482 0.014355408125993563 -9999.5917019586777 -3330.2160047277102 0.002782624977486825 -0.030030698606424266 0.002782624977486825 -3330.2246729174803 -0.015757543481868197 -0.030030698606424266 -0.015757543481868197 -9999.5441714396875 -3330.2256182729452 0.0039583676535052126 -0.047725773885758827 0.0039583676535052126 -3330.2371021793679 -0.013539125282932218 -0.047725773885758827 -0.013539125282932218 -9999.5833899369318 -3330.2158097088432 0.0072231088068543444 -0.031241181362929638 0.0072231088068543444 -3330.2260307629222 -0.022929911072424147 -0.031241181362929638 -0.022929911072424147 -9999.5623771953906 -3330.2052816286123 0.0029169862459374855 -0.02877405950857792 0.0029169862459374855 -3330.2151922207595 -0.028560832282664705 -0.02877405950857792 -0.028560832282664705 -9999.5497931720674 -3330.1931098506193 0.009458665210572148 -0.026584453511532047 0.009458665210572148 -3330.1884946706214 -0.02366766096020001 -0.026584453511532047 -0.02366766096020001 -9999.5400758400356 -3330.1689644733815 0.0023114160930316485 -0.037248779610308702 0.0023114160930316485 -3330.2064436684705 -0.01192059725872241 -0.037248779610308702 -0.01192059725872241 -9999.5278540638537 -3330.1893109811353 0.0081887201309567281 -0.024688877092557959 0.0081887201309567281 -3330.2174928479726 -0.02338728939594148 -0.024688877092557959 -0.02338728939594148 -9999.5536180347262 -3330.0804567055329 -0.0046629078843363203 -0.095663870430144016 -0.0046629078843363203 -3330.1646052763299 -0.022119521818694921 -0.095663870430144016 -0.022119521818694921 -9999.4584925867894 -3330.1644707853084 0.026485169918509355 -0.057018600589799462 0.026485169918509355 -3330.2250544914968 -0.052523156042752817 -0.057018600589799462 -0.052523156042752817 -9999.5434012214646 -3330.106379870218 0.0087985562613754342 -0.090455470141023397 0.0087985562613754342 -3330.1897084765478 -0.029152831753890496 -0.090455470141023397 -0.029152831753890496 -9999.4712491780156 -3330.1949908537808 0.011884368278602384 -0.010819269990861358 0.011884368278602384 -3330.2045215255948 -0.011289903628494358 -0.010819269990861358 -0.011289903628494358 -9999.5453787167353 -3330.1996457126752 0.015239631226068084 -0.037515598061872879 0.015239631226068084 -3330.2306469296036 -0.02863176584651228 -0.037515598061872879 -0.02863176584651228 -9999.5530737824593 -3330.1867443989086 0.0081887201309567281 -0.036614784861740191 0.0081887201309567281 -3330.2149262657458 -0.029848204310383153 -0.036614784861740191 -0.029848204310383153 -9999.5459182880513 -3330.2242549687526 0.010120778267800556 0.012466417105315486 0.010120778267800556 -3330.1923078015934 -0.022162464045322849 0.012466417105315486 -0.022162464045322849 -9999.5501605948484 -3330.1197683268001 0.032224621445607671 0.019094476665486582 0.032224621445607671 -3330.1617952249817 -0.012479171181439597 0.019094476665486582 -0.012479171181439597 -9999.5074808969766 -3330.1896840392365 0.017106075537407839 -0.0024810714996874594 0.017106075537407839 -3330.1912238231416 -0.017026346951752203 -0.0024810714996874594 -0.017026346951752203 -9999.5412468678587 -3330.1938128964939 0.029452558153364811 -0.0021728748683926824 0.029452558153364811 -3330.2116406973637 -0.013064999304333469 -0.0021728748683926824 -0.013064999304333469 -9999.5473833007309 -3330.16945305027 0.025658994989677775 -0.033764380143111339 0.025658994989677775 -3330.1646262894646 -0.042760303447721526 -0.033764380143111339 -0.042760303447721526 -9999.5295397371956 -3330.161289898846 0.033157797588288962 -0.044451627431044471 0.033157797588288962 -3330.1484005570837 -0.052199373563780682 -0.044451627431044471 -0.052199373563780682 -9999.5073536555683 -3330.1986728703469 0.0094586652105722036 -0.022707802740114857 0.0094586652105722036 -3330.1940576903471 -0.028864089686976513 -0.022707802740114857 -0.028864089686976513 -9999.5567648992146 -3330.1917168077944 0.014936751992048391 -0.057494073550515168 0.014936751992048391 -3330.2246070370347 -0.095789686589341727 -0.057494073550515168 -0.095789686589341727 -9999.550100863471 -3330.1919632602239 0.018949370022627532 -0.062240128552730312 0.018949370022627532 -3330.2360932949377 -0.091951814753372219 -0.062240128552730312 -0.091951814753372219 -9999.5369451803745 -3330.1586118380055 0.0029169862459376243 -0.042362974152638344 0.0029169862459376243 -3330.1685224301527 -0.032468363236830555 -0.042362974152638344 -0.032468363236830555 -9999.4097838002635 -3330.193664329614 -0.0097255564489546753 -0.045069366657116916 -0.0097255564489546753 -3330.1836262671841 -0.025192401102685835 -0.045069366657116916 -0.025192401102685835 -9999.4223228824267 -3330.231517871649 0.010471661571590296 -0.093194511249748757 0.010471661571590296 -3330.2171254547575 -0.022291893450187672 -0.093194511249748757 -0.022291893450187672 -9999.5093879229244 -3330.219496953081 0.030400091103559047 -0.084964858198873117 0.030400091103559047 -3330.2438877557815 -0.050572390016895952 -0.084964858198873117 -0.050572390016895952 -9999.5618660794826 -3330.1662429711469 0.0072231088068543444 -0.04587676772098348 0.0072231088068543444 -3330.1764640252259 -0.026684609769290546 -0.04587676772098348 -0.026684609769290546 -9999.4136769823162 -3330.2977595294078 0.082847649207961588 -0.23548313818082534 0.082847649207961588 -3330.2764794196983 -0.03537249716646329 -0.23548313818082534 -0.03537249716646329 -9999.5786443784746 -3330.188387352162 -0.0077243539379269199 -0.094844878616640926 -0.0077243539379269199 -3330.1887166715569 -0.084511874038071255 -0.094844878616640926 -0.084511874038071255 -9999.3057862199239 -3330.1256930777745 0.030400091103558936 -0.092725771806726698 0.030400091103558936 -3330.1500838804741 -0.080595419505698374 -0.092725771806726698 -0.080595419505698374 -9999.2804544535538 -3330.2425284063738 0.0066598314972545619 -0.088993484256207012 0.0066598314972545619 -3330.2637303125357 -0.15198157673057722 -0.088993484256207012 -0.15198157673057722 -9999.6466241372764 -3330.2378068115604 0.033157797588289073 -0.055986871071581845 0.033157797588289073 -3330.2249174697972 -0.073230033409345197 -0.055986871071581845 -0.073230033409345197 -9999.7369043937106 -3330.2025906901063 0.032160988677331387 -0.13601109994942817 0.032160988677331387 -3330.2123238610138 -0.25705310524244851 -0.13601109994942817 -0.25705310524244851 -9999.6237880953267 -3330.1045949291865 0.018949370022627622 -0.07033726690315234 0.018949370022627622 -3330.1487249639013 -0.1174472123861392 -0.07033726690315234 -0.1174472123861392 -9999.2748401872668 -3330.2581133843214 0.010143515750617102 0.0083631863508344395 0.010143515750617102 -3330.3475637264028 0.030713402988112648 0.0083631863508344395 0.030713402988112648 -9999.6714787352284 -3330.2087550685001 0.043369498171664411 0.0035642213507571796 0.043369498171664411 -3330.2181170313443 -0.03096919502968376 0.0035642213507571796 -0.03096919502968376 -9999.6267774825101 -3330.0920280633763 0.093446329317019683 0.042851083591813222 0.093446329317019683 -3330.1170375905604 0.0059083094524794433 0.042851083591813222 0.0059083094524794433 -9999.5379156647869 -3330.1364776547889 0.043276185751078611 0.10465202248269634 0.043276185751078611 -3330.2018318079654 -0.06570404561534815 0.10465202248269634 -0.06570404561534815 -9999.6046368232383 -3330.1487535705501 0.010319629463588109 -0.041356081139383605 0.010319629463588109 -3330.3974473631433 -0.056989739078289858 -0.041356081139383605 -0.056989739078289858 -9999.7185654454988 -3330.2357993288633 0.038878010620841105 0.016875157332833624 0.038878010620841105 -3330.2469495284113 1.4886572898831218e-05 0.016875157332833624 1.4886572898831218e-05 -9999.7027024263989 -3329.9011980314381 0.017589480646844815 -0.227876911911153 0.017589480646844815 -3330.1338454315719 -0.035903443673305446 -0.227876911911153 -0.035903443673305446 -9999.4438455069503 -3330.2188689092345 0.026485169918509133 -0.048656628689059289 0.026485169918509133 -3330.2794526154239 -0.04713123922192608 -0.048656628689059289 -0.04713123922192608 -9999.7065955932449 -3330.2417952258729 -0.0089434020634449399 0.074873676510151199 -0.0089434020634449399 -3330.2325627864093 0.047229269312083488 0.074873676510151199 0.047229269312083488 -9999.6616908720716 -3330.2062085794105 0.01848476150705225 0.020499369937169831 0.01848476150705225 -3330.2582356404046 0.020085082617697481 0.020499369937169831 0.020085082617697481 -9999.6592124239542 -3330.3597860201635 -0.068953178412933594 0.097128643044925411 -0.068953178412933594 -3330.2956255358886 0.081463837204410083 0.097128643044925411 0.081463837204410083 -9999.620995112542 -3330.1572084927775 0.052683323900681714 0.033959005422730115 0.052683323900681714 -3330.3807616155545 -0.017068961431505159 0.033959005422730115 -0.017068961431505159 -9999.7165077391619 -3330.1902053456697 0.027926600862338183 0.03719817912678991 0.027926600862338183 -3330.2176067979526 0.048078785586767481 0.03719817912678991 0.048078785586767481 -9999.6450544049076 -3330.2072422312103 -0.010387229352333008 0.048736815433585434 -0.010387229352333008 -3330.2030807196052 0.037691450511374569 0.048736815433585434 0.037691450511374569 -9999.5597229612322 -3329.9668564635394 0.14966245580398796 0.17453397687495453 0.14966245580398796 -3330.2203535934223 0.1843859882610559 0.17453397687495453 0.1843859882610559 -9999.3827767342773 -3330.1942209292392 0.0032439414560731239 0.013793833104500663 0.0032439414560731239 -3330.1986560202204 -0.00098721062840922968 0.013793833104500663 -0.00098721062840922968 -9999.5234379470457 -3330.1794146609536 -0.0089434020634447178 0.029254422997155416 -0.0089434020634447178 -3330.1701822214891 -0.01812965217504825 0.029254422997155416 -0.01812965217504825 -9999.4745491773137 -3330.1642154365654 -0.010387229352333022 0.046542280962967197 -0.010387229352333022 -3330.1600539249612 -0.019021608289222058 0.046542280962967197 -0.019021608289222058 -9999.4306425773029 -3330.2174414636902 -0.018817797312342094 0.017469473865276086 -0.018817797312342094 -3330.1775803256278 -0.028789620525913051 0.017469473865276086 -0.028789620525913051 -9999.4859054040353 -3330.1809997738783 0.0066241081317137684 -0.026120050340978196 0.0066241081317137684 -3330.2086541360495 -0.013732643998082494 -0.026120050340978196 -0.013732643998082494 -9999.530461025035 -3330.1916898188847 0.0045436602645725355 0.0061963412590557709 0.0045436602645725355 -3330.2012520335866 -0.0022098391418694519 0.0061963412590557709 -0.0022098391418694519 -9999.5312830106668 -3330.1671682805645 0.018484761507052694 -0.022104308041889453 0.018484761507052694 -3330.2191953415586 -0.026782037146404036 -0.022104308041889453 -0.026782037146404036 -9999.5420915274226 -3330.1782521599525 0.0083112955864361737 -0.018908788420958444 0.0083112955864361737 -3330.1970054690955 -0.0016437625727121485 -0.018908788420958444 -0.0016437625727121485 -9999.5268619548115 -3330.1430522819428 0.027926600862338169 0.0050401107891957508 0.027926600862338169 -3330.1704537342266 0.0059304753631295171 0.0050401107891957508 0.0059304753631295171 -9999.5035952137223 -3330.1835480928712 0.009584847966165988 -0.012099346202376182 0.009584847966165988 -3330.2067662051213 -0.010009827426983975 -0.012099346202376182 -0.010009827426983975 -9999.5430791963881 -3330.1379100606664 0.02365972533531939 0.021042656022473238 0.02365972533531939 -3330.168485379847 0.0055696460804028902 0.021042656022473238 0.0055696460804028902 -9999.5018175698024 -3330.170818769353 0.043369498171664467 0.0094307528280523911 0.043369498171664467 -3330.180180732199 -0.010215211197646568 0.0094307528280523911 -0.010215211197646568 -9999.5129685850661 -3330.1730807279055 0.038878010620840925 0.010279289548634551 0.038878010620840925 -3330.1842309274543 0.0006912966364325257 0.010279289548634551 0.0006912966364325257 -9999.5145466235153 -3330.2227006618978 0.016830834298480091 0.023995236317205126 0.016830834298480091 -3330.2264926918688 -0.0016482347059536551 0.023995236317205126 -0.0016482347059536551 -9999.5375170481166 -3330.2455891071841 -0.041120934994598013 0.047475606668740511 -0.041120934994598013 -3330.2187469235614 -0.037547121217357926 0.047475606668740511 -0.037547121217357926 -9999.4656592446045 -3330.1829338498246 0.0093650514157044701 0.02413928958071665 0.0093650514157044701 -3330.185410221271 -0.023623648296052124 0.02413928958071665 -0.023623648296052124 -9999.4864198000578 -3330.1676357102897 -0.0072106839631073949 0.048029122882553565 -0.0072106839631073949 -3330.1683524481359 -0.036925342785252724 0.048029122882553565 -0.036925342785252724 -9999.4335722765245 -3330.2089709700795 0.023832779935538881 0.013560399771222365 0.023832779935538881 -3330.2297695161324 0.001823665457777679 0.013560399771222365 0.001823665457777679 -9999.5349038312306 -3330.1368004511041 0.27772851365724227 0.12362203363591107 0.27772851365724227 -3329.9124678720891 0.19421090807190922 0.12362203363591107 0.19421090807190922 -9999.2008490193002 -3330.1780923727529 -0.037558363736743053 0.046052497795244562 -0.037558363736743053 -3330.1324219767184 0.070014530459047819 0.046052497795244562 0.070014530459047819 -9999.5347708108966 -3330.1773354213783 -0.0072106839631073325 0.0314942387760766 -0.0072106839631073325 -3330.1780521592236 0.036732794975250727 0.0314942387760766 0.036732794975250727 -9999.4626714097867 -3330.3628951017463 0.051046055567576853 0.11110434288229953 0.051046055567576853 -3330.188339693349 0.046055566856011865 0.11110434288229953 0.046055566856011865 -9999.6234579500742 -3330.2021429838787 0.016830834298480091 0.0076894427347724559 0.016830834298480091 -3330.2059350138497 0.044653175421899505 0.0076894427347724559 0.044653175421899505 -9999.4758440140686 -3330.3954211910723 0.076674535285214729 0.093813361628235725 0.076674535285214729 -3330.4001576274595 -0.012106649810448289 0.093813361628235725 -0.012106649810448289 -9999.6845439559329 -3330.2118515067023 0.0030914781862514396 0.016303809848977835 0.0030914781862514396 -3330.1999352940766 0.073629592606721417 0.016303809848977835 0.073629592606721417 -9999.4767712148314 -3330.1794063360521 -0.01986901521449469 -0.033165608571835037 -0.01986901521449469 -3330.2012953697131 0.064665429514207062 -0.033165608571835037 0.064665429514207062 -9999.4689999410803 -3330.1878331676116 -0.013465757394615308 -0.0012213954760227352 -0.013465757394615308 -3330.1935684823338 -1.7485199350630865e-05 -0.0012213954760227352 -1.7485199350630865e-05 -9999.469174927126 -3330.4914188191688 -0.01716778435581745 -0.11773922373686219 -0.01716778435581745 -3329.836964756807 0.211702059754316 -0.11773922373686219 0.211702059754316 -9999.4040289026307 -3330.2016971091853 -0.016237119191347349 0.0065753814342315309 -0.016237119191347349 -3330.2541569041568 -0.022814865675172769 0.0065753814342315309 -0.022814865675172769 -9999.5208526736242 -3330.2010590298742 -0.013465757394615308 0.030237011220378918 -0.013465757394615308 -3330.2067943445963 -0.070726616602769354 0.030237011220378918 -0.070726616602769354 -9999.5088525139072 -3330.2020230152793 0.0029651957666561035 0.021792467287014006 0.0029651957666561035 -3330.1879063483029 -0.026259891754307318 0.021792467287014006 -0.026259891754307318 -9999.4918161231799 -3330.197815075504 0.00049402756240812806 0.0077882497571408749 0.00049402756240812806 -3330.1810700402602 0.0020968439594071242 0.0077882497571408749 0.0020968439594071242 -9999.4890550612254 -3330.1971489381012 -0.0011346172489976603 0.014053349737878307 -0.0011346172489976603 -3330.1816633493308 0.0032321186408807989 0.014053349737878307 0.0032321186408807989 -9999.4890368541419 -3330.1906708874467 0.0081647143073433348 0.0076959174803050701 0.0081647143073433348 -3330.1860928950227 -0.01815257588714303 0.0076959174803050701 -0.01815257588714303 -9999.4885247279017 -3330.2305230539969 0.0025092151703517418 0.037601313074446807 0.0025092151703517418 -3330.1970695444797 -0.011439387573773274 0.037601313074446807 -0.011439387573773274 -9999.5439881586499 -3330.2400231541687 -0.0018722809860183265 0.041148799729853636 -0.0018722809860183265 -3330.220530016255 0.00049340469558956102 0.041148799729853636 0.00049340469558956102 -9999.5522283016398 -3330.2097935225047 0.0030914781862514396 0.050631873918973724 0.0030914781862514396 -3330.1978773098781 0.015433083309744688 0.050631873918973724 0.015433083309744688 -9999.4705972622396 -3330.1773483518573 -0.019869015214494801 0.0011624554990703473 -0.019869015214494801 -3330.1992373855173 0.0064689202154113445 0.0011624554990703473 0.0064689202154113445 -9999.4628259884885 -3330.1824449632149 -0.0049164233792104994 0.043393210122303572 -0.0049164233792104994 -3330.1931942629471 0.022671747110507567 0.043393210122303572 0.022671747110507567 -9999.4625893606863 -3330.2403327879474 -0.21931907692882247 -0.07327243240615644 -0.21931907692882247 -3329.9267467072495 0.21269115009090456 -0.07327243240615644 0.21269115009090456 -9999.2605422552479 -3329.8254091101562 0.11342090942165539 0.12125942076454521 0.11342090942165539 -3330.0118290715691 0.026389836360976915 0.12125942076454521 0.026389836360976915 -9999.444958796732 -3330.2409857799312 -0.0088085538068021219 0.069252175061592425 -0.0088085538068021219 -3330.212660682173 0.012454536776203895 0.069252175061592425 0.012454536776203895 -9999.5990608668289 -3330.1875843013222 0.010935266110291053 -0.0093946401684661396 0.010935266110291053 -3330.2118254376519 -0.030148738849675283 -0.0093946401684661396 -0.030148738849675283 -9999.6808745672461 -3330.2245741651532 -0.010420841821292992 0.0029832545951649081 -0.010420841821292992 -3330.2080249252949 -0.008709596160485944 0.0029832545951649081 -0.008709596160485944 -9999.6891719051164 -3330.2164005812874 0.024325927948725568 0.0066262824111618102 0.024325927948725568 -3330.2330637174155 -0.045333138778005377 0.0066262824111618102 -0.045333138778005377 -9999.7335893980489 -3330.1994064955206 0.013393786463519963 0.0036678306223620893 0.013393786463519963 -3330.2274992380926 -0.039626149075047579 0.0036678306223620893 -0.039626149075047579 -9999.7279497567761 -3330.2108414262921 0.025294995868457182 -0.076571193756535649 0.025294995868457182 -3330.1902900777941 -0.098870232752688025 -0.076571193756535649 -0.098870232752688025 -9999.6874223894119 -3330.1949731269115 -0.0011804203662333368 -0.066318357759882929 -0.0011804203662333368 -3330.2972493451534 -0.052452059047936928 -0.066318357759882929 -0.052452059047936928 -9999.7442789413872 -3330.2268186065303 0.014796577354795115 -0.047685765073765651 0.014796577354795115 -3330.227613276872 -0.058853795380855445 -0.047685765073765651 -0.058853795380855445 -9999.7007474842394 -3330.0769919537033 0.059969732163864142 -0.056090048143232707 0.059969732163864142 -3330.1895430660043 -0.038282267221802613 -0.056090048143232707 -0.038282267221802613 -9999.6878570782974 -3329.8831060831862 -0.38817813627139719 -0.23648311052784265 -0.38817813627139719 -3330.0613439646186 0.10714295338220836 -0.23648311052784265 0.10714295338220836 -9999.4194402583671 -3330.250835080511 0.0042374571086134516 -0.02475501004664693 0.0042374571086134516 -3330.2002244921687 -0.021280425167788053 -0.02475501004664693 -0.021280425167788053 -9999.6937870256734 -3330.2341241691156 0.015298254882672335 -0.043571304562647128 0.015298254882672335 -3330.1660894974748 -0.065192831323201972 -0.043571304562647128 -0.065192831323201972 -9999.687192930036 -3330.1640392626323 0.054349045800072937 -0.033789331420848612 0.054349045800072937 -3330.0225639771261 -0.036928328936483013 -0.033789331420848612 -0.036928328936483013 -9999.6276729424426 -3330.1998445963036 -0.007387436826761129 0.006290773478212941 -0.007387436826761129 -3330.1954918004394 5.2279341616667807e-05 0.006290773478212941 5.2279341616667807e-05 -9999.5539551670445 -3330.1845034802809 0.015298254882672335 0.016614728443528293 0.015298254882672335 -3330.1164688086392 0.00115270312062421 0.016614728443528293 0.00115270312062421 -9999.5383308635246 -3330.1671076042931 0.011513274461838474 6.9857385824434459e-05 0.011513274461838474 -3330.1776625953098 -0.010722663493652362 6.9857385824434459e-05 -0.010722663493652362 -9999.5413136177558 -3330.1831698577371 0.0011854311514274407 -0.0029580424961750396 0.0011854311514274407 -3330.1860642574102 -0.0081449954941490432 -0.0029580424961750396 -0.0081449954941490432 -9999.5428643571977 -3330.2036613440268 0.0042374571086136736 0.028302125030677416 0.0042374571086136736 -3330.1530507556854 0.021395867992396234 0.028302125030677416 0.021395867992396234 -9999.5522658162226 -3330.217982196611 0.026724900762930659 0.019144216883432819 0.026724900762930659 -3330.1837685526607 0.013761513562712935 0.019144216883432819 0.013761513562712935 -9999.5429464837034 -3330.1998823976155 0.0028896587502826865 -0.0086283748260029824 0.0028896587502826865 -3330.1904986699592 -0.012999702448723838 -0.0086283748260029824 -0.012999702448723838 -9999.5561775259303 -3330.1932737281459 0.0064053237002861252 -0.021635942761349725 0.0064053237002861252 -3330.1835389433236 -0.031019740632473258 -0.021635942761349725 -0.031019740632473258 -9999.5527854269058 -3330.1479580375708 0.025294995868456738 -0.041574996732379077 0.025294995868456738 -3330.1274066890728 -0.057984655083146208 -0.041574996732379077 -0.057984655083146208 -9999.4987722232436 -3330.1879109047532 0.004787008461480724 -0.017436285012081498 0.004787008461480724 -3330.1823138305353 -0.036754931712948746 -0.017436285012081498 -0.036754931712948746 -9999.5431120122339 -3330.1890614481381 0.0040482916736941377 -3.5133387427777052e-05 0.0040482916736941377 -3330.1848242221622 -0.012648241030547069 -3.5133387427777052e-05 -0.012648241030547069 -9999.5440272459855 -3330.1740112283205 0.014796577354795115 -0.0008523268570570508 0.014796577354795115 -3330.1748058986614 -0.0093018796324031428 -0.0008523268570570508 -0.0093018796324031428 -9999.5423253496047 -3330.1904548251987 0.011646343138102422 0.007251619768794626 0.011646343138102422 -3330.1900877963017 -0.015515858418439166 0.007251619768794626 -0.015515858418439166 -9999.5537179144158 -3330.1427472555515 0.024325927948725345 0.034862437292758841 0.024325927948725345 -3330.1594103916796 -0.017897211246236111 0.034862437292758841 -0.017897211246236111 -9999.5126294208421 -3330.1818201435435 0.0062120789781445751 0.0061191941731522093 0.0062120789781445751 -3330.1846853192928 -0.013331357302377 0.0061191941731522093 -0.013331357302377 -9999.5502086247434 -3330.1257531697865 0.013393786463520074 0.031903985518511035 0.013393786463520074 -3330.1538459123585 -0.012190221546916291 0.031903985518511035 -0.012190221546916291 -9999.5069897795693 -3330.1603247724033 0.017823109455224362 0.013563475651608314 0.017823109455224362 -3330.1704314324743 -0.0096260734537736425 0.013563475651608314 -0.0096260734537736425 -9999.5378101190763 -3330.2022629808907 -0.0063899265628997171 0.015936149793560617 -0.0063899265628997171 -3330.1972195388989 -0.0055164812702059862 0.015936149793560617 -0.0055164812702059862 -9999.5549916978052 -3330.1321789668782 0.010935266110291053 0.046190288700017845 0.010935266110291053 -3330.156420103207 -0.0018535432791395579 0.046190288700017845 -0.0018535432791395579 -9999.514658563905 -3330.1637345648396 -0.0085347822419489239 0.036950098457964486 -0.0085347822419489239 -3330.1831861638366 -0.0034500975234550424 0.036950098457964486 -0.0034500975234550424 -9999.5238201912034 -3330.2237295979667 -0.0088085538068020108 0.079607787986333278 -0.0088085538068020108 -3330.1954045002094 0.0071006487360136816 0.079607787986333278 0.0071006487360136816 -9999.5472923209309 -3330.2027079008094 -0.005804395322764444 0.03116274083731696 -0.005804395322764444 -3330.1916302557329 -0.0050008153302769642 0.03116274083731696 -0.0050008153302769642 -9999.5356745481695 -3330.1938650783104 -0.0063899265628997171 0.0040513816347811371 -0.0063899265628997171 -3330.1888216363186 -0.0024726012497922056 0.0040513816347811371 -0.0024726012497922056 -9999.5297979900643 -3330.2015224217575 -0.005804395322764444 0.014414302608201979 -0.005804395322764444 -3330.190444776681 0.00030413508102355991 0.014414302608201979 0.00030413508102355991 -9999.5321181110194 -3330.177650173704 0.0062120789781449082 0.0063964205182855949 0.0062120789781449082 -3330.1805153494533 -0.0074794797437789384 0.0063964205182855949 -0.0074794797437789384 -9999.5376987152267 -3330.1862848553592 0.011646343138102422 0.0075288461048330646 0.011646343138102422 -3330.1859178264622 -0.0096639808562031249 0.0075288461048330646 -0.0096639808562031249 -9999.5412080048918 -3330.1855584572768 0.004787008461480724 -0.022402200713258935 0.004787008461480724 -3330.179961383059 -0.032078719691071456 -0.022402200713258935 -0.032078719691071456 -9999.5360546698139 -3330.1949887840419 0.0040482916736945818 -0.0032043831015471369 0.0040482916736945818 -3330.190751558066 -0.0070320074846677016 -0.0032043831015471369 -0.0070320074846677016 -9999.5618092537043 -3330.1818012314343 0.0011854311514274407 -0.010581787602859549 0.0011854311514274407 -3330.1846956311074 -0.0050433993765182095 -0.010581787602859549 -0.0050433993765182095 -9999.538758478302 -3330.196649874224 -0.007387436826761129 -0.0063407913230548729 -0.007387436826761129 -3330.1922970783598 0.0023022217246762011 -0.0063407913230548729 0.0023022217246762011 -9999.5443710008112 -3330.2144108334687 0.0020255008984019218 -0.011463122526038205 0.0020255008984019218 -3330.1945148229897 -0.031631216377718374 -0.011463122526038205 -0.031631216377718374 -9999.5919009468271 -3330.1986030836979 0.0055413354214282062 0.001181461222586222 0.0055413354214282062 -3330.1848108236518 -0.013789157012070064 0.001181461222586222 -0.013789157012070064 -9999.561227645012 -3330.2092964191033 -0.00063246470347655404 -0.0017733245949784759 -0.00063246470347655404 -3330.1893665233056 -0.018906996225268813 -0.0017733245949784759 -0.018906996225268813 -9999.5650399037768 -3330.1939764620092 -0.0079024368928841682 -0.012980509032786358 -0.0079024368928841682 -3330.1862018915781 0.0073607654067018302 -0.012980509032786358 0.0073607654067018302 -9999.5291708998047 -3330.2202645813195 0.0055506016050309581 -0.02283844466728624 0.0055506016050309581 -3330.2066766970129 -0.014105570964602521 -0.02283844466728624 -0.014105570964602521 -9999.5964048522947 -3330.1995262424643 0.0039920578592506084 -0.0086815561044204514 0.0039920578592506084 -3330.1962740788022 -0.014990691975981463 -0.0086815561044204514 -0.014990691975981463 -9999.5758569156242 -3330.2195932290106 0.0055286382419379443 -0.011685620003845543 0.0055286382419379443 -3330.2098571353836 0.0013449980610857892 -0.011685620003845543 0.0013449980610857892 -9999.5970321238128 -3330.2068198810157 0.00059607995685806436 -0.0045148977551434655 0.00059607995685806436 -3330.1989913477955 -0.0092184105669730343 -0.0045148977551434655 -0.0092184105669730343 -9999.5783596425099 -3330.1977626305179 0.0068428736927874656 -0.0088290593339479528 0.0068428736927874656 -3330.1918425459316 -0.0069055153774115752 -0.0088290593339479528 -0.0069055153774115752 -9999.562775462291 -3330.2023854123727 0.006837264735488624 -0.013200788478570757 0.006837264735488624 -3330.1973965059406 -0.014889059946995076 -0.013200788478570757 -0.014889059946995076 -9999.5768523148872 -3330.2071472504631 0.0096741265787940733 -0.019428545496339211 0.0096741265787940733 -3330.2037998165397 -0.0028754298964486225 -0.019428545496339211 -0.0028754298964486225 -9999.579643602061 -3330.2039167594812 0.0020895538322387441 0.0079316218943858985 0.0020895538322387441 -3330.1900356343576 -0.008356745664968912 0.0079316218943858985 -0.008356745664968912 -9999.5466454328998 -3330.1825260619044 0.0033969836055214309 0.0055162753869808512 0.0033969836055214309 -3330.1833469092089 -0.0090039358256035484 0.0055162753869808512 -0.0090039358256035484 -9999.5396255772139 -3330.2050770688293 0.002619880752902759 -0.012261919289812795 0.002619880752902759 -3330.1949997508782 -0.012851403247623239 -0.012261919289812795 -0.012851403247623239 -9999.565393373101 -3330.1969351590524 -0.0046010789867706459 0.0079259321082645329 -0.0046010789867706459 -3330.1834417955142 0.0080687590416346211 0.0079259321082645329 0.0080687590416346211 -9999.5087161635311 -3330.2048641951405 -0.0011346172489976603 0.0048171083853958407 -0.0011346172489976603 -3330.1893786063738 0.011177582768141292 0.0048171083853958407 0.011177582768141292 -9999.5121826252653 -3330.2055303325433 0.00049402756240812806 -0.0014479915953415912 0.00049402756240812806 -3330.1887852973014 0.010042308086667617 -0.0014479915953415912 0.010042308086667617 -9999.5122008323451 -3330.2114674638251 0.0054578518104559937 0.0044188907595525961 0.0054578518104559937 -3330.1959581219235 -0.0048440145274071256 0.0044188907595525961 -0.0048440145274071256 -9999.5500137308773 -3330.2198749359741 0.0036046703730835405 0.016791154583188472 0.0036046703730835405 -3330.2083309760237 -0.019175244196958374 0.016791154583188472 -0.019175244196958374 -9999.5904501274345 -3330.214247210828 0.0056515699929676755 0.0039404096460202709 0.0056515699929676755 -3330.2075988578727 -0.0064534964858466992 0.0039404096460202709 -0.0064534964858466992 -9999.5536188516126 -3330.2192375961549 0.0075270784696735982 0.024476685906847706 0.0075270784696735982 -3330.2185003104441 0.0066768188899004599 0.024476685906847706 0.0066768188899004599 -9999.5928331260802 -3330.2193126126058 0.0079173275363626505 -0.026841701153898612 0.0079173275363626505 -3330.2167381422678 -0.015211397643724922 -0.026841701153898612 -0.015211397643724922 -9999.5924113381479 -3330.2156768225523 0.0061221153732835543 -0.021460933814523742 0.0061221153732835543 -3330.2058255596676 -0.026106758055902901 -0.021460933814523742 -0.026106758055902901 -9999.588774244985 -3330.2131348013354 -0.00030998537881377075 0.0028453130507841706 -0.00030998537881377075 -3330.1960997978931 0.0006595241793547757 0.0028453130507841706 0.0006595241793547757 -9999.5382120667637 -3330.2186508691466 0.0029651957666561035 0.012019638717902126 0.0029651957666561035 -3330.204534202172 -0.017917302946443669 0.012019638717902126 -0.017917302946443669 -9999.5416996847853 
</DataArray>
</CellData>
</Piece>
</UnstructuredGrid>
</VTKFile>
