<?xml version="1.0"?>
<VTKFile type="UnstructuredGrid" version="0.1" byte_order="LittleEndian">
<UnstructuredGrid>
<Piece NumberOfPoints="2160" NumberOfCells="540">
<Points>
<DataArray type="Float64" NumberOfComponents="3" format="ascii">
-4.3301270160527148 -2.500000004970083 -12 -5 -1.397247784140632e-08 -12 -2.9547160992544761 -1.820741508163664 -12 -2.9547160992544761 -1.820741508163664 -15 -2.5000000000000022 -4.3301270189221919 -12 -4.3301270160527148 -2.500000004970083 -12 -2.9547160992544761 -1.820741508163664 -12 -2.9547160992544761 -1.820741508163664 -15 -4.3301270160527148 -2.500000004970083 -15 -2.5000000000000022 -4.3301270189221919 -12 -2.9547160992544761 -1.820741508163664 -15 -4.3301270160527148 -2.500000004970083 -12 -5 -1.397247784140632e-08 -15 -4.3301270160527148 -2.500000004970083 -15 -2.9547160992544761 -1.820741508163664 -15 -4.3301270160527148 -2.500000004970083 -12 -0.66987297914647026 -2.499999999706382 -15 -2.2735805010731909 0.22641949675281539 -12 -2.9547160992544761 -1.820741508163664 -15 -0.66987297914647026 -2.499999999706382 -12 -2.5000000000000022 -4.3301270189221919 -12 -0.66987297914647026 -2.499999999706382 -12 -0.66987297914647026 -2.499999999706382 -15 -2.9547160992544761 -1.820741508163664 -15 -2.2735805010731909 0.22641949675281539 -12 -0.66987297914647026 -2.499999999706382 -12 -2.9547160992544761 -1.820741508163664 -12 -2.9547160992544761 -1.820741508163664 -15 -0.66987297914647026 -2.499999999706382 -12 -2.5000000000000022 -4.3301270189221919 -12 -2.9547160992544761 -1.820741508163664 -12 -2.9547160992544761 -1.820741508163664 -15 -2.5000000000000022 -4.3301270189221919 -15 6.9142305214597846e-09 -5 -12 -0.66987297914647026 -2.499999999706382 -15 -2.5000000000000022 -4.3301270189221919 -12 -2.5000000000000022 -4.3301270189221919 -15 -0.66987297914647026 -2.499999999706382 -15 -2.9547160992544761 -1.820741508163664 -15 -2.5000000000000022 -4.3301270189221919 -12 -4.3301270160527148 -2.500000004970083 -15 -2.5000000000000022 -4.3301270189221919 -15 -2.9547160992544761 -1.820741508163664 -15 -2.5000000000000022 -4.3301270189221919 -12 -2.5000000000000022 -4.3301270189221919 -15 6.9142305214597846e-09 -5 -15 -0.66987297914647026 -2.499999999706382 -15 6.9142305214597846e-09 -5 -12 -0.66987297914647026 -2.499999999706382 -15 6.9142305214597846e-09 -5 -15 0.91506351643986317 -3.4150635091400758 -15 6.9142305214597846e-09 -5 -12 -0.66987297914647026 -2.499999999706382 -15 6.9142305214597846e-09 -5 -12 0.91506351643986317 -3.4150635091400758 -15 -0.66987297914647026 -2.499999999706382 -12 0.20080558631870429 0.033909897404034287 -15 -0.66987297914647026 -2.499999999706382 -15 0.95458002071209891 -1.657898275923388 -15 -0.66987297914647026 -2.499999999706382 -12 0.95458002071209891 -1.657898275923388 -15 -0.66987297914647026 -2.499999999706382 -15 0.91506351643986317 -3.4150635091400758 -15 -0.66987297914647026 -2.499999999706382 -12 0.95458002071209891 -1.657898275923388 -15 -0.66987297914647026 -2.499999999706382 -12 0.91506351643986317 -3.4150635091400758 -15 0.91506351643986317 -3.4150635091400758 -12 2.3883545080289421 -0.94497882694672608 -12 0.95458002071209891 -1.657898275923388 -12 0.95458002071209891 -1.657898275923388 -15 2.217625015551433 -2.5696135239339939 -15 2.3883545080289421 -0.94497882694672608 -15 0.95458002071209891 -1.657898275923388 -15 2.217625015551433 -2.5696135239339939 -15 2.3883545080289421 -0.94497882694672608 -12 0.95458002071209891 -1.657898275923388 -15 0.91506351643986317 -3.4150635091400758 -12 2.217625015551433 -2.5696135239339939 -15 0.95458002071209891 -1.657898275923388 -12 0.95458002071209891 -1.657898275923388 -15 0.91506351643986317 -3.4150635091400758 -15 2.217625015551433 -2.5696135239339939 -15 0.91506351643986317 -3.4150635091400758 -12 0.91506351643986317 -3.4150635091400758 -15 2.500000010727558 -4.3301270127286351 -15 2.217625015551433 -2.5696135239339939 -15 2.500000010727558 -4.3301270127286351 -12 6.9142305214597846e-09 -5 -15 2.500000010727558 -4.3301270127286351 -12 0.91506351643986317 -3.4150635091400758 -15 6.9142305214597846e-09 -5 -12 6.9142305214597846e-09 -5 -15 2.500000010727558 -4.3301270127286351 -15 0.91506351643986317 -3.4150635091400758 -15 2.500000010727558 -4.3301270127286351 -12 0.91506351643986317 -3.4150635091400758 -15 2.500000010727558 -4.3301270127286351 -12 2.217625015551433 -2.5696135239339939 -15 0.91506351643986317 -3.4150635091400758 -12 2.500000010727558 -4.3301270127286351 -12 6.9142305214597846e-09 -5 -12 0.91506351643986317 -3.4150635091400758 -12 0.91506351643986317 -3.4150635091400758 -15 2.500000010727558 -4.3301270127286351 -12 0.91506351643986317 -3.4150635091400758 -12 2.217625015551433 -2.5696135239339939 -12 2.217625015551433 -2.5696135239339939 -15 0.95458002071209891 -1.657898275923388 -12 2.3883545080289421 -0.94497882694672608 -12 2.217625015551433 -2.5696135239339939 -12 2.217625015551433 -2.5696135239339939 -15 0.91506351643986317 -3.4150635091400758 -12 0.95458002071209891 -1.657898275923388 -12 2.217625015551433 -2.5696135239339939 -12 2.217625015551433 -2.5696135239339939 -15 -0.66987297914647026 -2.499999999706382 -12 0.95458002071209891 -1.657898275923388 -12 0.91506351643986317 -3.4150635091400758 -12 0.95458002071209891 -1.657898275923388 -15 -0.66987297914647026 -2.499999999706382 -12 0.20080558631870429 0.033909897404034287 -12 0.95458002071209891 -1.657898275923388 -12 0.95458002071209891 -1.657898275923388 -15 6.9142305214597846e-09 -5 -12 -0.66987297914647026 -2.499999999706382 -12 0.91506351643986317 -3.4150635091400758 -12 0.91506351643986317 -3.4150635091400758 -15 6.9142305214597846e-09 -5 -12 -2.5000000000000022 -4.3301270189221919 -12 -0.66987297914647026 -2.499999999706382 -12 -0.66987297914647026 -2.499999999706382 -15 -0.66987297914647026 -2.499999999706382 -12 6.9142305214597846e-09 -5 -12 0.91506351643986317 -3.4150635091400758 -12 6.9142305214597846e-09 -5 -9 6.9142305214597846e-09 -5 -9 -0.66987297914647026 -2.499999999706382 -9 0.91506351643986317 -3.4150635091400758 -9 0.91506351643986317 -3.4150635091400758 -12 -0.66987297914647026 -2.499999999706382 -12 6.9142305214597846e-09 -5 -9 0.91506351643986317 -3.4150635091400758 -12 -0.66987297914647026 -2.499999999706382 -9 6.9142305214597846e-09 -5 -9 -2.5000000000000022 -4.3301270189221919 -9 -0.66987297914647026 -2.499999999706382 -9 -0.66987297914647026 -2.499999999706382 -12 -2.5000000000000022 -4.3301270189221919 -12 6.9142305214597846e-09 -5 -12 -0.66987297914647026 -2.499999999706382 -12 6.9142305214597846e-09 -5 -9 0.20080558631870429 0.033909897404034287 -12 -0.66987297914647026 -2.499999999706382 -12 0.95458002071209891 -1.657898275923388 -12 -0.66987297914647026 -2.499999999706382 -9 0.95458002071209891 -1.657898275923388 -12 -0.66987297914647026 -2.499999999706382 -9 0.91506351643986317 -3.4150635091400758 -12 0.91506351643986317 -3.4150635091400758 -9 -0.66987297914647026 -2.499999999706382 -9 0.20080558631870429 0.033909897404034287 -9 0.95458002071209891 -1.657898275923388 -9 0.95458002071209891 -1.657898275923388 -12 0.95458002071209891 -1.657898275923388 -12 -0.66987297914647026 -2.499999999706382 -12 0.91506351643986317 -3.4150635091400758 -12 -0.66987297914647026 -2.499999999706382 -9 -0.66987297914647026 -2.499999999706382 -9 0.95458002071209891 -1.657898275923388 -9 0.91506351643986317 -3.4150635091400758 -9 0.95458002071209891 -1.657898275923388 -12 0.95458002071209891 -1.657898275923388 -9 2.3883545080289421 -0.94497882694672608 -9 2.217625015551433 -2.5696135239339939 -9 2.217625015551433 -2.5696135239339939 -12 2.3883545080289421 -0.94497882694672608 -12 0.95458002071209891 -1.657898275923388 -12 2.217625015551433 -2.5696135239339939 -12 2.3883545080289421 -0.94497882694672608 -9 2.3883545080289421 -0.94497882694672608 -9 0.95458002071209891 -1.657898275923388 -9 0.95458002071209891 -1.657898275923388 -12 2.217625015551433 -2.5696135239339939 -12 0.95458002071209891 -1.657898275923388 -12 0.91506351643986317 -3.4150635091400758 -9 2.217625015551433 -2.5696135239339939 -12 0.95458002071209891 -1.657898275923388 -9 0.95458002071209891 -1.657898275923388 -12 0.91506351643986317 -3.4150635091400758 -12 2.217625015551433 -2.5696135239339939 -12 0.91506351643986317 -3.4150635091400758 -9 0.91506351643986317 -3.4150635091400758 -9 0.95458002071209891 -1.657898275923388 -9 2.217625015551433 -2.5696135239339939 -9 2.217625015551433 -2.5696135239339939 -12 6.9142305214597846e-09 -5 -12 2.500000010727558 -4.3301270127286351 -12 0.91506351643986317 -3.4150635091400758 -12 2.500000010727558 -4.3301270127286351 -9 2.500000010727558 -4.3301270127286351 -9 6.9142305214597846e-09 -5 -9 0.91506351643986317 -3.4150635091400758 -9 0.91506351643986317 -3.4150635091400758 -12 6.9142305214597846e-09 -5 -12 2.500000010727558 -4.3301270127286351 -9 0.91506351643986317 -3.4150635091400758 -12 6.9142305214597846e-09 -5 -9 0.91506351643986317 -3.4150635091400758 -12 2.500000010727558 -4.3301270127286351 -9 2.217625015551433 -2.5696135239339939 -12 0.91506351643986317 -3.4150635091400758 -9 0.91506351643986317 -3.4150635091400758 -12 2.500000010727558 -4.3301270127286351 -12 2.217625015551433 -2.5696135239339939 -12 2.500000010727558 -4.3301270127286351 -9 2.500000010727558 -4.3301270127286351 -9 0.91506351643986317 -3.4150635091400758 -9 2.217625015551433 -2.5696135239339939 -9 2.217625015551433 -2.5696135239339939 -12 6.9142305214597846e-09 -5 -9 2.500000010727558 -4.3301270127286351 -9 0.91506351643986317 -3.4150635091400758 -9 2.500000010727558 -4.3301270127286351 -6 0.91506351643986317 -3.4150635091400758 -9 2.500000010727558 -4.3301270127286351 -9 2.217625015551433 -2.5696135239339939 -9 2.500000010727558 -4.3301270127286351 -6 0.95458002071209891 -1.657898275923388 -9 0.91506351643986317 -3.4150635091400758 -9 2.217625015551433 -2.5696135239339939 -9 0.91506351643986317 -3.4150635091400758 -6 2.3883545080289421 -0.94497882694672608 -9 0.95458002071209891 -1.657898275923388 -9 2.217625015551433 -2.5696135239339939 -9 2.3883545080289421 -0.94497882694672608 -6 0.95458002071209891 -1.657898275923388 -9 -0.66987297914647026 -2.499999999706382 -9 0.91506351643986317 -3.4150635091400758 -9 -0.66987297914647026 -2.499999999706382 -6 0.20080558631870429 0.033909897404034287 -9 -0.66987297914647026 -2.499999999706382 -9 0.95458002071209891 -1.657898275923388 -9 -0.66987297914647026 -2.499999999706382 -6 -2.5000000000000022 -4.3301270189221919 -9 6.9142305214597846e-09 -5 -9 -0.66987297914647026 -2.499999999706382 -9 6.9142305214597846e-09 -5 -6 -0.66987297914647026 -2.499999999706382 -9 6.9142305214597846e-09 -5 -9 0.91506351643986317 -3.4150635091400758 -9 6.9142305214597846e-09 -5 -6 -2.5000000000000022 -4.3301270189221919 -9 -0.66987297914647026 -2.499999999706382 -9 -2.9547160992544761 -1.820741508163664 -9 -2.5000000000000022 -4.3301270189221919 -6 -4.3301270160527148 -2.500000004970083 -9 -2.5000000000000022 -4.3301270189221919 -9 -2.9547160992544761 -1.820741508163664 -9 -2.5000000000000022 -4.3301270189221919 -6 -2.5000000000000022 -4.3301270189221919 -12 6.9142305214597846e-09 -5 -9 -0.66987297914647026 -2.499999999706382 -12 -2.5000000000000022 -4.3301270189221919 -9 -2.5000000000000022 -4.3301270189221919 -12 -0.66987297914647026 -2.499999999706382 -12 -2.9547160992544761 -1.820741508163664 -12 -2.5000000000000022 -4.3301270189221919 -9 -4.3301270160527148 -2.500000004970083 -12 -2.5000000000000022 -4.3301270189221919 -12 -2.9547160992544761 -1.820741508163664 -12 -2.5000000000000022 -4.3301270189221919 -9 -2.2735805010731909 0.22641949675281539 -9 -0.66987297914647026 -2.499999999706382 -9 -2.9547160992544761 -1.820741508163664 -9 -2.9547160992544761 -1.820741508163664 -12 -0.66987297914647026 -2.499999999706382 -9 -2.5000000000000022 -4.3301270189221919 -9 -2.9547160992544761 -1.820741508163664 -9 -2.9547160992544761 -1.820741508163664 -12 -2.5000000000000022 -4.3301270189221919 -9 -0.66987297914647026 -2.499999999706382 -9 -0.66987297914647026 -2.499999999706382 -12 -2.9547160992544761 -1.820741508163664 -12 -0.66987297914647026 -2.499999999706382 -12 -2.2735805010731909 0.22641949675281539 -9 -2.9547160992544761 -1.820741508163664 -12 -0.66987297914647026 -2.499999999706382 -9 -2.5000000000000022 -4.3301270189221919 -9 -4.3301270160527148 -2.500000004970083 -9 -2.9547160992544761 -1.820741508163664 -9 -2.9547160992544761 -1.820741508163664 -12 -4.3301270160527148 -2.500000004970083 -12 -2.5000000000000022 -4.3301270189221919 -9 -2.9547160992544761 -1.820741508163664 -12 -4.3301270160527148 -2.500000004970083 -9 -4.3301270160527148 -2.500000004970083 -9 -5 -1.397247784140632e-08 -9 -2.9547160992544761 -1.820741508163664 -9 -2.9547160992544761 -1.820741508163664 -12 -5 -1.397247784140632e-08 -12 -4.3301270160527148 -2.500000004970083 -12 -2.9547160992544761 -1.820741508163664 -12 -4.3301270160527148 -2.500000004970083 -9 -5 -1.397247784140632e-08 -9 -4.3301270160527148 -2.500000004970083 -9 -2.9547160992544761 -1.820741508163664 -9 -4.3301270160527148 -2.500000004970083 -6 -2.2735805010731909 0.22641949675281539 -9 -0.66987297914647026 -2.499999999706382 -9 0.20080558631870429 0.033909897404034287 -9 -2.2735805010731909 0.22641949675281539 -6 -0.66987297914647026 -2.499999999706382 -9 -2.2735805010731909 0.22641949675281539 -9 -2.9547160992544761 -1.820741508163664 -9 -2.2735805010731909 0.22641949675281539 -6 -2.2735805010731909 0.22641949675281539 -9 0.20080558631870429 0.033909897404034287 -9 -0.91506351183037493 1.5849364925866429 -9 -2.2735805010731909 0.22641949675281539 -6 -2.2735805010731909 0.22641949675281539 -9 -5 -1.397247784140632e-08 -9 -2.9547160992544761 -1.820741508163664 -9 -5 -1.397247784140632e-08 -6 -5 -1.397247784140632e-08 -9 -2.2735805010731909 0.22641949675281539 -9 -2.9547160992544761 -1.820741508163664 -9 -2.9547160992544761 -1.820741508163664 -12 -2.2735805010731909 0.22641949675281539 -12 -5 -1.397247784140632e-08 -12 -2.9547160992544761 -1.820741508163664 -12 -5 -1.397247784140632e-08 -9 -2.2735805010731909 0.22641949675281539 -12 -5 -1.397247784140632e-08 -9 -2.9547160992544761 -1.820741508163664 -12 -2.2735805010731909 0.22641949675281539 -9 -5 -1.397247784140632e-08 -12 -4.3301270160527148 -2.500000004970083 -9 -2.9547160992544761 -1.820741508163664 -12 -5 -1.397247784140632e-08 -9 -0.66987297914647026 -2.499999999706382 -12 -2.2735805010731909 0.22641949675281539 -12 -2.9547160992544761 -1.820741508163664 -12 -2.2735805010731909 0.22641949675281539 -9 -2.2735805010731909 0.22641949675281539 -12 0.20080558631870429 0.033909897404034287 -12 -0.91506351183037493 1.5849364925866429 -12 -2.2735805010731909 0.22641949675281539 -9 -2.2735805010731909 0.22641949675281539 -12 -0.66987297914647026 -2.499999999706382 -12 0.20080558631870429 0.033909897404034287 -12 -2.2735805010731909 0.22641949675281539 -9 -1.107852388446384 3.1911857209629071 -9 -0.91506351183037493 1.5849364925866429 -9 -2.2253246846922492 2.366533744740174 -9 -2.2253246846922492 2.366533744740174 -12 -2.2735805010731909 0.22641949675281539 -12 -0.91506351183037493 1.5849364925866429 -12 -2.2253246846922492 2.366533744740174 -12 -2.2735805010731909 0.22641949675281539 -9 -0.91506351183037493 1.5849364925866429 -12 -1.107852388446384 3.1911857209629071 -12 -2.2253246846922492 2.366533744740174 -12 -0.91506351183037493 1.5849364925866429 -9 -0.91506351183037493 1.5849364925866429 -9 -2.2735805010731909 0.22641949675281539 -9 -2.2253246846922492 2.366533744740174 -9 -2.2253246846922492 2.366533744740174 -12 -2.2735805010731909 0.22641949675281539 -9 -0.91506351183037493 1.5849364925866429 -9 -0.91506351183037493 1.5849364925866429 -12 -2.2253246846922492 2.366533744740174 -12 -2.2735805010731909 0.22641949675281539 -9 -4.3301270221112951 2.4999999944763132 -9 -2.2253246846922492 2.366533744740174 -9 -2.2253246846922492 2.366533744740174 -12 -4.3301270221112951 2.4999999944763132 -9 -2.2735805010731909 0.22641949675281539 -9 -2.2735805010731909 0.22641949675281539 -12 -2.2253246846922492 2.366533744740174 -12 -4.3301270221112951 2.4999999944763132 -12 -5 -1.397247784140632e-08 -9 -2.2735805010731909 0.22641949675281539 -12 -4.3301270221112951 2.4999999944763132 -9 -4.3301270221112951 2.4999999944763132 -12 -5 -1.397247784140632e-08 -12 -2.2735805010731909 0.22641949675281539 -12 -5 -1.397247784140632e-08 -9 -5 -1.397247784140632e-08 -9 -4.3301270221112951 2.4999999944763132 -9 -2.2735805010731909 0.22641949675281539 -9 -2.2735805010731909 0.22641949675281539 -12 -4.3301270221112951 2.4999999944763132 -12 -2.2735805010731909 0.22641949675281539 -12 -2.2253246846922492 2.366533744740174 -12 -4.3301270221112951 2.4999999944763132 -9 -4.3301270221112951 2.4999999944763132 -9 -5 -1.397247784140632e-08 -9 -2.2735805010731909 0.22641949675281539 -9 -5 -1.397247784140632e-08 -6 -4.3301270221112951 2.4999999944763132 -9 -2.2735805010731909 0.22641949675281539 -9 -2.2253246846922492 2.366533744740174 -9 -4.3301270221112951 2.4999999944763132 -6 -0.91506351183037493 1.5849364925866429 -9 -1.107852388446384 3.1911857209629071 -9 -2.2253246846922492 2.366533744740174 -9 -0.91506351183037493 1.5849364925866429 -6 -2.2735805010731909 0.22641949675281539 -9 -0.91506351183037493 1.5849364925866429 -9 -2.2253246846922492 2.366533744740174 -9 -2.2735805010731909 0.22641949675281539 -6 0.20080558631870429 0.033909897404034287 -9 0.37580157663508379 2.5408650916807378 -9 -0.91506351183037493 1.5849364925866429 -9 0.20080558631870429 0.033909897404034287 -6 -0.91506351183037493 1.5849364925866429 -9 0.37580157663508379 2.5408650916807378 -9 -1.107852388446384 3.1911857209629071 -9 0.37580157663508379 2.5408650916807378 -6 0.20080558631870429 0.033909897404034287 -9 2.3883545080289421 -0.94497882694672608 -9 2.465848112410058 1.4099871989758821 -9 2.3883545080289421 -0.94497882694672608 -6 2.3883545080289421 -0.94497882694672608 -9 0.20080558631870429 0.033909897404034287 -9 0.95458002071209891 -1.657898275923388 -9 2.3883545080289421 -0.94497882694672608 -6 0.37580157663508379 2.5408650916807378 -9 0.20080558631870429 0.033909897404034287 -9 2.465848112410058 1.4099871989758821 -9 0.20080558631870429 0.033909897404034287 -6 0.37580157663508379 2.5408650916807378 -12 0.20080558631870429 0.033909897404034287 -9 2.465848112410058 1.4099871989758821 -12 0.37580157663508379 2.5408650916807378 -9 0.37580157663508379 2.5408650916807378 -9 2.4999999879139869 4.3301270259000564 -9 2.465848112410058 1.4099871989758821 -9 2.465848112410058 1.4099871989758821 -12 0.20080558631870429 0.033909897404034287 -9 0.37580157663508379 2.5408650916807378 -9 2.465848112410058 1.4099871989758821 -9 2.465848112410058 1.4099871989758821 -12 0.37580157663508379 2.5408650916807378 -12 0.20080558631870429 0.033909897404034287 -12 2.465848112410058 1.4099871989758821 -12 0.20080558631870429 0.033909897404034287 -9 2.3883545080289421 -0.94497882694672608 -12 0.20080558631870429 0.033909897404034287 -12 0.95458002071209891 -1.657898275923388 -12 2.3883545080289421 -0.94497882694672608 -9 2.3883545080289421 -0.94497882694672608 -9 0.20080558631870429 0.033909897404034287 -9 0.20080558631870429 0.033909897404034287 -12 0.95458002071209891 -1.657898275923388 -12 2.3883545080289421 -0.94497882694672608 -9 0.20080558631870429 0.033909897404034287 -9 2.465848112410058 1.4099871989758821 -9 2.465848112410058 1.4099871989758821 -12 0.20080558631870429 0.033909897404034287 -12 2.3883545080289421 -0.94497882694672608 -12 2.465848112410058 1.4099871989758821 -12 2.3883545080289421 -0.94497882694672608 -9 0.20080558631870429 0.033909897404034287 -12 2.3883545080289421 -0.94497882694672608 -9 2.465848112410058 1.4099871989758821 -12 0.20080558631870429 0.033909897404034287 -9 0.20080558631870429 0.033909897404034287 -9 2.3883545080289421 -0.94497882694672608 -9 0.95458002071209891 -1.657898275923388 -9 0.95458002071209891 -1.657898275923388 -12 -2.2735805010731909 0.22641949675281539 -9 0.20080558631870429 0.033909897404034287 -9 0.20080558631870429 0.033909897404034287 -12 -0.91506351183037493 1.5849364925866429 -12 -2.2735805010731909 0.22641949675281539 -9 -0.66987297914647026 -2.499999999706382 -9 -0.66987297914647026 -2.499999999706382 -12 0.20080558631870429 0.033909897404034287 -12 0.20080558631870429 0.033909897404034287 -12 -0.66987297914647026 -2.499999999706382 -9 0.95458002071209891 -1.657898275923388 -12 0.20080558631870429 0.033909897404034287 -9 -0.66987297914647026 -2.499999999706382 -9 -2.2735805010731909 0.22641949675281539 -9 0.20080558631870429 0.033909897404034287 -9 0.20080558631870429 0.033909897404034287 -12 0.20080558631870429 0.033909897404034287 -9 -2.2735805010731909 0.22641949675281539 -9 -0.91506351183037493 1.5849364925866429 -9 -0.91506351183037493 1.5849364925866429 -12 0.37580157663508379 2.5408650916807378 -9 0.20080558631870429 0.033909897404034287 -9 -0.91506351183037493 1.5849364925866429 -9 -0.91506351183037493 1.5849364925866429 -12 0.20080558631870429 0.033909897404034287 -12 0.37580157663508379 2.5408650916807378 -12 -0.91506351183037493 1.5849364925866429 -12 0.20080558631870429 0.033909897404034287 -9 0.20080558631870429 0.033909897404034287 -9 0.37580157663508379 2.5408650916807378 -9 0.37580157663508379 2.5408650916807378 -12 -0.91506351183037493 1.5849364925866429 -12 -0.91506351183037493 1.5849364925866429 -12 0.37580157663508379 2.5408650916807378 -9 -1.107852388446384 3.1911857209629071 -12 -0.91506351183037493 1.5849364925866429 -9 -0.91506351183037493 1.5849364925866429 -12 0.37580157663508379 2.5408650916807378 -12 -1.107852388446384 3.1911857209629071 -12 0.37580157663508379 2.5408650916807378 -9 0.20080558631870429 0.033909897404034287 -12 -2.2735805010731909 0.22641949675281539 -12 -0.91506351183037493 1.5849364925866429 -12 -0.91506351183037493 1.5849364925866429 -15 0.37580157663508379 2.5408650916807378 -12 0.20080558631870429 0.033909897404034287 -12 -0.91506351183037493 1.5849364925866429 -12 -0.91506351183037493 1.5849364925866429 -15 -0.66987297914647026 -2.499999999706382 -12 -2.2735805010731909 0.22641949675281539 -12 0.20080558631870429 0.033909897404034287 -12 0.20080558631870429 0.033909897404034287 -15 2.3883545080289421 -0.94497882694672608 -12 0.20080558631870429 0.033909897404034287 -12 2.465848112410058 1.4099871989758821 -12 2.465848112410058 1.4099871989758821 -15 0.20080558631870429 0.033909897404034287 -12 2.3883545080289421 -0.94497882694672608 -12 0.95458002071209891 -1.657898275923388 -12 0.95458002071209891 -1.657898275923388 -15 0.37580157663508379 2.5408650916807378 -12 2.4999999879139869 4.3301270259000564 -12 2.465848112410058 1.4099871989758821 -12 2.465848112410058 1.4099871989758821 -15 0.20080558631870429 0.033909897404034287 -12 0.37580157663508379 2.5408650916807378 -12 2.465848112410058 1.4099871989758821 -12 2.465848112410058 1.4099871989758821 -15 0.37580157663508379 2.5408650916807378 -15 0.20080558631870429 0.033909897404034287 -12 2.465848112410058 1.4099871989758821 -15 0.37580157663508379 2.5408650916807378 -12 0.37580157663508379 2.5408650916807378 -15 0.20080558631870429 0.033909897404034287 -15 2.465848112410058 1.4099871989758821 -15 0.20080558631870429 0.033909897404034287 -12 0.20080558631870429 0.033909897404034287 -15 2.3883545080289421 -0.94497882694672608 -15 2.465848112410058 1.4099871989758821 -15 2.3883545080289421 -0.94497882694672608 -12 2.3883545080289421 -0.94497882694672608 -12 0.20080558631870429 0.033909897404034287 -12 0.20080558631870429 0.033909897404034287 -15 0.95458002071209891 -1.657898275923388 -15 0.20080558631870429 0.033909897404034287 -15 2.3883545080289421 -0.94497882694672608 -12 2.465848112410058 1.4099871989758821 -15 0.20080558631870429 0.033909897404034287 -12 2.3883545080289421 -0.94497882694672608 -15 0.20080558631870429 0.033909897404034287 -15 0.95458002071209891 -1.657898275923388 -15 2.3883545080289421 -0.94497882694672608 -12 -2.2735805010731909 0.22641949675281539 -12 -0.66987297914647026 -2.499999999706382 -12 -0.66987297914647026 -2.499999999706382 -15 0.20080558631870429 0.033909897404034287 -15 -2.2735805010731909 0.22641949675281539 -12 0.20080558631870429 0.033909897404034287 -12 0.20080558631870429 0.033909897404034287 -15 -0.91506351183037493 1.5849364925866429 -15 0.20080558631870429 0.033909897404034287 -15 -0.66987297914647026 -2.499999999706382 -12 0.95458002071209891 -1.657898275923388 -15 0.20080558631870429 0.033909897404034287 -12 0.20080558631870429 0.033909897404034287 -12 0.37580157663508379 2.5408650916807378 -12 0.37580157663508379 2.5408650916807378 -15 -0.91506351183037493 1.5849364925866429 -15 -0.91506351183037493 1.5849364925866429 -15 0.37580157663508379 2.5408650916807378 -15 -1.107852388446384 3.1911857209629071 -15 0.37580157663508379 2.5408650916807378 -12 -0.91506351183037493 1.5849364925866429 -15 0.37580157663508379 2.5408650916807378 -12 -1.107852388446384 3.1911857209629071 -15 -0.91506351183037493 1.5849364925866429 -12 0.20080558631870429 0.033909897404034287 -15 0.37580157663508379 2.5408650916807378 -15 -0.91506351183037493 1.5849364925866429 -15 0.20080558631870429 0.033909897404034287 -12 -2.2735805010731909 0.22641949675281539 -12 -0.91506351183037493 1.5849364925866429 -12 -0.91506351183037493 1.5849364925866429 -15 -2.2253246846922492 2.366533744740174 -15 -2.2735805010731909 0.22641949675281539 -15 -0.91506351183037493 1.5849364925866429 -15 -2.2253246846922492 2.366533744740174 -15 -2.2735805010731909 0.22641949675281539 -12 -4.3301270221112951 2.4999999944763132 -12 -2.2735805010731909 0.22641949675281539 -12 -2.2735805010731909 0.22641949675281539 -15 -2.2253246846922492 2.366533744740174 -15 -0.91506351183037493 1.5849364925866429 -15 -1.107852388446384 3.1911857209629071 -15 -2.2253246846922492 2.366533744740174 -15 -0.91506351183037493 1.5849364925866429 -12 -0.91506351183037493 1.5849364925866429 -12 -2.2735805010731909 0.22641949675281539 -12 -2.2253246846922492 2.366533744740174 -12 -2.2253246846922492 2.366533744740174 -15 -2.2735805010731909 0.22641949675281539 -12 -4.3301270221112951 2.4999999944763132 -12 -2.2253246846922492 2.366533744740174 -12 -2.2253246846922492 2.366533744740174 -15 -1.107852388446384 3.1911857209629071 -12 -0.91506351183037493 1.5849364925866429 -12 -2.2253246846922492 2.366533744740174 -12 -2.2253246846922492 2.366533744740174 -15 -0.66987297914647026 -2.499999999706382 -15 -2.2735805010731909 0.22641949675281539 -15 -2.9547160992544761 -1.820741508163664 -15 -2.2735805010731909 0.22641949675281539 -12 -2.2735805010731909 0.22641949675281539 -15 0.20080558631870429 0.033909897404034287 -15 -0.91506351183037493 1.5849364925866429 -15 -2.2735805010731909 0.22641949675281539 -12 -2.2735805010731909 0.22641949675281539 -15 -0.66987297914647026 -2.499999999706382 -15 0.20080558631870429 0.033909897404034287 -15 -2.2735805010731909 0.22641949675281539 -12 -5 -1.397247784140632e-08 -15 -4.3301270160527148 -2.500000004970083 -12 -2.9547160992544761 -1.820741508163664 -15 -5 -1.397247784140632e-08 -12 -2.2735805010731909 0.22641949675281539 -15 -5 -1.397247784140632e-08 -12 -2.9547160992544761 -1.820741508163664 -15 -2.2735805010731909 0.22641949675281539 -12 -2.2735805010731909 0.22641949675281539 -15 -5 -1.397247784140632e-08 -15 -2.9547160992544761 -1.820741508163664 -15 -5 -1.397247784140632e-08 -12 -5 -1.397247784140632e-08 -12 -2.2735805010731909 0.22641949675281539 -12 -2.9547160992544761 -1.820741508163664 -12 -2.9547160992544761 -1.820741508163664 -15 -5 -1.397247784140632e-08 -12 -4.3301270221112951 2.4999999944763132 -12 -2.2735805010731909 0.22641949675281539 -12 -2.2735805010731909 0.22641949675281539 -15 -4.3301270221112951 2.4999999944763132 -15 -5 -1.397247784140632e-08 -15 -2.2735805010731909 0.22641949675281539 -15 -5 -1.397247784140632e-08 -12 -4.3301270221112951 2.4999999944763132 -15 -5 -1.397247784140632e-08 -12 -2.2735805010731909 0.22641949675281539 -15 -4.3301270221112951 2.4999999944763132 -12 -4.3301270221112951 2.4999999944763132 -15 -2.2735805010731909 0.22641949675281539 -15 -2.2253246846922492 2.366533744740174 -15 -4.3301270221112951 2.4999999944763132 -12 -2.4999999999999991 4.3301270189221936 -15 -4.3301270221112951 2.4999999944763132 -15 -2.2253246846922492 2.366533744740174 -15 -4.3301270221112951 2.4999999944763132 -12 -0.91506351183037493 1.5849364925866429 -12 -1.107852388446384 3.1911857209629071 -12 -1.107852388446384 3.1911857209629071 -15 -2.2253246846922492 2.366533744740174 -15 -2.4999999999999991 4.3301270189221936 -15 -4.3301270221112951 2.4999999944763132 -12 -2.2253246846922492 2.366533744740174 -15 -2.4999999999999991 4.3301270189221936 -12 -1.107852388446384 3.1911857209629071 -15 -2.4999999999999991 4.3301270189221936 -15 -2.2253246846922492 2.366533744740174 -15 -2.4999999999999991 4.3301270189221936 -12 -1.107852388446384 3.1911857209629071 -15 -2.4999999999999991 4.3301270189221936 -12 -2.2253246846922492 2.366533744740174 -15 -1.107852388446384 3.1911857209629071 -12 -6.2995949836986492e-09 5 -15 -2.4999999999999991 4.3301270189221936 -15 -1.107852388446384 3.1911857209629071 -15 -2.4999999999999991 4.3301270189221936 -12 -2.4999999999999991 4.3301270189221936 -12 -1.107852388446384 3.1911857209629071 -12 -2.2253246846922492 2.366533744740174 -12 -2.2253246846922492 2.366533744740174 -15 -4.3301270221112951 2.4999999944763132 -12 -2.4999999999999991 4.3301270189221936 -12 -2.2253246846922492 2.366533744740174 -12 -2.2253246846922492 2.366533744740174 -15 -2.4999999999999991 4.3301270189221936 -12 -4.3301270221112951 2.4999999944763132 -12 -2.2253246846922492 2.366533744740174 -12 -4.3301270221112951 2.4999999944763132 -9 -6.2995949836986492e-09 5 -12 -2.4999999999999991 4.3301270189221936 -12 -1.107852388446384 3.1911857209629071 -12 -2.4999999999999991 4.3301270189221936 -9 -0.91506351183037493 1.5849364925866429 -9 -1.107852388446384 3.1911857209629071 -9 -1.107852388446384 3.1911857209629071 -12 -2.2253246846922492 2.366533744740174 -12 -2.4999999999999991 4.3301270189221936 -12 -4.3301270221112951 2.4999999944763132 -9 -2.2253246846922492 2.366533744740174 -12 -2.4999999999999991 4.3301270189221936 -9 -4.3301270221112951 2.4999999944763132 -9 -2.4999999999999991 4.3301270189221936 -9 -2.2253246846922492 2.366533744740174 -9 -2.2253246846922492 2.366533744740174 -12 -2.4999999999999991 4.3301270189221936 -9 -1.107852388446384 3.1911857209629071 -9 -2.2253246846922492 2.366533744740174 -9 -2.2253246846922492 2.366533744740174 -12 -1.107852388446384 3.1911857209629071 -12 -2.4999999999999991 4.3301270189221936 -12 -2.2253246846922492 2.366533744740174 -12 -2.4999999999999991 4.3301270189221936 -9 -1.107852388446384 3.1911857209629071 -12 -2.4999999999999991 4.3301270189221936 -9 -2.2253246846922492 2.366533744740174 -12 -1.107852388446384 3.1911857209629071 -9 -6.2995949836986492e-09 5 -9 -2.4999999999999991 4.3301270189221936 -9 -1.107852388446384 3.1911857209629071 -9 -2.4999999999999991 4.3301270189221936 -6 -1.107852388446384 3.1911857209629071 -9 -2.4999999999999991 4.3301270189221936 -9 -2.2253246846922492 2.366533744740174 -9 -2.4999999999999991 4.3301270189221936 -6 -2.4999999999999991 4.3301270189221936 -9 -4.3301270221112951 2.4999999944763132 -9 -2.2253246846922492 2.366533744740174 -9 -4.3301270221112951 2.4999999944763132 -6 -6.2995949836986492e-09 5 -12 -2.4999999999999991 4.3301270189221936 -9 -1.107852388446384 3.1911857209629071 -12 -6.2995949836986492e-09 5 -9 2.4999999879139869 4.3301270259000564 -9 -6.2995949836986492e-09 5 -9 0.37580157663508379 2.5408650916807378 -9 -6.2995949836986492e-09 5 -6 2.4999999879139869 4.3301270259000564 -9 0.37580157663508379 2.5408650916807378 -9 2.465848112410058 1.4099871989758821 -9 2.4999999879139869 4.3301270259000564 -6 0.37580157663508379 2.5408650916807378 -9 -6.2995949836986492e-09 5 -9 -1.107852388446384 3.1911857209629071 -9 -6.2995949836986492e-09 5 -6 0.37580157663508379 2.5408650916807378 -9 -0.91506351183037493 1.5849364925866429 -9 -1.107852388446384 3.1911857209629071 -9 -1.107852388446384 3.1911857209629071 -12 0.37580157663508379 2.5408650916807378 -12 -6.2995949836986492e-09 5 -9 -1.107852388446384 3.1911857209629071 -12 0.37580157663508379 2.5408650916807378 -9 0.37580157663508379 2.5408650916807378 -12 -6.2995949836986492e-09 5 -12 -1.107852388446384 3.1911857209629071 -12 -6.2995949836986492e-09 5 -9 -2.4999999999999991 4.3301270189221936 -9 -6.2995949836986492e-09 5 -9 -1.107852388446384 3.1911857209629071 -9 -1.107852388446384 3.1911857209629071 -12 -6.2995949836986492e-09 5 -9 0.37580157663508379 2.5408650916807378 -9 -1.107852388446384 3.1911857209629071 -9 -1.107852388446384 3.1911857209629071 -12 2.4999999879139869 4.3301270259000564 -12 0.37580157663508379 2.5408650916807378 -12 2.465848112410058 1.4099871989758821 -12 2.4999999879139869 4.3301270259000564 -9 -6.2995949836986492e-09 5 -9 2.4999999879139869 4.3301270259000564 -9 0.37580157663508379 2.5408650916807378 -9 0.37580157663508379 2.5408650916807378 -12 2.4999999879139869 4.3301270259000564 -12 -6.2995949836986492e-09 5 -12 0.37580157663508379 2.5408650916807378 -12 -6.2995949836986492e-09 5 -9 2.4999999879139869 4.3301270259000564 -12 -6.2995949836986492e-09 5 -9 0.37580157663508379 2.5408650916807378 -12 2.4999999879139869 4.3301270259000564 -9 2.4999999879139869 4.3301270259000564 -9 0.37580157663508379 2.5408650916807378 -9 0.37580157663508379 2.5408650916807378 -12 2.465848112410058 1.4099871989758821 -12 -6.2995949836986492e-09 5 -12 2.4999999879139869 4.3301270259000564 -12 0.37580157663508379 2.5408650916807378 -12 0.37580157663508379 2.5408650916807378 -15 -2.4999999999999991 4.3301270189221936 -12 -6.2995949836986492e-09 5 -12 -1.107852388446384 3.1911857209629071 -12 -1.107852388446384 3.1911857209629071 -15 0.37580157663508379 2.5408650916807378 -12 -0.91506351183037493 1.5849364925866429 -12 -1.107852388446384 3.1911857209629071 -12 -1.107852388446384 3.1911857209629071 -15 -6.2995949836986492e-09 5 -12 0.37580157663508379 2.5408650916807378 -12 -1.107852388446384 3.1911857209629071 -12 -1.107852388446384 3.1911857209629071 -15 0.37580157663508379 2.5408650916807378 -15 -6.2995949836986492e-09 5 -12 -1.107852388446384 3.1911857209629071 -15 0.37580157663508379 2.5408650916807378 -12 0.37580157663508379 2.5408650916807378 -15 -6.2995949836986492e-09 5 -15 -1.107852388446384 3.1911857209629071 -15 -6.2995949836986492e-09 5 -12 -6.2995949836986492e-09 5 -15 -2.4999999999999991 4.3301270189221936 -12 -1.107852388446384 3.1911857209629071 -15 -6.2995949836986492e-09 5 -12 2.4999999879139869 4.3301270259000564 -15 -6.2995949836986492e-09 5 -12 0.37580157663508379 2.5408650916807378 -15 2.4999999879139869 4.3301270259000564 -12 2.4999999879139869 4.3301270259000564 -12 0.37580157663508379 2.5408650916807378 -12 0.37580157663508379 2.5408650916807378 -15 2.465848112410058 1.4099871989758821 -15 2.4999999879139869 4.3301270259000564 -15 0.37580157663508379 2.5408650916807378 -15 2.465848112410058 1.4099871989758821 -15 2.4999999879139869 4.3301270259000564 -12 2.4999999879139869 4.3301270259000564 -15 -6.2995949836986492e-09 5 -15 0.37580157663508379 2.5408650916807378 -15 -6.2995949836986492e-09 5 -12 4.3301270155636349 2.5000000058171929 -15 2.4999999879139869 4.3301270259000564 -12 2.465848112410058 1.4099871989758821 -15 4.3301270155636349 2.5000000058171929 -12 4.3301270155636349 2.5000000058171929 -15 2.4999999879139869 4.3301270259000564 -15 2.465848112410058 1.4099871989758821 -15 2.4999999879139869 4.3301270259000564 -12 4.3301270155636349 2.5000000058171929 -12 2.4999999879139869 4.3301270259000564 -9 2.465848112410058 1.4099871989758821 -12 4.3301270155636349 2.5000000058171929 -9 4.3301270155636349 2.5000000058171929 -12 2.4999999879139869 4.3301270259000564 -12 2.465848112410058 1.4099871989758821 -12 2.4999999879139869 4.3301270259000564 -9 4.3301270155636349 2.5000000058171929 -9 2.4999999879139869 4.3301270259000564 -9 2.465848112410058 1.4099871989758821 -9 2.4999999879139869 4.3301270259000564 -6 2.500000010727558 -4.3301270127286351 -15 4.3301270218486989 -2.4999999949311431 -12 2.217625015551433 -2.5696135239339939 -15 2.500000010727558 -4.3301270127286351 -12 4.3301270218486989 -2.4999999949311431 -12 2.500000010727558 -4.3301270127286351 -12 2.217625015551433 -2.5696135239339939 -12 2.217625015551433 -2.5696135239339939 -15 2.3883545080289421 -0.94497882694672608 -12 4.3301270218486989 -2.4999999949311431 -12 2.217625015551433 -2.5696135239339939 -12 2.217625015551433 -2.5696135239339939 -15 2.500000010727558 -4.3301270127286351 -15 4.3301270218486989 -2.4999999949311431 -15 2.217625015551433 -2.5696135239339939 -15 4.3301270218486989 -2.4999999949311431 -12 4.3301270218486989 -2.4999999949311431 -12 2.3883545080289421 -0.94497882694672608 -12 2.3883545080289421 -0.94497882694672608 -15 2.217625015551433 -2.5696135239339939 -15 4.3301270218486989 -2.4999999949311431 -15 2.3883545080289421 -0.94497882694672608 -15 2.217625015551433 -2.5696135239339939 -15 4.3301270218486989 -2.4999999949311431 -12 4.3301270218486989 -2.4999999949311431 -15 5 0 -12 2.3883545080289421 -0.94497882694672608 -15 4.3301270218486989 -2.4999999949311431 -12 4.3301270218486989 -2.4999999949311431 -15 5 0 -15 2.3883545080289421 -0.94497882694672608 -15 5 0 -12 2.3883545080289421 -0.94497882694672608 -15 5 0 -15 2.465848112410058 1.4099871989758821 -15 5 0 -12 2.3883545080289421 -0.94497882694672608 -15 5 0 -12 2.465848112410058 1.4099871989758821 -15 2.3883545080289421 -0.94497882694672608 -12 5 0 -15 4.3301270155636349 2.5000000058171929 -15 2.465848112410058 1.4099871989758821 -15 4.3301270155636349 2.5000000058171929 -12 5 0 -15 4.3301270155636349 2.5000000058171929 -12 2.465848112410058 1.4099871989758821 -15 5 0 -12 2.4999999879139869 4.3301270259000564 -12 4.3301270155636349 2.5000000058171929 -12 2.465848112410058 1.4099871989758821 -12 2.465848112410058 1.4099871989758821 -15 4.3301270155636349 2.5000000058171929 -12 5 0 -12 2.465848112410058 1.4099871989758821 -12 2.465848112410058 1.4099871989758821 -15 5 0 -12 4.3301270218486989 -2.4999999949311431 -12 2.3883545080289421 -0.94497882694672608 -12 2.3883545080289421 -0.94497882694672608 -15 5 0 -12 2.3883545080289421 -0.94497882694672608 -12 2.465848112410058 1.4099871989758821 -12 2.465848112410058 1.4099871989758821 -15 5 0 -9 4.3301270218486989 -2.4999999949311431 -9 2.3883545080289421 -0.94497882694672608 -9 2.3883545080289421 -0.94497882694672608 -12 4.3301270218486989 -2.4999999949311431 -12 5 0 -12 2.3883545080289421 -0.94497882694672608 -12 5 0 -9 2.3883545080289421 -0.94497882694672608 -12 5 0 -9 2.465848112410058 1.4099871989758821 -12 2.3883545080289421 -0.94497882694672608 -9 5 0 -9 2.3883545080289421 -0.94497882694672608 -9 2.465848112410058 1.4099871989758821 -9 2.465848112410058 1.4099871989758821 -12 2.3883545080289421 -0.94497882694672608 -12 5 0 -12 2.465848112410058 1.4099871989758821 -12 5 0 -9 2.4999999879139869 4.3301270259000564 -9 4.3301270155636349 2.5000000058171929 -9 2.465848112410058 1.4099871989758821 -9 2.465848112410058 1.4099871989758821 -12 5 0 -12 4.3301270155636349 2.5000000058171929 -9 2.465848112410058 1.4099871989758821 -12 5 0 -9 5 0 -12 4.3301270155636349 2.5000000058171929 -12 2.465848112410058 1.4099871989758821 -12 4.3301270155636349 2.5000000058171929 -9 4.3301270155636349 2.5000000058171929 -9 5 0 -9 2.465848112410058 1.4099871989758821 -9 2.465848112410058 1.4099871989758821 -12 5 0 -9 4.3301270155636349 2.5000000058171929 -9 2.465848112410058 1.4099871989758821 -9 4.3301270155636349 2.5000000058171929 -6 4.3301270218486989 -2.4999999949311431 -9 5 0 -9 2.3883545080289421 -0.94497882694672608 -9 5 0 -6 2.3883545080289421 -0.94497882694672608 -9 5 0 -9 2.465848112410058 1.4099871989758821 -9 5 0 -6 4.3301270218486989 -2.4999999949311431 -9 2.3883545080289421 -0.94497882694672608 -9 2.217625015551433 -2.5696135239339939 -9 4.3301270218486989 -2.4999999949311431 -6 2.500000010727558 -4.3301270127286351 -9 4.3301270218486989 -2.4999999949311431 -9 2.217625015551433 -2.5696135239339939 -9 4.3301270218486989 -2.4999999949311431 -6 4.3301270218486989 -2.4999999949311431 -12 2.3883545080289421 -0.94497882694672608 -12 2.217625015551433 -2.5696135239339939 -12 4.3301270218486989 -2.4999999949311431 -9 2.3883545080289421 -0.94497882694672608 -9 4.3301270218486989 -2.4999999949311431 -9 2.217625015551433 -2.5696135239339939 -9 2.217625015551433 -2.5696135239339939 -12 4.3301270218486989 -2.4999999949311431 -12 5 0 -9 2.3883545080289421 -0.94497882694672608 -12 4.3301270218486989 -2.4999999949311431 -9 4.3301270218486989 -2.4999999949311431 -9 2.3883545080289421 -0.94497882694672608 -9 2.3883545080289421 -0.94497882694672608 -12 2.217625015551433 -2.5696135239339939 -12 4.3301270218486989 -2.4999999949311431 -9 2.500000010727558 -4.3301270127286351 -9 2.217625015551433 -2.5696135239339939 -9 2.217625015551433 -2.5696135239339939 -12 2.500000010727558 -4.3301270127286351 -12 4.3301270218486989 -2.4999999949311431 -12 2.217625015551433 -2.5696135239339939 -12 4.3301270218486989 -2.4999999949311431 -9 2.500000010727558 -4.3301270127286351 -12 4.3301270218486989 -2.4999999949311431 -9 2.217625015551433 -2.5696135239339939 -12 2.500000010727558 -4.3301270127286351 -9 2.500000010727558 -4.3301270127286351 -9 4.3301270218486989 -2.4999999949311431 -6 2.217625015551433 -2.5696135239339939 -9 2.500000010727558 -4.3301270127286351 -6 2.500000010727558 -4.3301270127286351 -6 4.3301270218486989 -2.4999999949311431 -3 2.217625015551433 -2.5696135239339939 -6 2.500000010727558 -4.3301270127286351 -3 4.3301270218486989 -2.4999999949311431 -3 2.3883545080289421 -0.94497882694672608 -3 2.3883545080289421 -0.94497882694672608 -6 2.217625015551433 -2.5696135239339939 -6 4.3301270218486989 -2.4999999949311431 -6 2.3883545080289421 -0.94497882694672608 -6 2.217625015551433 -2.5696135239339939 -6 4.3301270218486989 -2.4999999949311431 -3 4.3301270218486989 -2.4999999949311431 -6 5 0 -3 2.3883545080289421 -0.94497882694672608 -6 4.3301270218486989 -2.4999999949311431 -3 2.500000010727558 -4.3301270127286351 -6 4.3301270218486989 -2.4999999949311431 -6 2.217625015551433 -2.5696135239339939 -6 4.3301270218486989 -2.4999999949311431 -3 4.3301270218486989 -2.4999999949311431 -6 2.500000010727558 -4.3301270127286351 -6 2.217625015551433 -2.5696135239339939 -6 2.217625015551433 -2.5696135239339939 -9 2.3883545080289421 -0.94497882694672608 -6 4.3301270218486989 -2.4999999949311431 -6 2.217625015551433 -2.5696135239339939 -6 2.217625015551433 -2.5696135239339939 -9 4.3301270218486989 -2.4999999949311431 -9 5 0 -6 2.3883545080289421 -0.94497882694672608 -9 4.3301270218486989 -2.4999999949311431 -6 4.3301270218486989 -2.4999999949311431 -6 2.3883545080289421 -0.94497882694672608 -6 2.3883545080289421 -0.94497882694672608 -9 2.217625015551433 -2.5696135239339939 -9 2.3883545080289421 -0.94497882694672608 -9 5 0 -6 2.465848112410058 1.4099871989758821 -9 2.3883545080289421 -0.94497882694672608 -6 5 0 -6 4.3301270218486989 -2.4999999949311431 -6 2.3883545080289421 -0.94497882694672608 -6 2.3883545080289421 -0.94497882694672608 -9 5 0 -6 2.3883545080289421 -0.94497882694672608 -6 2.465848112410058 1.4099871989758821 -6 2.465848112410058 1.4099871989758821 -9 5 0 -9 4.3301270155636349 2.5000000058171929 -6 2.465848112410058 1.4099871989758821 -9 5 0 -6 4.3301270155636349 2.5000000058171929 -6 5 0 -6 2.465848112410058 1.4099871989758821 -6 2.465848112410058 1.4099871989758821 -9 2.4999999879139869 4.3301270259000564 -6 4.3301270155636349 2.5000000058171929 -6 2.465848112410058 1.4099871989758821 -6 2.465848112410058 1.4099871989758821 -9 5 0 -6 4.3301270155636349 2.5000000058171929 -3 2.465848112410058 1.4099871989758821 -6 5 0 -3 5 0 -6 4.3301270155636349 2.5000000058171929 -6 2.465848112410058 1.4099871989758821 -6 4.3301270155636349 2.5000000058171929 -3 2.3883545080289421 -0.94497882694672608 -6 5 0 -6 2.465848112410058 1.4099871989758821 -6 5 0 -3 2.3883545080289421 -0.94497882694672608 -6 5 0 -3 2.465848112410058 1.4099871989758821 -6 2.3883545080289421 -0.94497882694672608 -3 4.3301270218486989 -2.4999999949311431 -6 5 0 -6 2.3883545080289421 -0.94497882694672608 -6 5 0 -3 5 0 -3 2.3883545080289421 -0.94497882694672608 -3 2.465848112410058 1.4099871989758821 -3 2.465848112410058 1.4099871989758821 -6 2.3883545080289421 -0.94497882694672608 -3 5 0 -3 2.465848112410058 1.4099871989758821 -3 5 0 0 4.3301270218486989 -2.4999999949311431 -3 5 0 -3 2.3883545080289421 -0.94497882694672608 -3 5 0 0 5 0 -3 4.3301270218486989 -2.4999999949311431 -3 2.3883545080289421 -0.94497882694672608 -3 2.3883545080289421 -0.94497882694672608 -6 5 0 -3 4.3301270155636349 2.5000000058171929 -3 2.465848112410058 1.4099871989758821 -3 4.3301270155636349 2.5000000058171929 0 4.3301270155636349 2.5000000058171929 -3 5 0 -3 2.465848112410058 1.4099871989758821 -3 2.465848112410058 1.4099871989758821 -6 2.4999999879139869 4.3301270259000564 -3 4.3301270155636349 2.5000000058171929 -3 2.465848112410058 1.4099871989758821 -3 2.465848112410058 1.4099871989758821 -6 2.4999999879139869 4.3301270259000564 0 4.3301270155636349 2.5000000058171929 0 2.465848112410058 1.4099871989758821 0 2.465848112410058 1.4099871989758821 -3 5 0 -3 4.3301270155636349 2.5000000058171929 0 2.465848112410058 1.4099871989758821 -3 5 0 0 4.3301270155636349 2.5000000058171929 0 5 0 0 2.465848112410058 1.4099871989758821 0 2.465848112410058 1.4099871989758821 -3 5 0 0 4.3301270218486989 -2.4999999949311431 0 2.3883545080289421 -0.94497882694672608 0 2.3883545080289421 -0.94497882694672608 -3 5 0 0 2.3883545080289421 -0.94497882694672608 0 2.465848112410058 1.4099871989758821 0 2.465848112410058 1.4099871989758821 -3 2.3883545080289421 -0.94497882694672608 -3 5 0 0 2.465848112410058 1.4099871989758821 -3 2.3883545080289421 -0.94497882694672608 0 4.3301270218486989 -2.4999999949311431 0 2.500000010727558 -4.3301270127286351 0 2.217625015551433 -2.5696135239339939 0 2.217625015551433 -2.5696135239339939 -3 2.3883545080289421 -0.94497882694672608 0 4.3301270218486989 -2.4999999949311431 0 2.217625015551433 -2.5696135239339939 0 2.217625015551433 -2.5696135239339939 -3 4.3301270218486989 -2.4999999949311431 0 2.3883545080289421 -0.94497882694672608 0 2.3883545080289421 -0.94497882694672608 -3 2.217625015551433 -2.5696135239339939 -3 4.3301270218486989 -2.4999999949311431 -3 5 0 0 2.3883545080289421 -0.94497882694672608 -3 4.3301270218486989 -2.4999999949311431 0 4.3301270218486989 -2.4999999949311431 -3 2.500000010727558 -4.3301270127286351 -3 2.217625015551433 -2.5696135239339939 -3 2.217625015551433 -2.5696135239339939 -6 4.3301270218486989 -2.4999999949311431 -3 2.3883545080289421 -0.94497882694672608 -3 2.217625015551433 -2.5696135239339939 -3 4.3301270218486989 -2.4999999949311431 0 2.3883545080289421 -0.94497882694672608 -3 4.3301270218486989 -2.4999999949311431 -3 2.217625015551433 -2.5696135239339939 -3 2.217625015551433 -2.5696135239339939 -6 2.500000010727558 -4.3301270127286351 -3 4.3301270218486989 -2.4999999949311431 -3 2.217625015551433 -2.5696135239339939 -3 4.3301270218486989 -2.4999999949311431 0 2.500000010727558 -4.3301270127286351 -3 4.3301270218486989 -2.4999999949311431 0 2.217625015551433 -2.5696135239339939 -3 2.500000010727558 -4.3301270127286351 0 4.3301270155636349 2.5000000058171929 -9 2.4999999879139869 4.3301270259000564 -6 2.465848112410058 1.4099871989758821 -9 4.3301270155636349 2.5000000058171929 -6 4.3301270155636349 2.5000000058171929 -6 2.4999999879139869 4.3301270259000564 -6 2.465848112410058 1.4099871989758821 -6 2.4999999879139869 4.3301270259000564 -3 4.3301270155636349 2.5000000058171929 -6 2.4999999879139869 4.3301270259000564 -3 2.465848112410058 1.4099871989758821 -6 4.3301270155636349 2.5000000058171929 -3 4.3301270155636349 2.5000000058171929 -3 2.4999999879139869 4.3301270259000564 -3 2.465848112410058 1.4099871989758821 -3 2.4999999879139869 4.3301270259000564 0 4.3301270155636349 2.5000000058171929 -3 2.4999999879139869 4.3301270259000564 0 2.465848112410058 1.4099871989758821 -3 4.3301270155636349 2.5000000058171929 0 -6.2995949836986492e-09 5 0 2.4999999879139869 4.3301270259000564 0 0.37580157663508379 2.5408650916807378 0 0.37580157663508379 2.5408650916807378 -3 2.4999999879139869 4.3301270259000564 0 0.37580157663508379 2.5408650916807378 0 0.37580157663508379 2.5408650916807378 -3 2.465848112410058 1.4099871989758821 -3 2.4999999879139869 4.3301270259000564 -3 -6.2995949836986492e-09 5 0 0.37580157663508379 2.5408650916807378 -3 2.4999999879139869 4.3301270259000564 0 -6.2995949836986492e-09 5 -3 -2.4999999999999991 4.3301270189221936 0 -1.107852388446384 3.1911857209629071 -3 -6.2995949836986492e-09 5 0 -6.2995949836986492e-09 5 0 0.37580157663508379 2.5408650916807378 0 -1.107852388446384 3.1911857209629071 0 -1.107852388446384 3.1911857209629071 -3 -2.4999999999999991 4.3301270189221936 0 -6.2995949836986492e-09 5 0 -1.107852388446384 3.1911857209629071 0 -1.107852388446384 3.1911857209629071 -3 0.37580157663508379 2.5408650916807378 -3 -6.2995949836986492e-09 5 0 -1.107852388446384 3.1911857209629071 -3 0.37580157663508379 2.5408650916807378 0 0.37580157663508379 2.5408650916807378 0 -0.91506351183037493 1.5849364925866429 0 -1.107852388446384 3.1911857209629071 0 -1.107852388446384 3.1911857209629071 -3 0.37580157663508379 2.5408650916807378 -3 -6.2995949836986492e-09 5 -3 -1.107852388446384 3.1911857209629071 -3 -6.2995949836986492e-09 5 0 2.4999999879139869 4.3301270259000564 -3 -6.2995949836986492e-09 5 -3 0.37580157663508379 2.5408650916807378 -3 -6.2995949836986492e-09 5 0 2.4999999879139869 4.3301270259000564 -3 0.37580157663508379 2.5408650916807378 -3 2.465848112410058 1.4099871989758821 -3 2.4999999879139869 4.3301270259000564 0 2.4999999879139869 4.3301270259000564 -3 0.37580157663508379 2.5408650916807378 -3 0.37580157663508379 2.5408650916807378 -6 2.465848112410058 1.4099871989758821 -6 2.4999999879139869 4.3301270259000564 -6 0.37580157663508379 2.5408650916807378 -6 2.465848112410058 1.4099871989758821 -6 2.4999999879139869 4.3301270259000564 -3 2.4999999879139869 4.3301270259000564 -6 -6.2995949836986492e-09 5 -3 0.37580157663508379 2.5408650916807378 -6 2.4999999879139869 4.3301270259000564 -3 2.4999999879139869 4.3301270259000564 -6 -6.2995949836986492e-09 5 -6 0.37580157663508379 2.5408650916807378 -6 -6.2995949836986492e-09 5 -3 -6.2995949836986492e-09 5 -3 2.4999999879139869 4.3301270259000564 -3 0.37580157663508379 2.5408650916807378 -3 0.37580157663508379 2.5408650916807378 -6 0.37580157663508379 2.5408650916807378 -3 -0.91506351183037493 1.5849364925866429 -3 -1.107852388446384 3.1911857209629071 -3 -1.107852388446384 3.1911857209629071 -6 -6.2995949836986492e-09 5 -3 0.37580157663508379 2.5408650916807378 -3 -1.107852388446384 3.1911857209629071 -3 -1.107852388446384 3.1911857209629071 -6 0.37580157663508379 2.5408650916807378 -6 -6.2995949836986492e-09 5 -6 -1.107852388446384 3.1911857209629071 -6 -6.2995949836986492e-09 5 -3 0.37580157663508379 2.5408650916807378 -6 -6.2995949836986492e-09 5 -3 -1.107852388446384 3.1911857209629071 -6 0.37580157663508379 2.5408650916807378 -3 -2.4999999999999991 4.3301270189221936 -3 -6.2995949836986492e-09 5 -3 -1.107852388446384 3.1911857209629071 -3 -1.107852388446384 3.1911857209629071 -6 -6.2995949836986492e-09 5 -6 0.37580157663508379 2.5408650916807378 -6 -1.107852388446384 3.1911857209629071 -6 -1.107852388446384 3.1911857209629071 -9 -2.4999999999999991 4.3301270189221936 -6 -6.2995949836986492e-09 5 -6 -1.107852388446384 3.1911857209629071 -6 -1.107852388446384 3.1911857209629071 -9 0.37580157663508379 2.5408650916807378 -9 -6.2995949836986492e-09 5 -6 -1.107852388446384 3.1911857209629071 -9 0.37580157663508379 2.5408650916807378 -6 0.37580157663508379 2.5408650916807378 -6 -0.91506351183037493 1.5849364925866429 -6 -1.107852388446384 3.1911857209629071 -6 -1.107852388446384 3.1911857209629071 -9 2.4999999879139869 4.3301270259000564 -9 -6.2995949836986492e-09 5 -6 0.37580157663508379 2.5408650916807378 -9 2.4999999879139869 4.3301270259000564 -6 -6.2995949836986492e-09 5 -6 2.4999999879139869 4.3301270259000564 -6 0.37580157663508379 2.5408650916807378 -6 0.37580157663508379 2.5408650916807378 -9 2.4999999879139869 4.3301270259000564 -6 0.37580157663508379 2.5408650916807378 -6 0.37580157663508379 2.5408650916807378 -9 2.465848112410058 1.4099871989758821 -9 -6.2995949836986492e-09 5 -9 -2.4999999999999991 4.3301270189221936 -6 -1.107852388446384 3.1911857209629071 -9 -6.2995949836986492e-09 5 -6 -6.2995949836986492e-09 5 -6 -2.4999999999999991 4.3301270189221936 -3 -1.107852388446384 3.1911857209629071 -6 -6.2995949836986492e-09 5 -3 -2.4999999999999991 4.3301270189221936 -6 -1.107852388446384 3.1911857209629071 -6 -2.2253246846922492 2.366533744740174 -6 -2.2253246846922492 2.366533744740174 -9 -0.91506351183037493 1.5849364925866429 -6 -1.107852388446384 3.1911857209629071 -6 -1.107852388446384 3.1911857209629071 -9 -2.2253246846922492 2.366533744740174 -9 -1.107852388446384 3.1911857209629071 -9 -2.4999999999999991 4.3301270189221936 -6 -2.2253246846922492 2.366533744740174 -9 -1.107852388446384 3.1911857209629071 -6 -2.4999999999999991 4.3301270189221936 -9 -4.3301270221112951 2.4999999944763132 -6 -2.2253246846922492 2.366533744740174 -9 -2.4999999999999991 4.3301270189221936 -6 -4.3301270221112951 2.4999999944763132 -6 -2.4999999999999991 4.3301270189221936 -6 -2.2253246846922492 2.366533744740174 -6 -2.2253246846922492 2.366533744740174 -9 -0.91506351183037493 1.5849364925866429 -3 -1.107852388446384 3.1911857209629071 -3 -1.107852388446384 3.1911857209629071 -6 -2.2253246846922492 2.366533744740174 -6 -1.107852388446384 3.1911857209629071 -6 -2.4999999999999991 4.3301270189221936 -6 -2.2253246846922492 2.366533744740174 -6 -2.4999999999999991 4.3301270189221936 -3 -6.2995949836986492e-09 5 -6 -2.4999999999999991 4.3301270189221936 -6 -1.107852388446384 3.1911857209629071 -6 -2.4999999999999991 4.3301270189221936 -3 -2.4999999999999991 4.3301270189221936 -3 -1.107852388446384 3.1911857209629071 -3 -2.2253246846922492 2.366533744740174 -3 -2.2253246846922492 2.366533744740174 -6 -1.107852388446384 3.1911857209629071 -6 -2.4999999999999991 4.3301270189221936 -3 -2.2253246846922492 2.366533744740174 -6 -1.107852388446384 3.1911857209629071 -3 -2.4999999999999991 4.3301270189221936 -6 -4.3301270221112951 2.4999999944763132 -3 -2.2253246846922492 2.366533744740174 -6 -2.4999999999999991 4.3301270189221936 -3 -4.3301270221112951 2.4999999944763132 -3 -2.4999999999999991 4.3301270189221936 -3 -2.2253246846922492 2.366533744740174 -3 -2.2253246846922492 2.366533744740174 -6 -2.4999999999999991 4.3301270189221936 -6 -4.3301270221112951 2.4999999944763132 -6 -2.2253246846922492 2.366533744740174 -6 -4.3301270221112951 2.4999999944763132 -3 -2.4999999999999991 4.3301270189221936 -3 -4.3301270221112951 2.4999999944763132 -3 -2.2253246846922492 2.366533744740174 -3 -4.3301270221112951 2.4999999944763132 0 -1.107852388446384 3.1911857209629071 -3 -2.4999999999999991 4.3301270189221936 -3 -2.2253246846922492 2.366533744740174 -3 -2.4999999999999991 4.3301270189221936 0 -6.2995949836986492e-09 5 -3 -2.4999999999999991 4.3301270189221936 -3 -1.107852388446384 3.1911857209629071 -3 -2.4999999999999991 4.3301270189221936 0 -4.3301270221112951 2.4999999944763132 0 -2.4999999999999991 4.3301270189221936 0 -2.2253246846922492 2.366533744740174 0 -2.2253246846922492 2.366533744740174 -3 -0.91506351183037493 1.5849364925866429 0 -1.107852388446384 3.1911857209629071 0 -1.107852388446384 3.1911857209629071 -3 -2.2253246846922492 2.366533744740174 -3 -2.4999999999999991 4.3301270189221936 -3 -4.3301270221112951 2.4999999944763132 0 -2.2253246846922492 2.366533744740174 -3 -2.4999999999999991 4.3301270189221936 0 -1.107852388446384 3.1911857209629071 -3 -2.4999999999999991 4.3301270189221936 0 -2.2253246846922492 2.366533744740174 -3 -1.107852388446384 3.1911857209629071 0 -2.4999999999999991 4.3301270189221936 0 -1.107852388446384 3.1911857209629071 0 -2.2253246846922492 2.366533744740174 0 -2.2253246846922492 2.366533744740174 -3 -5 -1.397247784140632e-08 0 -4.3301270221112951 2.4999999944763132 0 -2.2735805010731909 0.22641949675281539 0 -2.2735805010731909 0.22641949675281539 -3 -4.3301270221112951 2.4999999944763132 -3 -5 -1.397247784140632e-08 0 -2.2735805010731909 0.22641949675281539 -3 -4.3301270221112951 2.4999999944763132 0 -4.3301270221112951 2.4999999944763132 -3 -2.2735805010731909 0.22641949675281539 -3 -2.2253246846922492 2.366533744740174 -3 -4.3301270221112951 2.4999999944763132 0 -4.3301270221112951 2.4999999944763132 -3 -5 -1.397247784140632e-08 -3 -2.2735805010731909 0.22641949675281539 -3 -5 -1.397247784140632e-08 0 -2.2735805010731909 0.22641949675281539 -3 -5 -1.397247784140632e-08 -3 -2.9547160992544761 -1.820741508163664 -3 -5 -1.397247784140632e-08 0 -5 -1.397247784140632e-08 -3 -4.3301270160527148 -2.500000004970083 0 -2.9547160992544761 -1.820741508163664 -3 -5 -1.397247784140632e-08 0 -2.2735805010731909 0.22641949675281539 -3 -5 -1.397247784140632e-08 0 -2.9547160992544761 -1.820741508163664 -3 -2.2735805010731909 0.22641949675281539 0 -5 -1.397247784140632e-08 0 -2.2735805010731909 0.22641949675281539 0 -2.9547160992544761 -1.820741508163664 0 -2.9547160992544761 -1.820741508163664 -3 -0.66987297914647026 -2.499999999706382 -3 -2.2735805010731909 0.22641949675281539 -3 -2.9547160992544761 -1.820741508163664 -3 -2.2735805010731909 0.22641949675281539 0 -2.2735805010731909 0.22641949675281539 -3 -0.66987297914647026 -2.499999999706382 -3 0.20080558631870429 0.033909897404034287 -3 -2.2735805010731909 0.22641949675281539 0 -2.2735805010731909 0.22641949675281539 -3 0.20080558631870429 0.033909897404034287 -3 -0.91506351183037493 1.5849364925866429 -3 -2.2735805010731909 0.22641949675281539 0 -2.2735805010731909 0.22641949675281539 -3 -0.91506351183037493 1.5849364925866429 -3 -2.2253246846922492 2.366533744740174 -3 -2.2735805010731909 0.22641949675281539 0 -0.91506351183037493 1.5849364925866429 -3 -1.107852388446384 3.1911857209629071 -3 -2.2253246846922492 2.366533744740174 -3 -0.91506351183037493 1.5849364925866429 0 -2.2735805010731909 0.22641949675281539 0 -0.91506351183037493 1.5849364925866429 0 -0.91506351183037493 1.5849364925866429 -3 -2.2253246846922492 2.366533744740174 -3 -1.107852388446384 3.1911857209629071 0 -0.91506351183037493 1.5849364925866429 0 -2.2253246846922492 2.366533744740174 0 -2.2253246846922492 2.366533744740174 -3 -4.3301270221112951 2.4999999944763132 0 -2.2735805010731909 0.22641949675281539 0 -2.2735805010731909 0.22641949675281539 -3 -2.2253246846922492 2.366533744740174 -3 -0.91506351183037493 1.5849364925866429 0 -2.2735805010731909 0.22641949675281539 0 -2.2253246846922492 2.366533744740174 0 -2.2253246846922492 2.366533744740174 -3 -2.2735805010731909 0.22641949675281539 0 -4.3301270221112951 2.4999999944763132 0 -2.2253246846922492 2.366533744740174 0 -2.2253246846922492 2.366533744740174 -3 -0.91506351183037493 1.5849364925866429 -3 0.37580157663508379 2.5408650916807378 0 -1.107852388446384 3.1911857209629071 -3 -0.91506351183037493 1.5849364925866429 0 0.37580157663508379 2.5408650916807378 0 0.20080558631870429 0.033909897404034287 0 -0.91506351183037493 1.5849364925866429 0 -0.91506351183037493 1.5849364925866429 -3 0.20080558631870429 0.033909897404034287 0 -2.2735805010731909 0.22641949675281539 0 -0.91506351183037493 1.5849364925866429 0 -0.91506351183037493 1.5849364925866429 -3 0.20080558631870429 0.033909897404034287 0 0.37580157663508379 2.5408650916807378 0 0.37580157663508379 2.5408650916807378 -3 -0.91506351183037493 1.5849364925866429 -3 -0.66987297914647026 -2.499999999706382 0 -2.2735805010731909 0.22641949675281539 0 0.20080558631870429 0.033909897404034287 0 0.20080558631870429 0.033909897404034287 -3 -2.2735805010731909 0.22641949675281539 0 0.20080558631870429 0.033909897404034287 0 0.20080558631870429 0.033909897404034287 -3 -0.91506351183037493 1.5849364925866429 -3 0.20080558631870429 0.033909897404034287 -3 -0.66987297914647026 -2.499999999706382 0 0.95458002071209891 -1.657898275923388 -3 0.20080558631870429 0.033909897404034287 0 -2.2735805010731909 0.22641949675281539 0 -0.66987297914647026 -2.499999999706382 0 -0.66987297914647026 -2.499999999706382 -3 0.20080558631870429 0.033909897404034287 -3 0.20080558631870429 0.033909897404034287 0 2.3883545080289421 -0.94497882694672608 0 0.95458002071209891 -1.657898275923388 0 0.95458002071209891 -1.657898275923388 -3 2.3883545080289421 -0.94497882694672608 0 0.20080558631870429 0.033909897404034287 0 0.20080558631870429 0.033909897404034287 -3 0.95458002071209891 -1.657898275923388 -3 0.20080558631870429 0.033909897404034287 -3 2.3883545080289421 -0.94497882694672608 0 2.465848112410058 1.4099871989758821 -3 0.20080558631870429 0.033909897404034287 0 2.3883545080289421 -0.94497882694672608 0 0.20080558631870429 0.033909897404034287 0 2.465848112410058 1.4099871989758821 0 2.465848112410058 1.4099871989758821 -3 0.37580157663508379 2.5408650916807378 0 2.4999999879139869 4.3301270259000564 0 2.465848112410058 1.4099871989758821 0 2.465848112410058 1.4099871989758821 -3 0.37580157663508379 2.5408650916807378 -3 0.20080558631870429 0.033909897404034287 0 2.465848112410058 1.4099871989758821 -3 0.37580157663508379 2.5408650916807378 0 0.20080558631870429 0.033909897404034287 0 0.37580157663508379 2.5408650916807378 0 2.465848112410058 1.4099871989758821 0 2.465848112410058 1.4099871989758821 -3 0.37580157663508379 2.5408650916807378 -3 0.20080558631870429 0.033909897404034287 -3 2.465848112410058 1.4099871989758821 -3 0.20080558631870429 0.033909897404034287 0 0.20080558631870429 0.033909897404034287 -3 2.3883545080289421 -0.94497882694672608 -3 2.465848112410058 1.4099871989758821 -3 2.3883545080289421 -0.94497882694672608 0 2.3883545080289421 -0.94497882694672608 -3 0.20080558631870429 0.033909897404034287 -3 0.95458002071209891 -1.657898275923388 -3 2.3883545080289421 -0.94497882694672608 0 -0.91506351183037493 1.5849364925866429 -3 0.37580157663508379 2.5408650916807378 -3 -1.107852388446384 3.1911857209629071 -3 0.37580157663508379 2.5408650916807378 0 0.20080558631870429 0.033909897404034287 -3 0.37580157663508379 2.5408650916807378 -3 -0.91506351183037493 1.5849364925866429 -3 0.20080558631870429 0.033909897404034287 0 0.20080558631870429 0.033909897404034287 -3 0.37580157663508379 2.5408650916807378 -3 0.37580157663508379 2.5408650916807378 -6 -0.91506351183037493 1.5849364925866429 -6 0.20080558631870429 0.033909897404034287 -6 0.37580157663508379 2.5408650916807378 -6 -0.91506351183037493 1.5849364925866429 -6 0.20080558631870429 0.033909897404034287 -3 -0.91506351183037493 1.5849364925866429 -6 0.37580157663508379 2.5408650916807378 -6 -1.107852388446384 3.1911857209629071 -6 0.37580157663508379 2.5408650916807378 -3 0.20080558631870429 0.033909897404034287 -3 -2.2735805010731909 0.22641949675281539 -3 -0.91506351183037493 1.5849364925866429 -3 -0.91506351183037493 1.5849364925866429 -6 -0.91506351183037493 1.5849364925866429 -6 0.37580157663508379 2.5408650916807378 -3 -1.107852388446384 3.1911857209629071 -6 -0.91506351183037493 1.5849364925866429 -3 0.37580157663508379 2.5408650916807378 -3 0.20080558631870429 0.033909897404034287 -3 -0.91506351183037493 1.5849364925866429 -3 -0.91506351183037493 1.5849364925866429 -6 0.20080558631870429 0.033909897404034287 -6 -0.66987297914647026 -2.499999999706382 -3 0.95458002071209891 -1.657898275923388 -6 0.20080558631870429 0.033909897404034287 -3 -2.2735805010731909 0.22641949675281539 -3 -0.66987297914647026 -2.499999999706382 -3 -0.66987297914647026 -2.499999999706382 -6 0.20080558631870429 0.033909897404034287 -6 -0.66987297914647026 -2.499999999706382 -3 -2.2735805010731909 0.22641949675281539 -3 0.20080558631870429 0.033909897404034287 -3 0.20080558631870429 0.033909897404034287 -6 -2.2735805010731909 0.22641949675281539 -3 0.20080558631870429 0.033909897404034287 -3 0.20080558631870429 0.033909897404034287 -6 -0.91506351183037493 1.5849364925866429 -6 2.3883545080289421 -0.94497882694672608 -3 0.20080558631870429 0.033909897404034287 -3 0.20080558631870429 0.033909897404034287 -6 0.95458002071209891 -1.657898275923388 -6 2.3883545080289421 -0.94497882694672608 -6 0.20080558631870429 0.033909897404034287 -6 0.95458002071209891 -1.657898275923388 -6 2.3883545080289421 -0.94497882694672608 -3 0.20080558631870429 0.033909897404034287 -3 2.3883545080289421 -0.94497882694672608 -3 0.95458002071209891 -1.657898275923388 -3 0.95458002071209891 -1.657898275923388 -6 0.20080558631870429 0.033909897404034287 -6 2.3883545080289421 -0.94497882694672608 -3 2.465848112410058 1.4099871989758821 -6 0.20080558631870429 0.033909897404034287 -3 0.20080558631870429 0.033909897404034287 -6 2.3883545080289421 -0.94497882694672608 -6 2.465848112410058 1.4099871989758821 -6 2.3883545080289421 -0.94497882694672608 -3 2.3883545080289421 -0.94497882694672608 -3 0.20080558631870429 0.033909897404034287 -3 2.465848112410058 1.4099871989758821 -3 2.465848112410058 1.4099871989758821 -6 0.37580157663508379 2.5408650916807378 -3 2.4999999879139869 4.3301270259000564 -3 2.465848112410058 1.4099871989758821 -3 2.465848112410058 1.4099871989758821 -6 0.37580157663508379 2.5408650916807378 -6 0.20080558631870429 0.033909897404034287 -3 2.465848112410058 1.4099871989758821 -6 0.37580157663508379 2.5408650916807378 -3 0.37580157663508379 2.5408650916807378 -6 0.20080558631870429 0.033909897404034287 -6 2.465848112410058 1.4099871989758821 -6 0.20080558631870429 0.033909897404034287 -3 0.20080558631870429 0.033909897404034287 -3 0.37580157663508379 2.5408650916807378 -3 2.465848112410058 1.4099871989758821 -3 2.465848112410058 1.4099871989758821 -6 0.37580157663508379 2.5408650916807378 -9 0.20080558631870429 0.033909897404034287 -6 2.465848112410058 1.4099871989758821 -9 0.37580157663508379 2.5408650916807378 -6 0.37580157663508379 2.5408650916807378 -6 2.4999999879139869 4.3301270259000564 -6 2.465848112410058 1.4099871989758821 -6 2.465848112410058 1.4099871989758821 -9 0.20080558631870429 0.033909897404034287 -6 0.37580157663508379 2.5408650916807378 -6 2.465848112410058 1.4099871989758821 -6 2.465848112410058 1.4099871989758821 -9 2.3883545080289421 -0.94497882694672608 -6 0.20080558631870429 0.033909897404034287 -6 0.20080558631870429 0.033909897404034287 -9 0.95458002071209891 -1.657898275923388 -9 0.20080558631870429 0.033909897404034287 -6 2.3883545080289421 -0.94497882694672608 -6 0.95458002071209891 -1.657898275923388 -6 0.95458002071209891 -1.657898275923388 -9 0.20080558631870429 0.033909897404034287 -9 2.3883545080289421 -0.94497882694672608 -6 2.465848112410058 1.4099871989758821 -9 0.20080558631870429 0.033909897404034287 -6 2.3883545080289421 -0.94497882694672608 -6 0.20080558631870429 0.033909897404034287 -6 2.465848112410058 1.4099871989758821 -6 2.465848112410058 1.4099871989758821 -9 -2.2735805010731909 0.22641949675281539 -6 0.20080558631870429 0.033909897404034287 -6 0.20080558631870429 0.033909897404034287 -9 -0.91506351183037493 1.5849364925866429 -9 -0.66987297914647026 -2.499999999706382 -6 -2.2735805010731909 0.22641949675281539 -6 0.20080558631870429 0.033909897404034287 -6 0.20080558631870429 0.033909897404034287 -9 -2.2735805010731909 0.22641949675281539 -6 -0.66987297914647026 -2.499999999706382 -6 -0.66987297914647026 -2.499999999706382 -9 0.20080558631870429 0.033909897404034287 -9 0.20080558631870429 0.033909897404034287 -9 -0.66987297914647026 -2.499999999706382 -6 0.95458002071209891 -1.657898275923388 -9 0.20080558631870429 0.033909897404034287 -6 -0.91506351183037493 1.5849364925866429 -9 0.37580157663508379 2.5408650916807378 -6 -1.107852388446384 3.1911857209629071 -9 -0.91506351183037493 1.5849364925866429 -6 0.20080558631870429 0.033909897404034287 -6 -2.2735805010731909 0.22641949675281539 -6 -0.91506351183037493 1.5849364925866429 -6 -0.91506351183037493 1.5849364925866429 -9 0.20080558631870429 0.033909897404034287 -6 0.37580157663508379 2.5408650916807378 -6 0.37580157663508379 2.5408650916807378 -9 -0.91506351183037493 1.5849364925866429 -9 0.37580157663508379 2.5408650916807378 -6 0.20080558631870429 0.033909897404034287 -6 -0.91506351183037493 1.5849364925866429 -6 -0.91506351183037493 1.5849364925866429 -9 -2.2735805010731909 0.22641949675281539 -6 -4.3301270221112951 2.4999999944763132 -6 -2.2253246846922492 2.366533744740174 -6 -2.2253246846922492 2.366533744740174 -9 -1.107852388446384 3.1911857209629071 -6 -0.91506351183037493 1.5849364925866429 -6 -2.2253246846922492 2.366533744740174 -6 -2.2253246846922492 2.366533744740174 -9 -4.3301270221112951 2.4999999944763132 -6 -2.2735805010731909 0.22641949675281539 -6 -2.2735805010731909 0.22641949675281539 -9 -2.2253246846922492 2.366533744740174 -9 -2.2735805010731909 0.22641949675281539 -6 -0.91506351183037493 1.5849364925866429 -6 -0.91506351183037493 1.5849364925866429 -9 -2.2253246846922492 2.366533744740174 -9 -0.91506351183037493 1.5849364925866429 -6 -2.2735805010731909 0.22641949675281539 -6 -2.2253246846922492 2.366533744740174 -6 -2.2253246846922492 2.366533744740174 -9 -5 -1.397247784140632e-08 -6 -4.3301270221112951 2.4999999944763132 -6 -2.2735805010731909 0.22641949675281539 -6 -2.2735805010731909 0.22641949675281539 -9 -4.3301270221112951 2.4999999944763132 -9 -5 -1.397247784140632e-08 -6 -2.2735805010731909 0.22641949675281539 -9 -4.3301270221112951 2.4999999944763132 -6 -5 -1.397247784140632e-08 -3 -4.3301270221112951 2.4999999944763132 -3 -2.2735805010731909 0.22641949675281539 -3 -2.2735805010731909 0.22641949675281539 -6 -4.3301270221112951 2.4999999944763132 -6 -2.2735805010731909 0.22641949675281539 -6 -2.2253246846922492 2.366533744740174 -6 -4.3301270221112951 2.4999999944763132 -3 -4.3301270221112951 2.4999999944763132 -6 -5 -1.397247784140632e-08 -6 -2.2735805010731909 0.22641949675281539 -6 -5 -1.397247784140632e-08 -3 -4.3301270221112951 2.4999999944763132 -6 -5 -1.397247784140632e-08 -3 -2.2735805010731909 0.22641949675281539 -6 -4.3301270221112951 2.4999999944763132 -3 -1.107852388446384 3.1911857209629071 -3 -0.91506351183037493 1.5849364925866429 -3 -2.2253246846922492 2.366533744740174 -3 -2.2253246846922492 2.366533744740174 -6 -2.2735805010731909 0.22641949675281539 -3 -4.3301270221112951 2.4999999944763132 -3 -2.2253246846922492 2.366533744740174 -3 -2.2253246846922492 2.366533744740174 -6 -0.91506351183037493 1.5849364925866429 -6 -1.107852388446384 3.1911857209629071 -6 -2.2253246846922492 2.366533744740174 -6 -0.91506351183037493 1.5849364925866429 -3 -0.91506351183037493 1.5849364925866429 -3 -2.2735805010731909 0.22641949675281539 -3 -2.2253246846922492 2.366533744740174 -3 -2.2253246846922492 2.366533744740174 -6 -2.2735805010731909 0.22641949675281539 -6 -0.91506351183037493 1.5849364925866429 -6 -2.2253246846922492 2.366533744740174 -6 -2.2735805010731909 0.22641949675281539 -3 -2.2735805010731909 0.22641949675281539 -3 -0.91506351183037493 1.5849364925866429 -3 -0.91506351183037493 1.5849364925866429 -6 -2.2253246846922492 2.366533744740174 -6 -4.3301270221112951 2.4999999944763132 -3 -2.2735805010731909 0.22641949675281539 -3 -2.2735805010731909 0.22641949675281539 -6 -2.2253246846922492 2.366533744740174 -6 -2.2735805010731909 0.22641949675281539 -6 -0.66987297914647026 -2.499999999706382 -6 0.20080558631870429 0.033909897404034287 -6 -2.2735805010731909 0.22641949675281539 -3 -2.2735805010731909 0.22641949675281539 -6 0.20080558631870429 0.033909897404034287 -6 -0.91506351183037493 1.5849364925866429 -6 -2.2735805010731909 0.22641949675281539 -3 -0.66987297914647026 -2.499999999706382 -6 -2.2735805010731909 0.22641949675281539 -6 -2.9547160992544761 -1.820741508163664 -6 -2.2735805010731909 0.22641949675281539 -3 -5 -1.397247784140632e-08 -6 -4.3301270160527148 -2.500000004970083 -3 -2.9547160992544761 -1.820741508163664 -6 -5 -1.397247784140632e-08 -3 -5 -1.397247784140632e-08 -3 -2.2735805010731909 0.22641949675281539 -3 -2.9547160992544761 -1.820741508163664 -3 -2.9547160992544761 -1.820741508163664 -6 -2.2735805010731909 0.22641949675281539 -6 -5 -1.397247784140632e-08 -6 -2.9547160992544761 -1.820741508163664 -6 -5 -1.397247784140632e-08 -3 -2.2735805010731909 0.22641949675281539 -6 -5 -1.397247784140632e-08 -3 -2.9547160992544761 -1.820741508163664 -6 -2.2735805010731909 0.22641949675281539 -3 -5 -1.397247784140632e-08 -9 -4.3301270160527148 -2.500000004970083 -6 -2.9547160992544761 -1.820741508163664 -9 -5 -1.397247784140632e-08 -6 -2.2735805010731909 0.22641949675281539 -9 -5 -1.397247784140632e-08 -6 -2.9547160992544761 -1.820741508163664 -9 -2.2735805010731909 0.22641949675281539 -6 -5 -1.397247784140632e-08 -6 -2.2735805010731909 0.22641949675281539 -6 -2.9547160992544761 -1.820741508163664 -6 -2.9547160992544761 -1.820741508163664 -9 -0.66987297914647026 -2.499999999706382 -9 -2.2735805010731909 0.22641949675281539 -6 -2.9547160992544761 -1.820741508163664 -9 -0.66987297914647026 -2.499999999706382 -6 -2.2735805010731909 0.22641949675281539 -6 -0.66987297914647026 -2.499999999706382 -6 -2.9547160992544761 -1.820741508163664 -6 -2.9547160992544761 -1.820741508163664 -9 -2.5000000000000022 -4.3301270189221919 -6 -0.66987297914647026 -2.499999999706382 -6 -0.66987297914647026 -2.499999999706382 -9 -2.9547160992544761 -1.820741508163664 -9 -0.66987297914647026 -2.499999999706382 -6 -2.5000000000000022 -4.3301270189221919 -6 -2.9547160992544761 -1.820741508163664 -6 -2.9547160992544761 -1.820741508163664 -9 -2.5000000000000022 -4.3301270189221919 -6 -4.3301270160527148 -2.500000004970083 -6 -2.9547160992544761 -1.820741508163664 -6 -2.9547160992544761 -1.820741508163664 -9 -4.3301270160527148 -2.500000004970083 -6 -5 -1.397247784140632e-08 -6 -2.9547160992544761 -1.820741508163664 -6 -2.9547160992544761 -1.820741508163664 -9 -4.3301270160527148 -2.500000004970083 -9 -2.5000000000000022 -4.3301270189221919 -6 -2.9547160992544761 -1.820741508163664 -9 -4.3301270160527148 -2.500000004970083 -6 -4.3301270160527148 -2.500000004970083 -6 -2.5000000000000022 -4.3301270189221919 -3 -2.9547160992544761 -1.820741508163664 -6 -4.3301270160527148 -2.500000004970083 -3 -5 -1.397247784140632e-08 -6 -4.3301270160527148 -2.500000004970083 -6 -2.9547160992544761 -1.820741508163664 -6 -4.3301270160527148 -2.500000004970083 -3 -4.3301270160527148 -2.500000004970083 -3 -5 -1.397247784140632e-08 -3 -2.9547160992544761 -1.820741508163664 -3 -2.9547160992544761 -1.820741508163664 -6 -2.5000000000000022 -4.3301270189221919 -3 -4.3301270160527148 -2.500000004970083 -3 -2.9547160992544761 -1.820741508163664 -3 -2.9547160992544761 -1.820741508163664 -6 -0.66987297914647026 -2.499999999706382 -3 -2.5000000000000022 -4.3301270189221919 -3 -2.9547160992544761 -1.820741508163664 -3 -2.9547160992544761 -1.820741508163664 -6 -2.2735805010731909 0.22641949675281539 -3 -0.66987297914647026 -2.499999999706382 -3 -2.9547160992544761 -1.820741508163664 -3 -2.9547160992544761 -1.820741508163664 -6 -2.5000000000000022 -4.3301270189221919 -3 -0.66987297914647026 -2.499999999706382 -3 -0.66987297914647026 -2.499999999706382 -6 -2.9547160992544761 -1.820741508163664 -6 -0.66987297914647026 -2.499999999706382 -6 -2.2735805010731909 0.22641949675281539 -3 -2.9547160992544761 -1.820741508163664 -6 -0.66987297914647026 -2.499999999706382 -3 -2.5000000000000022 -4.3301270189221919 -6 -0.66987297914647026 -2.499999999706382 -6 -2.9547160992544761 -1.820741508163664 -6 -2.5000000000000022 -4.3301270189221919 -3 -4.3301270160527148 -2.500000004970083 -6 -2.5000000000000022 -4.3301270189221919 -6 -2.9547160992544761 -1.820741508163664 -6 -2.5000000000000022 -4.3301270189221919 -3 -2.5000000000000022 -4.3301270189221919 -6 6.9142305214597846e-09 -5 -3 -0.66987297914647026 -2.499999999706382 -6 -2.5000000000000022 -4.3301270189221919 -3 -2.5000000000000022 -4.3301270189221919 -9 6.9142305214597846e-09 -5 -6 -0.66987297914647026 -2.499999999706382 -9 -2.5000000000000022 -4.3301270189221919 -6 -0.66987297914647026 -2.499999999706382 -9 6.9142305214597846e-09 -5 -6 0.91506351643986317 -3.4150635091400758 -9 -0.66987297914647026 -2.499999999706382 -6 6.9142305214597846e-09 -5 -6 -2.5000000000000022 -4.3301270189221919 -6 -0.66987297914647026 -2.499999999706382 -6 -0.66987297914647026 -2.499999999706382 -9 6.9142305214597846e-09 -5 -6 -0.66987297914647026 -2.499999999706382 -6 0.91506351643986317 -3.4150635091400758 -6 0.91506351643986317 -3.4150635091400758 -9 0.95458002071209891 -1.657898275923388 -9 -0.66987297914647026 -2.499999999706382 -6 0.91506351643986317 -3.4150635091400758 -9 0.91506351643986317 -3.4150635091400758 -6 -0.66987297914647026 -2.499999999706382 -6 0.20080558631870429 0.033909897404034287 -6 0.95458002071209891 -1.657898275923388 -6 0.95458002071209891 -1.657898275923388 -9 -0.66987297914647026 -2.499999999706382 -6 0.95458002071209891 -1.657898275923388 -6 0.91506351643986317 -3.4150635091400758 -6 0.95458002071209891 -1.657898275923388 -9 0.95458002071209891 -1.657898275923388 -6 2.3883545080289421 -0.94497882694672608 -6 2.217625015551433 -2.5696135239339939 -6 2.217625015551433 -2.5696135239339939 -9 2.3883545080289421 -0.94497882694672608 -6 0.95458002071209891 -1.657898275923388 -6 0.95458002071209891 -1.657898275923388 -9 2.217625015551433 -2.5696135239339939 -9 0.91506351643986317 -3.4150635091400758 -6 0.95458002071209891 -1.657898275923388 -6 2.217625015551433 -2.5696135239339939 -6 2.217625015551433 -2.5696135239339939 -9 0.95458002071209891 -1.657898275923388 -9 0.91506351643986317 -3.4150635091400758 -6 2.217625015551433 -2.5696135239339939 -9 0.95458002071209891 -1.657898275923388 -6 6.9142305214597846e-09 -5 -9 2.500000010727558 -4.3301270127286351 -6 0.91506351643986317 -3.4150635091400758 -9 6.9142305214597846e-09 -5 -6 2.500000010727558 -4.3301270127286351 -6 6.9142305214597846e-09 -5 -6 0.91506351643986317 -3.4150635091400758 -6 0.91506351643986317 -3.4150635091400758 -9 2.500000010727558 -4.3301270127286351 -6 0.91506351643986317 -3.4150635091400758 -6 2.217625015551433 -2.5696135239339939 -6 2.217625015551433 -2.5696135239339939 -9 0.91506351643986317 -3.4150635091400758 -9 2.500000010727558 -4.3301270127286351 -6 2.217625015551433 -2.5696135239339939 -9 0.91506351643986317 -3.4150635091400758 -6 2.500000010727558 -4.3301270127286351 -3 6.9142305214597846e-09 -5 -3 0.91506351643986317 -3.4150635091400758 -3 0.91506351643986317 -3.4150635091400758 -6 0.91506351643986317 -3.4150635091400758 -6 2.500000010727558 -4.3301270127286351 -6 2.217625015551433 -2.5696135239339939 -6 2.500000010727558 -4.3301270127286351 -3 0.91506351643986317 -3.4150635091400758 -6 2.500000010727558 -4.3301270127286351 -3 2.217625015551433 -2.5696135239339939 -6 0.91506351643986317 -3.4150635091400758 -3 2.500000010727558 -4.3301270127286351 -3 0.91506351643986317 -3.4150635091400758 -3 2.217625015551433 -2.5696135239339939 -3 2.217625015551433 -2.5696135239339939 -6 6.9142305214597846e-09 -5 -6 2.500000010727558 -4.3301270127286351 -6 0.91506351643986317 -3.4150635091400758 -6 2.500000010727558 -4.3301270127286351 -3 6.9142305214597846e-09 -5 -6 2.500000010727558 -4.3301270127286351 -3 0.91506351643986317 -3.4150635091400758 -6 6.9142305214597846e-09 -5 -3 0.95458002071209891 -1.657898275923388 -6 0.91506351643986317 -3.4150635091400758 -3 2.217625015551433 -2.5696135239339939 -6 0.95458002071209891 -1.657898275923388 -3 2.3883545080289421 -0.94497882694672608 -3 0.95458002071209891 -1.657898275923388 -3 0.95458002071209891 -1.657898275923388 -6 2.217625015551433 -2.5696135239339939 -6 2.3883545080289421 -0.94497882694672608 -6 0.95458002071209891 -1.657898275923388 -6 2.217625015551433 -2.5696135239339939 -6 2.3883545080289421 -0.94497882694672608 -3 0.95458002071209891 -1.657898275923388 -3 2.3883545080289421 -0.94497882694672608 -3 2.217625015551433 -2.5696135239339939 -3 2.217625015551433 -2.5696135239339939 -6 0.91506351643986317 -3.4150635091400758 -3 0.95458002071209891 -1.657898275923388 -3 2.217625015551433 -2.5696135239339939 -3 2.217625015551433 -2.5696135239339939 -6 0.95458002071209891 -1.657898275923388 -6 0.91506351643986317 -3.4150635091400758 -6 2.217625015551433 -2.5696135239339939 -6 0.91506351643986317 -3.4150635091400758 -3 -0.66987297914647026 -2.499999999706382 -3 0.20080558631870429 0.033909897404034287 -3 0.95458002071209891 -1.657898275923388 -3 0.95458002071209891 -1.657898275923388 -6 0.20080558631870429 0.033909897404034287 -6 -0.66987297914647026 -2.499999999706382 -6 0.95458002071209891 -1.657898275923388 -6 -0.66987297914647026 -2.499999999706382 -3 -0.66987297914647026 -2.499999999706382 -3 0.95458002071209891 -1.657898275923388 -3 0.91506351643986317 -3.4150635091400758 -3 0.95458002071209891 -1.657898275923388 -6 0.95458002071209891 -1.657898275923388 -6 -0.66987297914647026 -2.499999999706382 -6 0.91506351643986317 -3.4150635091400758 -6 -0.66987297914647026 -2.499999999706382 -3 0.95458002071209891 -1.657898275923388 -6 -0.66987297914647026 -2.499999999706382 -3 0.91506351643986317 -3.4150635091400758 -6 0.91506351643986317 -3.4150635091400758 -3 6.9142305214597846e-09 -5 -3 -0.66987297914647026 -2.499999999706382 -3 0.91506351643986317 -3.4150635091400758 -3 0.91506351643986317 -3.4150635091400758 -6 -0.66987297914647026 -2.499999999706382 -6 6.9142305214597846e-09 -5 -6 0.91506351643986317 -3.4150635091400758 -6 6.9142305214597846e-09 -5 -3 -0.66987297914647026 -2.499999999706382 -6 6.9142305214597846e-09 -5 -3 0.91506351643986317 -3.4150635091400758 -6 -0.66987297914647026 -2.499999999706382 -3 -2.5000000000000022 -4.3301270189221919 -6 6.9142305214597846e-09 -5 -6 -0.66987297914647026 -2.499999999706382 -6 6.9142305214597846e-09 -5 -3 6.9142305214597846e-09 -5 -3 -2.5000000000000022 -4.3301270189221919 -3 -0.66987297914647026 -2.499999999706382 -3 -0.66987297914647026 -2.499999999706382 -6 -0.66987297914647026 -2.499999999706382 -3 6.9142305214597846e-09 -5 -3 0.91506351643986317 -3.4150635091400758 -3 6.9142305214597846e-09 -5 0 -2.5000000000000022 -4.3301270189221919 -3 6.9142305214597846e-09 -5 -3 -0.66987297914647026 -2.499999999706382 -3 6.9142305214597846e-09 -5 0 0.95458002071209891 -1.657898275923388 -3 -0.66987297914647026 -2.499999999706382 -3 0.91506351643986317 -3.4150635091400758 -3 -0.66987297914647026 -2.499999999706382 0 0.20080558631870429 0.033909897404034287 -3 -0.66987297914647026 -2.499999999706382 -3 0.95458002071209891 -1.657898275923388 -3 -0.66987297914647026 -2.499999999706382 0 2.3883545080289421 -0.94497882694672608 -3 0.95458002071209891 -1.657898275923388 -3 2.217625015551433 -2.5696135239339939 -3 2.3883545080289421 -0.94497882694672608 0 0.95458002071209891 -1.657898275923388 -3 0.91506351643986317 -3.4150635091400758 -3 2.217625015551433 -2.5696135239339939 -3 0.91506351643986317 -3.4150635091400758 0 0.91506351643986317 -3.4150635091400758 -3 2.500000010727558 -4.3301270127286351 -3 2.217625015551433 -2.5696135239339939 -3 2.500000010727558 -4.3301270127286351 0 6.9142305214597846e-09 -5 -3 2.500000010727558 -4.3301270127286351 -3 0.91506351643986317 -3.4150635091400758 -3 2.500000010727558 -4.3301270127286351 0 2.500000010727558 -4.3301270127286351 0 0.91506351643986317 -3.4150635091400758 0 2.217625015551433 -2.5696135239339939 0 2.217625015551433 -2.5696135239339939 -3 0.91506351643986317 -3.4150635091400758 -3 2.500000010727558 -4.3301270127286351 0 2.217625015551433 -2.5696135239339939 -3 0.91506351643986317 -3.4150635091400758 0 2.500000010727558 -4.3301270127286351 0 6.9142305214597846e-09 -5 0 0.91506351643986317 -3.4150635091400758 0 0.91506351643986317 -3.4150635091400758 -3 6.9142305214597846e-09 -5 -3 2.500000010727558 -4.3301270127286351 0 0.91506351643986317 -3.4150635091400758 -3 6.9142305214597846e-09 -5 0 0.91506351643986317 -3.4150635091400758 0 0.95458002071209891 -1.657898275923388 0 2.217625015551433 -2.5696135239339939 0 2.217625015551433 -2.5696135239339939 -3 0.95458002071209891 -1.657898275923388 -3 0.91506351643986317 -3.4150635091400758 0 2.217625015551433 -2.5696135239339939 -3 0.95458002071209891 -1.657898275923388 0 0.95458002071209891 -1.657898275923388 0 2.3883545080289421 -0.94497882694672608 0 2.217625015551433 -2.5696135239339939 0 2.217625015551433 -2.5696135239339939 -3 2.3883545080289421 -0.94497882694672608 0 0.95458002071209891 -1.657898275923388 0 0.95458002071209891 -1.657898275923388 -3 2.217625015551433 -2.5696135239339939 -3 0.95458002071209891 -1.657898275923388 -3 -0.66987297914647026 -2.499999999706382 0 0.91506351643986317 -3.4150635091400758 -3 0.91506351643986317 -3.4150635091400758 0 -0.66987297914647026 -2.499999999706382 0 0.95458002071209891 -1.657898275923388 0 0.91506351643986317 -3.4150635091400758 0 0.95458002071209891 -1.657898275923388 -3 -0.66987297914647026 -2.499999999706382 0 0.20080558631870429 0.033909897404034287 0 0.95458002071209891 -1.657898275923388 0 0.95458002071209891 -1.657898275923388 -3 6.9142305214597846e-09 -5 0 -2.5000000000000022 -4.3301270189221919 0 -0.66987297914647026 -2.499999999706382 0 -0.66987297914647026 -2.499999999706382 -3 -0.66987297914647026 -2.499999999706382 -3 6.9142305214597846e-09 -5 0 0.91506351643986317 -3.4150635091400758 -3 -0.66987297914647026 -2.499999999706382 0 6.9142305214597846e-09 -5 0 -0.66987297914647026 -2.499999999706382 0 0.91506351643986317 -3.4150635091400758 0 0.91506351643986317 -3.4150635091400758 -3 -2.5000000000000022 -4.3301270189221919 -3 6.9142305214597846e-09 -5 0 -0.66987297914647026 -2.499999999706382 -3 -2.5000000000000022 -4.3301270189221919 0 -2.5000000000000022 -4.3301270189221919 -3 -0.66987297914647026 -2.499999999706382 -3 -2.9547160992544761 -1.820741508163664 -3 -2.5000000000000022 -4.3301270189221919 0 -4.3301270160527148 -2.500000004970083 -3 -2.5000000000000022 -4.3301270189221919 -3 -2.9547160992544761 -1.820741508163664 -3 -2.5000000000000022 -4.3301270189221919 0 -2.5000000000000022 -4.3301270189221919 0 -0.66987297914647026 -2.499999999706382 0 -0.66987297914647026 -2.499999999706382 -3 -2.9547160992544761 -1.820741508163664 -3 -0.66987297914647026 -2.499999999706382 0 -2.5000000000000022 -4.3301270189221919 0 -2.9547160992544761 -1.820741508163664 0 -2.9547160992544761 -1.820741508163664 -3 -0.66987297914647026 -2.499999999706382 -3 -2.2735805010731909 0.22641949675281539 0 -2.9547160992544761 -1.820741508163664 -3 -0.66987297914647026 -2.499999999706382 0 -2.2735805010731909 0.22641949675281539 0 -0.66987297914647026 -2.499999999706382 0 -2.9547160992544761 -1.820741508163664 0 -2.9547160992544761 -1.820741508163664 -3 -4.3301270160527148 -2.500000004970083 0 -5 -1.397247784140632e-08 0 -2.9547160992544761 -1.820741508163664 0 -2.9547160992544761 -1.820741508163664 -3 -2.5000000000000022 -4.3301270189221919 0 -4.3301270160527148 -2.500000004970083 0 -2.9547160992544761 -1.820741508163664 0 -2.9547160992544761 -1.820741508163664 -3 -4.3301270160527148 -2.500000004970083 -3 -2.5000000000000022 -4.3301270189221919 0 -2.9547160992544761 -1.820741508163664 -3 -4.3301270160527148 -2.500000004970083 0 -5 -1.397247784140632e-08 -3 -4.3301270160527148 -2.500000004970083 -3 -2.9547160992544761 -1.820741508163664 -3 -4.3301270160527148 -2.500000004970083 0 
</DataArray>
</Points>
<Cells>
<DataArray type="UInt32" Name="connectivity" format="ascii">
0 1 2 3 4 5 6 7 8 9 10 11 12 13 14 15 16 17 18 19 20 21 22 23 24 25 26 27 28 29 30 31 32 33 34 35 36 37 38 39 40 41 42 43 44 45 46 47 48 49 50 51 52 53 54 55 56 57 58 59 60 61 62 63 64 65 66 67 68 69 70 71 72 73 74 75 76 77 78 79 80 81 82 83 84 85 86 87 88 89 90 91 92 93 94 95 96 97 98 99 100 101 102 103 104 105 106 107 108 109 110 111 112 113 114 115 116 117 118 119 120 121 122 123 124 125 126 127 128 129 130 131 132 133 134 135 136 137 138 139 140 141 142 143 144 145 146 147 148 149 150 151 152 153 154 155 156 157 158 159 160 161 162 163 164 165 166 167 168 169 170 171 172 173 174 175 176 177 178 179 180 181 182 183 184 185 186 187 188 189 190 191 192 193 194 195 196 197 198 199 200 201 202 203 204 205 206 207 208 209 210 211 212 213 214 215 216 217 218 219 220 221 222 223 224 225 226 227 228 229 230 231 232 233 234 235 236 237 238 239 240 241 242 243 244 245 246 247 248 249 250 251 252 253 254 255 256 257 258 259 260 261 262 263 264 265 266 267 268 269 270 271 272 273 274 275 276 277 278 279 280 281 282 283 284 285 286 287 288 289 290 291 292 293 294 295 296 297 298 299 300 301 302 303 304 305 306 307 308 309 310 311 312 313 314 315 316 317 318 319 320 321 322 323 324 325 326 327 328 329 330 331 332 333 334 335 336 337 338 339 340 341 342 343 344 345 346 347 348 349 350 351 352 353 354 355 356 357 358 359 360 361 362 363 364 365 366 367 368 369 370 371 372 373 374 375 376 377 378 379 380 381 382 383 384 385 386 387 388 389 390 391 392 393 394 395 396 397 398 399 400 401 402 403 404 405 406 407 408 409 410 411 412 413 414 415 416 417 418 419 420 421 422 423 424 425 426 427 428 429 430 431 432 433 434 435 436 437 438 439 440 441 442 443 444 445 446 447 448 449 450 451 452 453 454 455 456 457 458 459 460 461 462 463 464 465 466 467 468 469 470 471 472 473 474 475 476 477 478 479 480 481 482 483 484 485 486 487 488 489 490 491 492 493 494 495 496 497 498 499 500 501 502 503 504 505 506 507 508 509 510 511 512 513 514 515 516 517 518 519 520 521 522 523 524 525 526 527 528 529 530 531 532 533 534 535 536 537 538 539 540 541 542 543 544 545 546 547 548 549 550 551 552 553 554 555 556 557 558 559 560 561 562 563 564 565 566 567 568 569 570 571 572 573 574 575 576 577 578 579 580 581 582 583 584 585 586 587 588 589 590 591 592 593 594 595 596 597 598 599 600 601 602 603 604 605 606 607 608 609 610 611 612 613 614 615 616 617 618 619 620 621 622 623 624 625 626 627 628 629 630 631 632 633 634 635 636 637 638 639 640 641 642 643 644 645 646 647 648 649 650 651 652 653 654 655 656 657 658 659 660 661 662 663 664 665 666 667 668 669 670 671 672 673 674 675 676 677 678 679 680 681 682 683 684 685 686 687 688 689 690 691 692 693 694 695 696 697 698 699 700 701 702 703 704 705 706 707 708 709 710 711 712 713 714 715 716 717 718 719 720 721 722 723 724 725 726 727 728 729 730 731 732 733 734 735 736 737 738 739 740 741 742 743 744 745 746 747 748 749 750 751 752 753 754 755 756 757 758 759 760 761 762 763 764 765 766 767 768 769 770 771 772 773 774 775 776 777 778 779 780 781 782 783 784 785 786 787 788 789 790 791 792 793 794 795 796 797 798 799 800 801 802 803 804 805 806 807 808 809 810 811 812 813 814 815 816 817 818 819 820 821 822 823 824 825 826 827 828 829 830 831 832 833 834 835 836 837 838 839 840 841 842 843 844 845 846 847 848 849 850 851 852 853 854 855 856 857 858 859 860 861 862 863 864 865 866 867 868 869 870 871 872 873 874 875 876 877 878 879 880 881 882 883 884 885 886 887 888 889 890 891 892 893 894 895 896 897 898 899 900 901 902 903 904 905 906 907 908 909 910 911 912 913 914 915 916 917 918 919 920 921 922 923 924 925 926 927 928 929 930 931 932 933 934 935 936 937 938 939 940 941 942 943 944 945 946 947 948 949 950 951 952 953 954 955 956 957 958 959 960 961 962 963 964 965 966 967 968 969 970 971 972 973 974 975 976 977 978 979 980 981 982 983 984 985 986 987 988 989 990 991 992 993 994 995 996 997 998 999 1000 1001 1002 1003 1004 1005 1006 1007 1008 1009 1010 1011 1012 1013 1014 1015 1016 1017 1018 1019 1020 1021 1022 1023 1024 1025 1026 1027 1028 1029 1030 1031 1032 1033 1034 1035 1036 1037 1038 1039 1040 1041 1042 1043 1044 1045 1046 1047 1048 1049 1050 1051 1052 1053 1054 1055 1056 1057 1058 1059 1060 1061 1062 1063 1064 1065 1066 1067 1068 1069 1070 1071 1072 1073 1074 1075 1076 1077 1078 1079 1080 1081 1082 1083 1084 1085 1086 1087 1088 1089 1090 1091 1092 1093 1094 1095 1096 1097 1098 1099 1100 1101 1102 1103 1104 1105 1106 1107 1108 1109 1110 1111 1112 1113 1114 1115 1116 1117 1118 1119 1120 1121 1122 1123 1124 1125 1126 1127 1128 1129 1130 1131 1132 1133 1134 1135 1136 1137 1138 1139 1140 1141 1142 1143 1144 1145 1146 1147 1148 1149 1150 1151 1152 1153 1154 1155 1156 1157 1158 1159 1160 1161 1162 1163 1164 1165 1166 1167 1168 1169 1170 1171 1172 1173 1174 1175 1176 1177 1178 1179 1180 1181 1182 1183 1184 1185 1186 1187 1188 1189 1190 1191 1192 1193 1194 1195 1196 1197 1198 1199 1200 1201 1202 1203 1204 1205 1206 1207 1208 1209 1210 1211 1212 1213 1214 1215 1216 1217 1218 1219 1220 1221 1222 1223 1224 1225 1226 1227 1228 1229 1230 1231 1232 1233 1234 1235 1236 1237 1238 1239 1240 1241 1242 1243 1244 1245 1246 1247 1248 1249 1250 1251 1252 1253 1254 1255 1256 1257 1258 1259 1260 1261 1262 1263 1264 1265 1266 1267 1268 1269 1270 1271 1272 1273 1274 1275 1276 1277 1278 1279 1280 1281 1282 1283 1284 1285 1286 1287 1288 1289 1290 1291 1292 1293 1294 1295 1296 1297 1298 1299 1300 1301 1302 1303 1304 1305 1306 1307 1308 1309 1310 1311 1312 1313 1314 1315 1316 1317 1318 1319 1320 1321 1322 1323 1324 1325 1326 1327 1328 1329 1330 1331 1332 1333 1334 1335 1336 1337 1338 1339 1340 1341 1342 1343 1344 1345 1346 1347 1348 1349 1350 1351 1352 1353 1354 1355 1356 1357 1358 1359 1360 1361 1362 1363 1364 1365 1366 1367 1368 1369 1370 1371 1372 1373 1374 1375 1376 1377 1378 1379 1380 1381 1382 1383 1384 1385 1386 1387 1388 1389 1390 1391 1392 1393 1394 1395 1396 1397 1398 1399 1400 1401 1402 1403 1404 1405 1406 1407 1408 1409 1410 1411 1412 1413 1414 1415 1416 1417 1418 1419 1420 1421 1422 1423 1424 1425 1426 1427 1428 1429 1430 1431 1432 1433 1434 1435 1436 1437 1438 1439 1440 1441 1442 1443 1444 1445 1446 1447 1448 1449 1450 1451 1452 1453 1454 1455 1456 1457 1458 1459 1460 1461 1462 1463 1464 1465 1466 1467 1468 1469 1470 1471 1472 1473 1474 1475 1476 1477 1478 1479 1480 1481 1482 1483 1484 1485 1486 1487 1488 1489 1490 1491 1492 1493 1494 1495 1496 1497 1498 1499 1500 1501 1502 1503 1504 1505 1506 1507 1508 1509 1510 1511 1512 1513 1514 1515 1516 1517 1518 1519 1520 1521 1522 1523 1524 1525 1526 1527 1528 1529 1530 1531 1532 1533 1534 1535 1536 1537 1538 1539 1540 1541 1542 1543 1544 1545 1546 1547 1548 1549 1550 1551 1552 1553 1554 1555 1556 1557 1558 1559 1560 1561 1562 1563 1564 1565 1566 1567 1568 1569 1570 1571 1572 1573 1574 1575 1576 1577 1578 1579 1580 1581 1582 1583 1584 1585 1586 1587 1588 1589 1590 1591 1592 1593 1594 1595 1596 1597 1598 1599 1600 1601 1602 1603 1604 1605 1606 1607 1608 1609 1610 1611 1612 1613 1614 1615 1616 1617 1618 1619 1620 1621 1622 1623 1624 1625 1626 1627 1628 1629 1630 1631 1632 1633 1634 1635 1636 1637 1638 1639 1640 1641 1642 1643 1644 1645 1646 1647 1648 1649 1650 1651 1652 1653 1654 1655 1656 1657 1658 1659 1660 1661 1662 1663 1664 1665 1666 1667 1668 1669 1670 1671 1672 1673 1674 1675 1676 1677 1678 1679 1680 1681 1682 1683 1684 1685 1686 1687 1688 1689 1690 1691 1692 1693 1694 1695 1696 1697 1698 1699 1700 1701 1702 1703 1704 1705 1706 1707 1708 1709 1710 1711 1712 1713 1714 1715 1716 1717 1718 1719 1720 1721 1722 1723 1724 1725 1726 1727 1728 1729 1730 1731 1732 1733 1734 1735 1736 1737 1738 1739 1740 1741 1742 1743 1744 1745 1746 1747 1748 1749 1750 1751 1752 1753 1754 1755 1756 1757 1758 1759 1760 1761 1762 1763 1764 1765 1766 1767 1768 1769 1770 1771 1772 1773 1774 1775 1776 1777 1778 1779 1780 1781 1782 1783 1784 1785 1786 1787 1788 1789 1790 1791 1792 1793 1794 1795 1796 1797 1798 1799 1800 1801 1802 1803 1804 1805 1806 1807 1808 1809 1810 1811 1812 1813 1814 1815 1816 1817 1818 1819 1820 1821 1822 1823 1824 1825 1826 1827 1828 1829 1830 1831 1832 1833 1834 1835 1836 1837 1838 1839 1840 1841 1842 1843 1844 1845 1846 1847 1848 1849 1850 1851 1852 1853 1854 1855 1856 1857 1858 1859 1860 1861 1862 1863 1864 1865 1866 1867 1868 1869 1870 1871 1872 1873 1874 1875 1876 1877 1878 1879 1880 1881 1882 1883 1884 1885 1886 1887 1888 1889 1890 1891 1892 1893 1894 1895 1896 1897 1898 1899 1900 1901 1902 1903 1904 1905 1906 1907 1908 1909 1910 1911 1912 1913 1914 1915 1916 1917 1918 1919 1920 1921 1922 1923 1924 1925 1926 1927 1928 1929 1930 1931 1932 1933 1934 1935 1936 1937 1938 1939 1940 1941 1942 1943 1944 1945 1946 1947 1948 1949 1950 1951 1952 1953 1954 1955 1956 1957 1958 1959 1960 1961 1962 1963 1964 1965 1966 1967 1968 1969 1970 1971 1972 1973 1974 1975 1976 1977 1978 1979 1980 1981 1982 1983 1984 1985 1986 1987 1988 1989 1990 1991 1992 1993 1994 1995 1996 1997 1998 1999 2000 2001 2002 2003 2004 2005 2006 2007 2008 2009 2010 2011 2012 2013 2014 2015 2016 2017 2018 2019 2020 2021 2022 2023 2024 2025 2026 2027 2028 2029 2030 2031 2032 2033 2034 2035 2036 2037 2038 2039 2040 2041 2042 2043 2044 2045 2046 2047 2048 2049 2050 2051 2052 2053 2054 2055 2056 2057 2058 2059 2060 2061 2062 2063 2064 2065 2066 2067 2068 2069 2070 2071 2072 2073 2074 2075 2076 2077 2078 2079 2080 2081 2082 2083 2084 2085 2086 2087 2088 2089 2090 2091 2092 2093 2094 2095 2096 2097 2098 2099 2100 2101 2102 2103 2104 2105 2106 2107 2108 2109 2110 2111 2112 2113 2114 2115 2116 2117 2118 2119 2120 2121 2122 2123 2124 2125 2126 2127 2128 2129 2130 2131 2132 2133 2134 2135 2136 2137 2138 2139 2140 2141 2142 2143 2144 2145 2146 2147 2148 2149 2150 2151 2152 2153 2154 2155 2156 2157 2158 2159 
</DataArray>
<DataArray type="UInt32" Name="offsets" format="ascii">
4 8 12 16 20 24 28 32 36 40 44 48 52 56 60 64 68 72 76 80 84 88 92 96 100 104 108 112 116 120 124 128 132 136 140 144 148 152 156 160 164 168 172 176 180 184 188 192 196 200 204 208 212 216 220 224 228 232 236 240 244 248 252 256 260 264 268 272 276 280 284 288 292 296 300 304 308 312 316 320 324 328 332 336 340 344 348 352 356 360 364 368 372 376 380 384 388 392 396 400 404 408 412 416 420 424 428 432 436 440 444 448 452 456 460 464 468 472 476 480 484 488 492 496 500 504 508 512 516 520 524 528 532 536 540 544 548 552 556 560 564 568 572 576 580 584 588 592 596 600 604 608 612 616 620 624 628 632 636 640 644 648 652 656 660 664 668 672 676 680 684 688 692 696 700 704 708 712 716 720 724 728 732 736 740 744 748 752 756 760 764 768 772 776 780 784 788 792 796 800 804 808 812 816 820 824 828 832 836 840 844 848 852 856 860 864 868 872 876 880 884 888 892 896 900 904 908 912 916 920 924 928 932 936 940 944 948 952 956 960 964 968 972 976 980 984 988 992 996 1000 1004 1008 1012 1016 1020 1024 1028 1032 1036 1040 1044 1048 1052 1056 1060 1064 1068 1072 1076 1080 1084 1088 1092 1096 1100 1104 1108 1112 1116 1120 1124 1128 1132 1136 1140 1144 1148 1152 1156 1160 1164 1168 1172 1176 1180 1184 1188 1192 1196 1200 1204 1208 1212 1216 1220 1224 1228 1232 1236 1240 1244 1248 1252 1256 1260 1264 1268 1272 1276 1280 1284 1288 1292 1296 1300 1304 1308 1312 1316 1320 1324 1328 1332 1336 1340 1344 1348 1352 1356 1360 1364 1368 1372 1376 1380 1384 1388 1392 1396 1400 1404 1408 1412 1416 1420 1424 1428 1432 1436 1440 1444 1448 1452 1456 1460 1464 1468 1472 1476 1480 1484 1488 1492 1496 1500 1504 1508 1512 1516 1520 1524 1528 1532 1536 1540 1544 1548 1552 1556 1560 1564 1568 1572 1576 1580 1584 1588 1592 1596 1600 1604 1608 1612 1616 1620 1624 1628 1632 1636 1640 1644 1648 1652 1656 1660 1664 1668 1672 1676 1680 1684 1688 1692 1696 1700 1704 1708 1712 1716 1720 1724 1728 1732 1736 1740 1744 1748 1752 1756 1760 1764 1768 1772 1776 1780 1784 1788 1792 1796 1800 1804 1808 1812 1816 1820 1824 1828 1832 1836 1840 1844 1848 1852 1856 1860 1864 1868 1872 1876 1880 1884 1888 1892 1896 1900 1904 1908 1912 1916 1920 1924 1928 1932 1936 1940 1944 1948 1952 1956 1960 1964 1968 1972 1976 1980 1984 1988 1992 1996 2000 2004 2008 2012 2016 2020 2024 2028 2032 2036 2040 2044 2048 2052 2056 2060 2064 2068 2072 2076 2080 2084 2088 2092 2096 2100 2104 2108 2112 2116 2120 2124 2128 2132 2136 2140 2144 2148 2152 2156 2160 
</DataArray>
<DataArray type="UInt32" Name="types" format="ascii">
10 10 10 10 10 10 10 10 10 10 10 10 10 10 10 10 10 10 10 10 10 10 10 10 10 10 10 10 10 10 10 10 10 10 10 10 10 10 10 10 10 10 10 10 10 10 10 10 10 10 10 10 10 10 10 10 10 10 10 10 10 10 10 10 10 10 10 10 10 10 10 10 10 10 10 10 10 10 10 10 10 10 10 10 10 10 10 10 10 10 10 10 10 10 10 10 10 10 10 10 10 10 10 10 10 10 10 10 10 10 10 10 10 10 10 10 10 10 10 10 10 10 10 10 10 10 10 10 10 10 10 10 10 10 10 10 10 10 10 10 10 10 10 10 10 10 10 10 10 10 10 10 10 10 10 10 10 10 10 10 10 10 10 10 10 10 10 10 10 10 10 10 10 10 10 10 10 10 10 10 10 10 10 10 10 10 10 10 10 10 10 10 10 10 10 10 10 10 10 10 10 10 10 10 10 10 10 10 10 10 10 10 10 10 10 10 10 10 10 10 10 10 10 10 10 10 10 10 10 10 10 10 10 10 10 10 10 10 10 10 10 10 10 10 10 10 10 10 10 10 10 10 10 10 10 10 10 10 10 10 10 10 10 10 10 10 10 10 10 10 10 10 10 10 10 10 10 10 10 10 10 10 10 10 10 10 10 10 10 10 10 10 10 10 10 10 10 10 10 10 10 10 10 10 10 10 10 10 10 10 10 10 10 10 10 10 10 10 10 10 10 10 10 10 10 10 10 10 10 10 10 10 10 10 10 10 10 10 10 10 10 10 10 10 10 10 10 10 10 10 10 10 10 10 10 10 10 10 10 10 10 10 10 10 10 10 10 10 10 10 10 10 10 10 10 10 10 10 10 10 10 10 10 10 10 10 10 10 10 10 10 10 10 10 10 10 10 10 10 10 10 10 10 10 10 10 10 10 10 10 10 10 10 10 10 10 10 10 10 10 10 10 10 10 10 10 10 10 10 10 10 10 10 10 10 10 10 10 10 10 10 10 10 10 10 10 10 10 10 10 10 10 10 10 10 10 10 10 10 10 10 10 10 10 10 10 10 10 10 10 10 10 10 10 10 10 10 10 10 10 10 10 10 10 10 10 10 10 10 10 10 10 10 10 10 10 10 10 10 10 10 10 10 10 10 10 10 10 10 10 10 10 10 10 10 10 10 10 10 10 10 10 10 10 10 10 10 10 10 10 10 10 10 10 10 10 10 10 10 10 
</DataArray>
</Cells>
<PointData Scalars="" Vectors="displacement," Tensors="">
<DataArray type="Float64" Name="displacement" NumberOfComponents="3" format="ascii">
-1.3343362178334182e-07 -1.9517222007819878e-08 -0.00025021885906525922 -1.2759872448069573e-07 4.9916605714587851e-08 -0.00025023836984581165 -8.4335887259894109e-08 -2.3212682267598333e-08 -0.00025021818923034105 2.4515321134658616e-08 1.6152693604519199e-08 -1.8749941018175782e-07 -1.0075479614895346e-07 -8.6367729653718012e-08 -0.00025023334057788749 -1.3343362178334182e-07 -1.9517222007819878e-08 -0.00025021885906525922 -8.4335887259894109e-08 -2.3212682267598333e-08 -0.00025021818923034105 2.4515321134658616e-08 1.6152693604519199e-08 -1.8749941018175782e-07 -5.4630245180409781e-08 -3.5568358449175867e-08 -1.0558484463782132e-07 -1.0075479614895345e-07 -8.6367729653718025e-08 -0.00025023334057788744 2.4515321134658616e-08 1.6152693604519199e-08 -1.8749941018175782e-07 -1.3343362178334182e-07 -1.9517222007819878e-08 -0.00025021885906525922 -5.2296045244011873e-08 -4.3714227390428461e-09 -2.4535997825990501e-07 -5.4630245180409781e-08 -3.5568358449175867e-08 -1.0558484463782132e-07 2.4515321134658616e-08 1.6152693604519199e-08 -1.8749941018175782e-07 -1.3343362178334182e-07 -1.9517222007819878e-08 -0.00025021885906525922 -2.6317448083068262e-09 1.1332133547726994e-08 -2.1468366827848377e-07 -5.4682828233691201e-08 1.3878110240878128e-08 -0.00025020481773479678 2.4515321134658616e-08 1.6152693604519199e-08 -1.8749941018175782e-07 -4.0158129799824538e-08 -5.0913309091213282e-08 -0.00025020398731661448 -1.0075479614895346e-07 -8.6367729653718012e-08 -0.00025023334057788749 -4.0158129799824545e-08 -5.0913309091213282e-08 -0.00025020398731661448 -2.6317448083068262e-09 1.1332133547726994e-08 -2.1468366827848377e-07 2.4515321134658616e-08 1.6152693604519199e-08 -1.8749941018175782e-07 -5.4682828233691174e-08 1.3878110240878115e-08 -0.00025020481773479672 -4.0158129799824538e-08 -5.0913309091213282e-08 -0.00025020398731661448 -8.4335887259894109e-08 -2.3212682267598333e-08 -0.00025021818923034105 2.4515321134658616e-08 1.6152693604519199e-08 -1.8749941018175782e-07 -4.0158129799824538e-08 -5.0913309091213282e-08 -0.00025020398731661448 -1.0075479614895348e-07 -8.6367729653718012e-08 -0.00025023334057788749 -8.4335887259894095e-08 -2.3212682267598323e-08 -0.000250218189230341 2.4515321134658616e-08 1.6152693604519199e-08 -1.8749941018175782e-07 -2.4656534860865598e-08 -4.6470926697817634e-08 -2.344120229871521e-07 -5.194092260591677e-08 -1.2724769608105495e-07 -0.00025020775848293077 -2.6317448083068262e-09 1.1332133547726994e-08 -2.1468366827848377e-07 -1.0075479614895346e-07 -8.6367729653718012e-08 -0.00025023334057788749 -2.4656534860865598e-08 -4.6470926697817634e-08 -2.344120229871521e-07 -2.6317448083068212e-09 1.1332133547727001e-08 -2.1468366827848377e-07 2.4515321134658616e-08 1.6152693604519199e-08 -1.8749941018175782e-07 -1.0075479614895346e-07 -8.6367729653718012e-08 -0.00025023334057788749 -5.4630245180409781e-08 -3.5568358449175867e-08 -1.0558484463782132e-07 -2.4656534860865598e-08 -4.6470926697817634e-08 -2.344120229871521e-07 2.4515321134658616e-08 1.6152693604519199e-08 -1.8749941018175782e-07 -1.0075479614895346e-07 -8.6367729653718012e-08 -0.00025023334057788749 -2.4656534860865598e-08 -4.6470926697817634e-08 -2.344120229871521e-07 5.0248025427423664e-09 -5.2720988769476747e-08 -1.8098149882992244e-07 -2.6317448083068262e-09 1.1332133547726994e-08 -2.1468366827848377e-07 -5.1940922605916777e-08 -1.2724769608105492e-07 -0.00025020775848293077 -2.6317448083068262e-09 1.1332133547726994e-08 -2.1468366827848377e-07 5.0248025427423705e-09 -5.2720988769476747e-08 -1.8098149882989777e-07 -4.8807940061308564e-09 1.6546707956460374e-08 -9.7709441839020866e-08 -5.1940922605916777e-08 -1.2724769608105492e-07 -0.00025020775848293077 -2.6317448083068262e-09 1.1332133547726994e-08 -2.1468366827848377e-07 -5.194092260591677e-08 -1.2724769608105498e-07 -0.00025020775848293072 -4.8807940061308564e-09 1.6546707956460378e-08 -9.7709441839029455e-08 -4.0158129799824538e-08 -5.0913309091213282e-08 -0.00025020398731661448 3.7897867760641685e-09 2.5030873695399705e-09 -1.8649049614659054e-07 -2.6317448083068262e-09 1.1332133547726994e-08 -2.1468366827848377e-07 5.7103986720763e-09 -9.1897550778098291e-09 -7.2571556168674899e-08 -4.0158129799824538e-08 -5.0913309091213282e-08 -0.00025020398731661448 5.7103986720763e-09 -9.1897550778098291e-09 -7.2571556168674899e-08 -2.6317448083068287e-09 1.1332133547726991e-08 -2.146836682784961e-07 -4.8807940061308564e-09 1.6546707956460374e-08 -9.7709441839020866e-08 -4.0158129799824538e-08 -5.0913309091213282e-08 -0.00025020398731661448 5.7103986720763e-09 -9.1897550778098291e-09 -7.2571556168674899e-08 -4.0158129799824518e-08 -5.0913309091213322e-08 -0.00025020398731661454 -4.8807940061308539e-09 1.6546707956460371e-08 -9.7709441839026107e-08 -5.1093680239752786e-09 -8.4148504911420245e-08 -0.00025018507385986982 5.319193159560134e-08 -2.6643250058174715e-08 -0.00025019539615658018 1.2402619000110817e-08 -4.2729648546673588e-08 -0.00025018016554376746 5.7103986720763e-09 -9.1897550778098291e-09 -7.2571556168674899e-08 -1.2701596961893357e-08 1.1314998331728964e-08 -9.8543762261211431e-08 -1.2601061664699084e-08 4.7781307326028178e-09 -1.7697879554909296e-07 5.7103986720763e-09 -9.1897550778098275e-09 -7.2571556168674886e-08 -1.2701596961893357e-08 1.1314998331728964e-08 -9.8543762261211431e-08 5.319193159560134e-08 -2.6643250058174715e-08 -0.00025019539615658018 5.7103986720763e-09 -9.1897550778098291e-09 -7.2571556168674899e-08 -5.1093680239752786e-09 -8.4148504911420245e-08 -0.00025018507385986982 -1.2701596961893357e-08 1.1314998331728964e-08 -9.8543762261211431e-08 1.2402619000110807e-08 -4.2729648546673588e-08 -0.00025018016554376746 5.7103986720763e-09 -9.1897550778098291e-09 -7.2571556168674899e-08 -4.8807940061308564e-09 1.6546707956460374e-08 -9.7709441839020866e-08 -1.2701596961893357e-08 1.1314998331728964e-08 -9.8543762261211431e-08 -5.1093680239752786e-09 -8.4148504911420245e-08 -0.00025018507385986982 -4.8807940061308564e-09 1.6546707956460374e-08 -9.7709441839020866e-08 2.9118623286993817e-08 -4.4973803613246172e-08 -1.3795280591746329e-07 -1.2701596961893357e-08 1.1314998331728964e-08 -9.8543762261211431e-08 1.9424310871453802e-08 -1.3542569724798694e-07 -0.00025019745891851123 5.0248025427423705e-09 -5.2720988769476747e-08 -1.8098149882989777e-07 1.9424310871453806e-08 -1.3542569724798697e-07 -0.00025019745891851128 -4.8807940061308564e-09 1.6546707956460374e-08 -9.7709441839020866e-08 -5.1940922605916764e-08 -1.2724769608105492e-07 -0.00025020775848293072 5.0248025427423705e-09 -5.2720988769476747e-08 -1.8098149882989777e-07 2.9118623286993824e-08 -4.4973803613246192e-08 -1.3795280591746329e-07 -4.8807940061308564e-09 1.6546707956460374e-08 -9.7709441839020866e-08 1.9424310871453799e-08 -1.3542569724798697e-07 -0.00025019745891851128 -4.8807940061308564e-09 1.6546707956460374e-08 -9.7709441839020866e-08 1.9424310871453802e-08 -1.3542569724798694e-07 -0.00025019745891851123 -1.2701596961893357e-08 1.1314998331728966e-08 -9.8543762261206891e-08 -5.1093680239752786e-09 -8.4148504911420245e-08 -0.00025018507385986982 1.9424310871453802e-08 -1.3542569724798694e-07 -0.00025019745891851123 -5.1940922605916757e-08 -1.272476960810549e-07 -0.00025020775848293066 -5.1093680239752786e-09 -8.4148504911420245e-08 -0.00025018507385986982 -4.8807940061308564e-09 1.6546707956460374e-08 -9.7709441839020866e-08 1.9424310871453802e-08 -1.3542569724798694e-07 -0.00025019745891851123 -5.1093680239752786e-09 -8.4148504911420245e-08 -0.00025018507385986982 3.6405868250133183e-08 -7.0375785446202949e-08 -0.00025018848977026719 -1.2701596961893357e-08 1.1314998331728964e-08 -9.8543762261211431e-08 1.2402619000110807e-08 -4.2729648546673588e-08 -0.00025018016554376746 5.3191931595601347e-08 -2.6643250058174715e-08 -0.00025019539615658018 3.6405868250133183e-08 -7.0375785446202949e-08 -0.00025018848977026719 -1.2701596961893357e-08 1.1314998331728964e-08 -9.8543762261211431e-08 -5.1093680239752786e-09 -8.4148504911420245e-08 -0.00025018507385986982 1.2402619000110807e-08 -4.2729648546673588e-08 -0.00025018016554376746 3.6405868250133183e-08 -7.0375785446202949e-08 -0.00025018848977026719 -1.2701596961893357e-08 1.1314998331728964e-08 -9.8543762261211431e-08 -4.0158129799824538e-08 -5.0913309091213282e-08 -0.00025020398731661448 1.2402619000110809e-08 -4.2729648546673588e-08 -0.00025018016554376746 -5.1093680239752786e-09 -8.4148504911420245e-08 -0.00025018507385986982 5.7103986720763e-09 -9.1897550778098291e-09 -7.2571556168674899e-08 -4.0158129799824538e-08 -5.0913309091213282e-08 -0.00025020398731661448 4.6043480782604051e-09 -1.6725032295509759e-10 -0.0002501972238203639 1.2402619000110807e-08 -4.2729648546673588e-08 -0.00025018016554376746 5.7103986720763e-09 -9.1897550778098291e-09 -7.2571556168674899e-08 -5.1940922605916764e-08 -1.2724769608105492e-07 -0.00025020775848293072 -4.0158129799824538e-08 -5.0913309091213282e-08 -0.00025020398731661448 -5.1093680239752786e-09 -8.4148504911420245e-08 -0.00025018507385986982 -4.8807940061308564e-09 1.6546707956460374e-08 -9.7709441839020866e-08 -5.1940922605916764e-08 -1.2724769608105492e-07 -0.00025020775848293072 -1.0075479614895346e-07 -8.6367729653717998e-08 -0.00025023334057788749 -4.0158129799824538e-08 -5.0913309091213282e-08 -0.00025020398731661448 -2.631744808306815e-09 1.1332133547727011e-08 -2.1468366827842852e-07 -4.0158129799824538e-08 -5.0913309091213282e-08 -0.00025020398731661448 -5.1940922605916764e-08 -1.2724769608105492e-07 -0.00025020775848293072 -5.1093680239752786e-09 -8.4148504911420245e-08 -0.00025018507385986982 1.3426711729347768e-08 -1.0928212300917338e-07 -0.00050024182634963662 1.3426711729347752e-08 -1.0928212300917339e-07 -0.00050024182634963662 -1.7765106161628363e-08 -5.5700452425439762e-08 -0.00050024072853128662 2.158430696199942e-08 -7.3844905159322579e-08 -0.00050023705291616966 -5.1093680239752786e-09 -8.4148504911420245e-08 -0.00025018507385986982 -4.0158129799824538e-08 -5.0913309091213282e-08 -0.00025020398731661448 1.3426711729347754e-08 -1.0928212300917341e-07 -0.00050024182634963662 -5.1093680239752778e-09 -8.4148504911420232e-08 -0.00025018507385986982 -1.7765106161628363e-08 -5.5700452425439762e-08 -0.00050024072853128662 1.3426711729347752e-08 -1.0928212300917339e-07 -0.00050024182634963662 -4.495843769911004e-08 -1.0091909442673956e-07 -0.00050025143958123248 -1.7765106161628363e-08 -5.5700452425439762e-08 -0.00050024072853128662 -4.0158129799824538e-08 -5.0913309091213282e-08 -0.00025020398731661443 -1.0075479614895346e-07 -8.6367729653718012e-08 -0.00025023334057788749 -5.1940922605916757e-08 -1.272476960810549e-07 -0.00025020775848293072 -4.0158129799824538e-08 -5.0913309091213282e-08 -0.00025020398731661448 1.3426711729347768e-08 -1.0928212300917338e-07 -0.00050024182634963662 4.6043480782604051e-09 -1.6725032295509759e-10 -0.0002501972238203639 -4.0158129799824538e-08 -5.0913309091213282e-08 -0.00025020398731661448 1.2402619000110807e-08 -4.2729648546673588e-08 -0.00025018016554376746 -1.7765106161628363e-08 -5.5700452425439762e-08 -0.00050024072853128662 1.2402619000110807e-08 -4.2729648546673588e-08 -0.00025018016554376746 -1.7765106161628327e-08 -5.5700452425439762e-08 -0.00050024072853128672 -5.1093680239752761e-09 -8.4148504911420245e-08 -0.00025018507385986982 2.158430696199942e-08 -7.3844905159322579e-08 -0.00050023705291616966 -1.7765106161628363e-08 -5.5700452425439762e-08 -0.00050024072853128662 5.2853845596253499e-09 3.3970567896000386e-09 -0.00050024015922826262 2.1896277509829348e-08 -3.3947339908759605e-08 -0.00050023618606350525 1.2402619000110807e-08 -4.2729648546673588e-08 -0.00025018016554376746 1.2402619000110807e-08 -4.2729648546673588e-08 -0.00025018016554376746 -4.0158129799824538e-08 -5.0913309091213282e-08 -0.00025020398731661448 -5.1093680239752786e-09 -8.4148504911420245e-08 -0.00025018507385986982 -1.7765106161628363e-08 -5.5700452425439762e-08 -0.00050024072853128662 -1.7765106161628363e-08 -5.5700452425439762e-08 -0.00050024072853128662 2.1896277509829348e-08 -3.3947339908759605e-08 -0.00050023618606350525 2.158430696199942e-08 -7.3844905159322579e-08 -0.00050023705291616966 1.2402619000110807e-08 -4.2729648546673588e-08 -0.00025018016554376746 2.1896277509829348e-08 -3.3947339908759605e-08 -0.00050023618606350525 5.4738989500807394e-08 -1.5673901802753595e-08 -0.00050024195025729539 5.1805934153494718e-08 -5.3007706776265342e-08 -0.00050023741773647839 3.6405868250133183e-08 -7.0375785446202949e-08 -0.00025018848977026719 5.319193159560134e-08 -2.6643250058174715e-08 -0.00025019539615658018 1.2402619000110805e-08 -4.2729648546673595e-08 -0.00025018016554376746 3.6405868250133183e-08 -7.0375785446202949e-08 -0.00025018848977026719 5.4738989500807387e-08 -1.5673901802753592e-08 -0.00050024195025729539 5.4738989500807387e-08 -1.5673901802753592e-08 -0.00050024195025729539 2.1896277509829355e-08 -3.3947339908759598e-08 -0.00050023618606350525 1.2402619000110807e-08 -4.2729648546673588e-08 -0.00025018016554376746 3.6405868250133183e-08 -7.0375785446202949e-08 -0.00025018848977026719 1.2402619000110807e-08 -4.2729648546673588e-08 -0.00025018016554376746 2.158430696199942e-08 -7.3844905159322579e-08 -0.00050023705291616966 3.6405868250133183e-08 -7.0375785446202949e-08 -0.00025018848977026719 2.1896277509829348e-08 -3.3947339908759605e-08 -0.00050023618606350525 1.2402619000110807e-08 -4.2729648546673588e-08 -0.00025018016554376746 -5.1093680239752786e-09 -8.4148504911420245e-08 -0.00025018507385986982 3.6405868250133183e-08 -7.0375785446202949e-08 -0.00025018848977026719 2.158430696199942e-08 -7.3844905159322579e-08 -0.00050023705291616966 2.158430696199942e-08 -7.3844905159322579e-08 -0.00050023705291616966 2.1896277509829348e-08 -3.3947339908759605e-08 -0.00050023618606350525 5.1805934153494718e-08 -5.3007706776265342e-08 -0.00050023741773647839 3.6405868250133183e-08 -7.0375785446202949e-08 -0.00025018848977026719 -5.1940922605916764e-08 -1.2724769608105492e-07 -0.00025020775848293072 1.9424310871453802e-08 -1.3542569724798694e-07 -0.00025019745891851123 -5.1093680239752786e-09 -8.4148504911420245e-08 -0.00025018507385986982 6.642100511831085e-08 -8.7910681369482448e-08 -0.00050023805451968073 6.6421005118310837e-08 -8.7910681369482475e-08 -0.00050023805451968073 1.3426711729347745e-08 -1.0928212300917338e-07 -0.00050024182634963651 2.158430696199942e-08 -7.3844905159322579e-08 -0.00050023705291616966 -5.1093680239752786e-09 -8.4148504911420245e-08 -0.00025018507385986982 -5.1940922605916764e-08 -1.2724769608105492e-07 -0.00025020775848293072 6.6421005118310863e-08 -8.7910681369482462e-08 -0.00050023805451968073 -5.1093680239752786e-09 -8.4148504911420245e-08 -0.00025018507385986982 1.3426711729347752e-08 -1.0928212300917339e-07 -0.00050024182634963662 -5.1093680239752786e-09 -8.4148504911420245e-08 -0.00025018507385986982 6.6421005118310837e-08 -8.7910681369482475e-08 -0.00050023805451968073 3.6405868250133183e-08 -7.0375785446202963e-08 -0.00025018848977026724 2.158430696199942e-08 -7.3844905159322579e-08 -0.00050023705291616966 -5.1093680239752786e-09 -8.4148504911420245e-08 -0.00025018507385986982 1.9424310871453799e-08 -1.3542569724798694e-07 -0.00025019745891851123 3.6405868250133183e-08 -7.0375785446202949e-08 -0.00025018848977026719 6.6421005118310837e-08 -8.7910681369482475e-08 -0.00050023805451968073 6.6421005118310837e-08 -8.7910681369482475e-08 -0.00050023805451968073 2.158430696199942e-08 -7.3844905159322579e-08 -0.00050023705291616966 5.1805934153494718e-08 -5.3007706776265342e-08 -0.00050023741773647839 3.6405868250133183e-08 -7.0375785446202949e-08 -0.00025018848977026719 1.3426711729347752e-08 -1.0928212300917339e-07 -0.00050024182634963662 6.642100511831085e-08 -8.7910681369482475e-08 -0.00050023805451968073 2.158430696199942e-08 -7.3844905159322579e-08 -0.00050023705291616966 5.407022897361187e-08 -9.7714605223153578e-08 -0.00075027448065849119 2.158430696199942e-08 -7.3844905159322579e-08 -0.00050023705291616966 6.6421005118310837e-08 -8.7910681369482488e-08 -0.00050023805451968073 5.1805934153494718e-08 -5.3007706776265342e-08 -0.00050023741773647839 5.4070228973611877e-08 -9.7714605223153578e-08 -0.00075027448065849108 2.1896277509829348e-08 -3.3947339908759605e-08 -0.00050023618606350525 2.158430696199942e-08 -7.3844905159322579e-08 -0.00050023705291616966 5.1805934153494718e-08 -5.3007706776265342e-08 -0.00050023741773647839 1.9442731951217101e-08 -7.5924905277427165e-08 -0.00075027448358014055 5.4738989500807387e-08 -1.5673901802753592e-08 -0.00050024195025729539 2.1896277509829348e-08 -3.3947339908759611e-08 -0.00050023618606350525 5.1805934153494718e-08 -5.3007706776265342e-08 -0.00050023741773647839 5.3657350029319365e-08 -1.9714371937881978e-08 -0.00075027713438146812 2.1896277509829348e-08 -3.3947339908759605e-08 -0.00050023618606350525 -1.7765106161628363e-08 -5.5700452425439762e-08 -0.00050024072853128662 2.158430696199942e-08 -7.3844905159322579e-08 -0.00050023705291616966 -1.6514482476448035e-08 -5.5256771276673055e-08 -0.00075027529800880297 5.2853845596253499e-09 3.3970567896000386e-09 -0.00050024015922826262 -1.7765106161628363e-08 -5.5700452425439762e-08 -0.00050024072853128662 2.1896277509829348e-08 -3.3947339908759605e-08 -0.00050023618606350525 -1.6514482476448035e-08 -5.5256771276673055e-08 -0.00075027529800880297 -4.495843769911004e-08 -1.0091909442673957e-07 -0.00050025143958123248 1.3426711729347752e-08 -1.0928212300917338e-07 -0.00050024182634963662 -1.7765106161628363e-08 -5.5700452425439762e-08 -0.00050024072853128662 -1.9359718665079662e-09 -1.1165202289938842e-07 -0.00075027482618204877 -1.7765106161628363e-08 -5.5700452425439762e-08 -0.00050024072853128662 1.3426711729347752e-08 -1.0928212300917339e-07 -0.00050024182634963662 2.158430696199942e-08 -7.3844905159322579e-08 -0.00050023705291616966 -1.9359718665079662e-09 -1.1165202289938842e-07 -0.00075027482618204877 -4.495843769911004e-08 -1.0091909442673957e-07 -0.00050025143958123248 -1.7765106161628367e-08 -5.5700452425439756e-08 -0.00050024072853128662 -6.568494123296501e-08 -4.3493554084362863e-08 -0.00050024544080534683 -5.7170625380168371e-08 -9.5808382509314124e-08 -0.00075027800275267065 -8.7987132582126392e-08 -6.6310467109914346e-08 -0.00050024670278531799 -4.495843769911004e-08 -1.0091909442673957e-07 -0.00050025143958123248 -6.568494123296501e-08 -4.3493554084362863e-08 -0.00050024544080534683 -5.7170625380168371e-08 -9.5808382509314124e-08 -0.00075027800275267065 -1.0075479614895346e-07 -8.6367729653718012e-08 -0.00025023334057788749 1.3426711729347778e-08 -1.092821230091734e-07 -0.00050024182634963662 -4.0158129799824538e-08 -5.0913309091213282e-08 -0.00025020398731661448 -4.495843769911004e-08 -1.0091909442673957e-07 -0.00050025143958123248 -1.0075479614895346e-07 -8.6367729653718012e-08 -0.00025023334057788749 -4.0158129799824532e-08 -5.0913309091213276e-08 -0.00025020398731661448 -8.4335887259894109e-08 -2.3212682267598333e-08 -0.00025021818923034105 -4.495843769911004e-08 -1.0091909442673957e-07 -0.00050025143958123248 -1.3343362178334182e-07 -1.9517222007819878e-08 -0.00025021885906525922 -1.0075479614895346e-07 -8.6367729653718012e-08 -0.00025023334057788749 -8.4335887259894109e-08 -2.3212682267598333e-08 -0.00025021818923034105 -4.495843769911004e-08 -1.0091909442673957e-07 -0.00050025143958123248 -5.0934102879945581e-08 3.0311069697498439e-09 -0.00050024263371943752 -1.7765106161628363e-08 -5.5700452425439762e-08 -0.00050024072853128662 -6.568494123296501e-08 -4.3493554084362863e-08 -0.00050024544080534683 -8.4335887259894109e-08 -2.3212682267598333e-08 -0.00025021818923034105 -1.7765106161628363e-08 -5.5700452425439762e-08 -0.00050024072853128662 -4.4958437699110047e-08 -1.0091909442673957e-07 -0.00050025143958123248 -6.5684941232965023e-08 -4.3493554084362849e-08 -0.00050024544080534672 -8.4335887259894109e-08 -2.3212682267598333e-08 -0.00025021818923034105 -4.495843769911004e-08 -1.0091909442673957e-07 -0.00050025143958123248 -1.7765106161628363e-08 -5.5700452425439775e-08 -0.00050024072853128662 -4.0158129799824538e-08 -5.0913309091213282e-08 -0.00025020398731661448 -8.4335887259894109e-08 -2.3212682267598333e-08 -0.00025021818923034105 -4.0158129799824538e-08 -5.0913309091213282e-08 -0.00025020398731661448 -5.0934102879945575e-08 3.0311069697498592e-09 -0.00050024263371943752 -8.4335887259894109e-08 -2.3212682267598333e-08 -0.00025021818923034105 -1.7765106161628363e-08 -5.5700452425439762e-08 -0.00050024072853128662 -4.495843769911004e-08 -1.0091909442673957e-07 -0.00050025143958123248 -8.7987132582126392e-08 -6.6310467109914346e-08 -0.00050024670278531799 -6.568494123296501e-08 -4.3493554084362863e-08 -0.00050024544080534683 -8.4335887259894109e-08 -2.3212682267598333e-08 -0.00025021818923034105 -1.3343362178334182e-07 -1.9517222007819878e-08 -0.00025021885906525922 -4.4958437699110053e-08 -1.0091909442673958e-07 -0.00050025143958123248 -8.4335887259894109e-08 -2.3212682267598333e-08 -0.00025021818923034105 -8.7987132582126392e-08 -6.6310467109914346e-08 -0.00050024670278531799 -8.7987132582126392e-08 -6.6310467109914346e-08 -0.00050024670278531799 -1.0916642895293302e-07 -1.3238868893469047e-08 -0.00050025384485885896 -6.568494123296501e-08 -4.3493554084362863e-08 -0.00050024544080534683 -8.4335887259894109e-08 -2.3212682267598333e-08 -0.00025021818923034105 -1.2759872448069573e-07 4.9916605714587851e-08 -0.00025023836984581165 -1.3343362178334182e-07 -1.9517222007819878e-08 -0.00025021885906525922 -8.4335887259894109e-08 -2.3212682267598333e-08 -0.00025021818923034105 -8.7987132582126392e-08 -6.6310467109914346e-08 -0.00050024670278531799 -1.0916642895293302e-07 -1.3238868893469048e-08 -0.00050025384485885896 -8.7987132582126392e-08 -6.6310467109914346e-08 -0.00050024670278531799 -6.568494123296501e-08 -4.3493554084362863e-08 -0.00050024544080534683 -9.777036124303258e-08 -5.4077178418736149e-08 -0.00075027636077558055 -5.0934102879945581e-08 3.0311069697498439e-09 -0.00050024263371943752 -1.7765106161628363e-08 -5.5700452425439762e-08 -0.00050024072853128662 5.2853845596253499e-09 3.3970567896000386e-09 -0.00050024015922826262 -5.0696617646469992e-08 5.2387538262927215e-09 -0.00075027634798615044 -1.7765106161628363e-08 -5.5700452425439762e-08 -0.00050024072853128662 -5.0934102879945575e-08 3.031106969749853e-09 -0.00050024263371943752 -6.568494123296501e-08 -4.3493554084362863e-08 -0.00050024544080534683 -5.0696617646469986e-08 5.2387538262927223e-09 -0.00075027634798615055 -5.0934102879945581e-08 3.0311069697498439e-09 -0.00050024263371943752 5.2853845596253499e-09 3.3970567896000386e-09 -0.00050024015922826262 -1.9840649271549554e-08 3.6185363363215565e-08 -0.00050023854284750064 -5.0696617646469992e-08 5.2387538262927215e-09 -0.00075027634798615044 -5.0934102879945581e-08 3.0311069697498439e-09 -0.00050024263371943752 -1.0916642895293302e-07 -1.3238868893469048e-08 -0.00050025384485885896 -6.568494123296501e-08 -4.3493554084362863e-08 -0.00050024544080534683 -1.1167807400772395e-07 1.9376738627754894e-09 -0.00075027950081702703 -1.0916642895293302e-07 -1.3238868893469048e-08 -0.00050025384485885896 -5.0934102879945581e-08 3.0311069697498439e-09 -0.00050024263371943752 -6.568494123296501e-08 -4.3493554084362863e-08 -0.00050024544080534683 -8.4335887259894109e-08 -2.3212682267598333e-08 -0.00025021818923034105 -5.4682828233691174e-08 1.3878110240878115e-08 -0.00025020481773479672 -1.2759872448069573e-07 4.9916605714587851e-08 -0.00025023836984581165 -8.4335887259894109e-08 -2.3212682267598333e-08 -0.00025021818923034105 -1.0916642895293302e-07 -1.3238868893469048e-08 -0.00050025384485885896 -5.4682828233691174e-08 1.3878110240878115e-08 -0.00025020481773479672 -1.0916642895293302e-07 -1.3238868893469043e-08 -0.00050025384485885896 -8.4335887259894109e-08 -2.3212682267598333e-08 -0.00025021818923034105 -5.0934102879945581e-08 3.0311069697498439e-09 -0.00050024263371943752 -1.2759872448069573e-07 4.9916605714587851e-08 -0.00025023836984581165 -8.7987132582126379e-08 -6.6310467109914373e-08 -0.00050024670278531809 -8.4335887259894122e-08 -2.3212682267598323e-08 -0.00025021818923034105 -1.0916642895293302e-07 -1.3238868893469048e-08 -0.00050025384485885896 -4.0158129799824538e-08 -5.0913309091213282e-08 -0.00025020398731661448 -5.4682828233691168e-08 1.387811024087812e-08 -0.00025020481773479672 -8.4335887259894109e-08 -2.3212682267598333e-08 -0.00025021818923034105 -5.0934102879945575e-08 3.0311069697498377e-09 -0.00050024263371943763 -5.4682828233691174e-08 1.3878110240878115e-08 -0.00025020481773479672 4.6043480782604051e-09 -1.6725032295509759e-10 -0.0002501972238203639 -7.0323720081298024e-09 4.0878294473607578e-08 -0.0002501799206652385 -5.0934102879945581e-08 3.0311069697498439e-09 -0.00050024263371943752 -5.4682828233691174e-08 1.3878110240878115e-08 -0.00025020481773479672 -4.0158129799824538e-08 -5.0913309091213282e-08 -0.00025020398731661448 4.6043480782604051e-09 -1.6725032295509759e-10 -0.0002501972238203639 -5.0934102879945581e-08 3.0311069697498439e-09 -0.00050024263371943752 -2.5387338464478983e-08 6.9260101142205313e-08 -0.00050024057265393913 -1.9840649271549554e-08 3.6185363363215565e-08 -0.00050023854284750064 -5.1288148518002281e-08 5.0052271347562858e-08 -0.00050023973668814341 -3.5776833947950643e-08 6.6278349891263183e-08 -0.0002501936936126144 -5.4682828233691174e-08 1.3878110240878115e-08 -0.00025020481773479672 -7.0323720081298024e-09 4.0878294473607578e-08 -0.0002501799206652385 -3.5776833947950643e-08 6.6278349891263183e-08 -0.0002501936936126144 -5.0934102879945581e-08 3.0311069697498439e-09 -0.00050024263371943752 -7.0323720081298024e-09 4.0878294473607578e-08 -0.0002501799206652385 -5.5060934260934102e-10 8.0959633824016651e-08 -0.0002501904542286894 -3.5776833947950643e-08 6.6278349891263183e-08 -0.0002501936936126144 -1.9840649271549554e-08 3.6185363363215565e-08 -0.00050023854284750064 -1.9840649271549554e-08 3.6185363363215565e-08 -0.00050023854284750064 -5.0934102879945581e-08 3.0311069697498439e-09 -0.00050024263371943752 -5.1288148518002281e-08 5.0052271347562858e-08 -0.00050023973668814341 -3.5776833947950643e-08 6.6278349891263183e-08 -0.0002501936936126144 -5.0934102879945581e-08 3.0311069697498439e-09 -0.00050024263371943752 -1.9840649271549554e-08 3.6185363363215565e-08 -0.00050023854284750064 -7.0323720081298024e-09 4.0878294473607578e-08 -0.0002501799206652385 -3.5776833947950643e-08 6.6278349891263183e-08 -0.0002501936936126144 -5.0934102879945581e-08 3.0311069697498439e-09 -0.00050024263371943752 -1.0132650205755013e-07 4.3164003287285094e-08 -0.0005002481424218663 -5.1288148518002281e-08 5.0052271347562858e-08 -0.00050023973668814341 -3.5776833947950643e-08 6.6278349891263183e-08 -0.0002501936936126144 -1.0132650205755014e-07 4.3164003287285081e-08 -0.0005002481424218663 -5.0934102879945581e-08 3.0311069697498439e-09 -0.00050024263371943752 -5.4682828233691174e-08 1.3878110240878115e-08 -0.00025020481773479672 -3.5776833947950643e-08 6.6278349891263183e-08 -0.0002501936936126144 -8.5148350349292685e-08 1.0636631122133809e-07 -0.00025022553726982734 -1.0916642895293302e-07 -1.3238868893469048e-08 -0.00050025384485885896 -5.4682828233691174e-08 1.3878110240878115e-08 -0.00025020481773479672 -1.0132650205755014e-07 4.3164003287285081e-08 -0.0005002481424218663 -8.5148350349292685e-08 1.0636631122133809e-07 -0.00025022553726982734 -1.2759872448069571e-07 4.9916605714587838e-08 -0.0002502383698458117 -5.4682828233691174e-08 1.3878110240878115e-08 -0.00025020481773479672 -1.0916642895293302e-07 -1.3238868893469048e-08 -0.00050025384485885896 -1.0916642895293302e-07 -1.3238868893469048e-08 -0.00050025384485885896 -1.0132650205755014e-07 4.3164003287285081e-08 -0.0005002481424218663 -5.0934102879945581e-08 3.0311069697498439e-09 -0.00050024263371943752 -5.4682828233691174e-08 1.3878110240878115e-08 -0.00025020481773479672 -8.5148350349292685e-08 1.0636631122133809e-07 -0.00025022553726982734 -5.4682828233691174e-08 1.3878110240878115e-08 -0.00025020481773479672 -3.5776833947950643e-08 6.6278349891263183e-08 -0.0002501936936126144 -1.0132650205755014e-07 4.3164003287285081e-08 -0.0005002481424218663 -1.0132650205755014e-07 4.3164003287285081e-08 -0.0005002481424218663 -1.0916642895293302e-07 -1.3238868893469045e-08 -0.00050025384485885907 -5.0934102879945581e-08 3.0311069697498439e-09 -0.00050024263371943752 -1.1167807400772395e-07 1.9376738627754894e-09 -0.00075027950081702703 -1.0132650205755014e-07 4.3164003287285081e-08 -0.0005002481424218663 -5.0934102879945581e-08 3.0311069697498439e-09 -0.00050024263371943752 -5.1288148518002281e-08 5.0052271347562858e-08 -0.00050023973668814341 -9.5745055180024362e-08 5.7469873844976855e-08 -0.00075027822164851936 -1.9840649271549554e-08 3.6185363363215565e-08 -0.00050023854284750064 -2.5387338464478983e-08 6.9260101142205313e-08 -0.00050024057265393913 -5.1288148518002281e-08 5.0052271347562858e-08 -0.00050023973668814341 -1.929024580953213e-08 3.6140554597264407e-08 -0.00075027600330388757 -5.0934102879945581e-08 3.0311069697498439e-09 -0.00050024263371943752 -1.9840649271549554e-08 3.6185363363215565e-08 -0.00050023854284750064 -5.1288148518002281e-08 5.0052271347562858e-08 -0.00050023973668814341 -5.0696617646469992e-08 5.2387538262927215e-09 -0.00075027634798615044 5.2853845596253499e-09 3.3970567896000386e-09 -0.00050024015922826262 1.2954140607460972e-08 5.6981952278945563e-08 -0.00050024586989989741 -1.9840649271549554e-08 3.6185363363215565e-08 -0.00050023854284750064 4.9011080886375494e-09 1.8464299789983047e-09 -0.00075027576101200288 -1.9840649271549554e-08 3.6185363363215565e-08 -0.00050023854284750064 1.2954140607460982e-08 5.6981952278945557e-08 -0.00050024586989989752 -2.5387338464478983e-08 6.9260101142205313e-08 -0.00050024057265393913 1.0865529864695174e-08 5.7025167873017443e-08 -0.0007502789224391633 5.2853845596253499e-09 3.3970567896000386e-09 -0.00050024015922826262 5.4738989500807387e-08 -1.5673901802753592e-08 -0.00050024195025729539 5.7244326202712737e-08 3.4702527867377641e-08 -0.00050025570272999649 5.3657350029319358e-08 -1.9714371937881978e-08 -0.00075027713438146802 5.4738989500807387e-08 -1.5673901802753592e-08 -0.00050024195025729539 5.2853845596253499e-09 3.3970567896000386e-09 -0.00050024015922826262 2.1896277509829348e-08 -3.3947339908759605e-08 -0.00050023618606350525 5.3657350029319365e-08 -1.9714371937881978e-08 -0.00075027713438146812 1.2954140607460982e-08 5.6981952278945557e-08 -0.00050024586989989752 5.2853845596253499e-09 3.3970567896000386e-09 -0.00050024015922826262 5.7244326202712737e-08 3.4702527867377641e-08 -0.00050025570272999649 4.9011080886375494e-09 1.8464299789983047e-09 -0.00075027576101200288 3.7098643076679757e-08 5.4396534368579595e-08 -0.00025020751731106168 5.2853845596253499e-09 3.3970567896000386e-09 -0.00050024015922826262 6.9850117031572248e-08 1.9623091972439513e-08 -0.00025024114742288743 1.2954140607460982e-08 5.6981952278945557e-08 -0.00050024586989989752 1.2954140607460982e-08 5.6981952278945557e-08 -0.00050024586989989752 4.487812460699719e-08 1.0091049890990442e-07 -0.00050026551339592469 5.7244326202712737e-08 3.4702527867377641e-08 -0.00050025570272999649 6.9850117031572248e-08 1.9623091972439513e-08 -0.00025024114742288743 5.2853845596253499e-09 3.3970567896000386e-09 -0.00050024015922826262 1.2954140607460982e-08 5.6981952278945557e-08 -0.00050024586989989752 5.724432620271273e-08 3.4702527867377641e-08 -0.00050025570272999639 6.9850117031572248e-08 1.9623091972439513e-08 -0.00025024114742288743 3.7098643076679757e-08 5.4396534368579595e-08 -0.00025020751731106168 4.6043480782604051e-09 -1.6725032295509759e-10 -0.0002501972238203639 6.9850117031572248e-08 1.9623091972439513e-08 -0.00025024114742288743 5.2853845596253499e-09 3.3970567896000386e-09 -0.00050024015922826262 5.319193159560134e-08 -2.6643250058174715e-08 -0.00025019539615658018 4.6043480782604051e-09 -1.6725032295509759e-10 -0.0002501972238203639 1.2402619000110807e-08 -4.2729648546673588e-08 -0.00025018016554376746 5.4738989500807387e-08 -1.5673901802753592e-08 -0.00050024195025729539 5.4738989500807387e-08 -1.5673901802753592e-08 -0.00050024195025729539 5.2853845596253499e-09 3.3970567896000386e-09 -0.00050024015922826262 4.6043480782603786e-09 -1.6725032295513262e-10 -0.00025019722382036395 1.2402619000110807e-08 -4.2729648546673588e-08 -0.00025018016554376746 5.4738989500807387e-08 -1.5673901802753592e-08 -0.00050024195025729539 5.2853845596253499e-09 3.3970567896000386e-09 -0.00050024015922826262 5.7244326202712737e-08 3.4702527867377641e-08 -0.00050025570272999649 6.9850117031572248e-08 1.9623091972439513e-08 -0.00025024114742288743 4.6043480782604051e-09 -1.6725032295509759e-10 -0.0002501972238203639 5.319193159560134e-08 -2.6643250058174715e-08 -0.00025019539615658018 6.9850117031572248e-08 1.9623091972439513e-08 -0.00025024114742288743 5.4738989500807381e-08 -1.5673901802753592e-08 -0.00050024195025729539 4.6043480782604051e-09 -1.6725032295509759e-10 -0.0002501972238203639 5.4738989500807374e-08 -1.5673901802753569e-08 -0.00050024195025729528 6.9850117031572248e-08 1.9623091972439513e-08 -0.00025024114742288743 5.2853845596253499e-09 3.3970567896000386e-09 -0.00050024015922826262 5.2853845596253499e-09 3.3970567896000386e-09 -0.00050024015922826262 5.4738989500807387e-08 -1.5673901802753592e-08 -0.00050024195025729539 2.1896277509829348e-08 -3.3947339908759605e-08 -0.00050023618606350525 1.2402619000110807e-08 -4.2729648546673588e-08 -0.00025018016554376746 -5.0934102879945581e-08 3.0311069697498439e-09 -0.00050024263371943752 5.2853845596253499e-09 3.3970567896000386e-09 -0.00050024015922826262 4.6043480782603927e-09 -1.672503229551321e-10 -0.0002501972238203639 -7.0323720081298024e-09 4.0878294473607578e-08 -0.0002501799206652385 -5.0934102879945581e-08 3.0311069697498439e-09 -0.00050024263371943752 -1.7765106161628363e-08 -5.5700452425439762e-08 -0.00050024072853128662 -4.0158129799824598e-08 -5.0913309091213302e-08 -0.00025020398731661437 4.6043480782604299e-09 -1.6725032295509035e-10 -0.0002501972238203639 4.6043480782604051e-09 -1.6725032295509759e-10 -0.0002501972238203639 -1.7765106161628363e-08 -5.5700452425439749e-08 -0.00050024072853128651 1.2402619000110807e-08 -4.2729648546673588e-08 -0.00025018016554376746 5.2853845596253499e-09 3.3970567896000386e-09 -0.00050024015922826262 -1.7765106161628363e-08 -5.5700452425439762e-08 -0.00050024072853128662 -5.0934102879945581e-08 3.0311069697498439e-09 -0.00050024263371943752 5.2853845596253499e-09 3.3970567896000386e-09 -0.00050024015922826262 4.6043480782604051e-09 -1.6725032295509759e-10 -0.0002501972238203639 5.2853845596253499e-09 3.3970567896000386e-09 -0.00050024015922826262 -5.0934102879945581e-08 3.0311069697498439e-09 -0.00050024263371943752 -1.9840649271549554e-08 3.6185363363215565e-08 -0.00050023854284750064 -7.0323720081298024e-09 4.0878294473607578e-08 -0.0002501799206652385 1.2954140607460982e-08 5.6981952278945557e-08 -0.00050024586989989752 5.2853845596253499e-09 3.3970567896000386e-09 -0.00050024015922826262 -1.9840649271549554e-08 3.6185363363215565e-08 -0.00050023854284750064 -7.0323720081298024e-09 4.0878294473607578e-08 -0.0002501799206652385 4.6043480782604051e-09 -1.6725032295509759e-10 -0.0002501972238203639 3.7098643076679751e-08 5.4396534368579602e-08 -0.00025020751731106162 -7.0323720081298024e-09 4.0878294473607578e-08 -0.0002501799206652385 5.2853845596253499e-09 3.3970567896000386e-09 -0.00050024015922826262 5.2853845596253499e-09 3.3970567896000386e-09 -0.00050024015922826262 1.295414060746097e-08 5.698195227894557e-08 -0.00050024586989989752 3.7098643076679804e-08 5.4396534368579589e-08 -0.00025020751731106173 -7.0323720081298537e-09 4.0878294473607592e-08 -0.00025017992066523855 -7.0323720081298024e-09 4.0878294473607578e-08 -0.0002501799206652385 1.2954140607460982e-08 5.6981952278945557e-08 -0.00050024586989989752 -5.5060934260934846e-10 8.0959633824016651e-08 -0.0002501904542286894 -1.9840649271549554e-08 3.6185363363215565e-08 -0.00050023854284750064 -7.0323720081298024e-09 4.0878294473607578e-08 -0.0002501799206652385 3.7098643076679757e-08 5.4396534368579595e-08 -0.00025020751731106168 -5.5060934260934691e-10 8.0959633824016651e-08 -0.0002501904542286894 1.2954140607460982e-08 5.6981952278945557e-08 -0.00050024586989989752 4.6043480782604051e-09 -1.6725032295509759e-10 -0.0002501972238203639 -5.4682828233691174e-08 1.3878110240878115e-08 -0.00025020481773479672 -7.0323720081298024e-09 4.0878294473607578e-08 -0.0002501799206652385 -6.1942150567722946e-09 8.8918322772356709e-09 -6.9361774057380854e-08 3.7098643076679757e-08 5.4396534368579595e-08 -0.00025020751731106168 4.6043480782604051e-09 -1.6725032295509759e-10 -0.0002501972238203639 -7.0323720081298024e-09 4.0878294473607578e-08 -0.0002501799206652385 -6.1942150567722946e-09 8.8918322772356709e-09 -6.9361774057380854e-08 -4.0158129799824538e-08 -5.0913309091213282e-08 -0.00025020398731661448 -5.4682828233691174e-08 1.3878110240878115e-08 -0.00025020481773479672 4.6043480782604051e-09 -1.6725032295509759e-10 -0.0002501972238203639 3.7897867760641685e-09 2.5030873695399705e-09 -1.8649049614659054e-07 5.319193159560134e-08 -2.6643250058174715e-08 -0.00025019539615658018 4.6043480782604051e-09 -1.6725032295509759e-10 -0.0002501972238203639 6.9850117031572248e-08 1.9623091972439513e-08 -0.00025024114742288743 -1.9810294987875363e-08 -1.3053250832239394e-08 -2.5384931543311983e-07 4.6043480782604051e-09 -1.6725032295509759e-10 -0.0002501972238203639 5.319193159560134e-08 -2.6643250058174715e-08 -0.00025019539615658018 1.2402619000110807e-08 -4.2729648546673588e-08 -0.00025018016554376746 5.7103986720763e-09 -9.1897550778098291e-09 -7.2571556168674899e-08 3.7098643076679757e-08 5.4396534368579595e-08 -0.00025020751731106168 1.0163471781954388e-07 8.6141561073302735e-08 -0.00025025732051556487 6.9850117031572248e-08 1.9623091972439513e-08 -0.00025024114742288743 -1.9810294987875363e-08 -1.3053250832239394e-08 -2.5384931543311983e-07 4.6043480782604051e-09 -1.6725032295509759e-10 -0.0002501972238203639 3.7098643076679757e-08 5.4396534368579595e-08 -0.00025020751731106168 6.9850117031572234e-08 1.9623091972439513e-08 -0.00025024114742288738 -1.9810294987875363e-08 -1.3053250832239394e-08 -2.5384931543311983e-07 -6.1794285837121454e-10 -1.3447575133249285e-08 -1.849501686778729e-07 4.6043480782604051e-09 -1.6725032295509759e-10 -0.0002501972238203639 -1.9810294987875363e-08 -1.3053250832239394e-08 -2.5384931543311983e-07 3.7098643076679757e-08 5.4396534368579595e-08 -0.00025020751731106168 -6.1794285837121454e-10 -1.3447575133249285e-08 -1.849501686778729e-07 3.7897867760641685e-09 2.5030873695399705e-09 -1.8649049614659054e-07 -1.9810294987875363e-08 -1.3053250832239394e-08 -2.5384931543311983e-07 4.6043480782604051e-09 -1.6725032295509759e-10 -0.0002501972238203639 3.7897867760641685e-09 2.5030873695399705e-09 -1.8649049614659054e-07 -1.2601061664699084e-08 4.7781307326028178e-09 -1.7697879554909296e-07 -1.9810294987875363e-08 -1.3053250832239394e-08 -2.5384931543311983e-07 5.3191931595601327e-08 -2.6643250058174709e-08 -0.00025019539615658013 5.319193159560134e-08 -2.6643250058174715e-08 -0.00025019539615658018 4.6043480782604051e-09 -1.6725032295509759e-10 -0.0002501972238203639 3.7897867760641362e-09 2.5030873695399755e-09 -1.8649049614664287e-07 5.7103986720763e-09 -9.1897550778098291e-09 -7.2571556168674899e-08 3.7897867760641685e-09 2.5030873695399705e-09 -1.8649049614659054e-07 5.3191931595601294e-08 -2.6643250058174699e-08 -0.00025019539615658013 -1.9810294987875363e-08 -1.3053250832239394e-08 -2.5384931543311983e-07 4.6043480782604051e-09 -1.6725032295509759e-10 -0.0002501972238203639 -1.2601061664699084e-08 4.7781307326028178e-09 -1.7697879554909296e-07 3.7897867760641685e-09 2.5030873695399705e-09 -1.8649049614659054e-07 5.7103986720763e-09 -9.1897550778098291e-09 -7.2571556168674899e-08 5.319193159560134e-08 -2.6643250058174715e-08 -0.00025019539615658018 -5.4682828233691174e-08 1.3878110240878115e-08 -0.00025020481773479672 -4.0158129799824538e-08 -5.0913309091213282e-08 -0.00025020398731661448 -2.6317448083068266e-09 1.1332133547727047e-08 -2.1468366827840965e-07 3.7897867760641743e-09 2.5030873695399531e-09 -1.8649049614658932e-07 -5.4682828233691174e-08 1.3878110240878115e-08 -0.00025020481773479672 4.6043480782604051e-09 -1.6725032295509759e-10 -0.0002501972238203639 3.7897867760641536e-09 2.5030873695399705e-09 -1.8649049614657987e-07 -6.1942150567722946e-09 8.8918322772356709e-09 -6.9361774057380854e-08 3.7897867760641685e-09 2.5030873695399705e-09 -1.8649049614659054e-07 -4.0158129799824538e-08 -5.0913309091213282e-08 -0.00025020398731661443 5.7103986720763e-09 -9.1897550778098291e-09 -7.2571556168674899e-08 4.6043480782604051e-09 -1.6725032295509759e-10 -0.0002501972238203639 4.6043480782604051e-09 -1.6725032295509759e-10 -0.0002501972238203639 3.7098643076679764e-08 5.4396534368579615e-08 -0.00025020751731106168 -6.1794285837122116e-10 -1.3447575133249333e-08 -1.8495016867789884e-07 -6.1942150567722747e-09 8.8918322772357404e-09 -6.9361774057456915e-08 -6.1942150567722946e-09 8.8918322772356709e-09 -6.9361774057380854e-08 -6.1794285837121454e-10 -1.3447575133249285e-08 -1.849501686778729e-07 5.4298367918061628e-09 -1.6140606187425454e-08 -8.8469819575516128e-08 3.7098643076679757e-08 5.4396534368579595e-08 -0.00025020751731106168 -6.1942150567722946e-09 8.8918322772356709e-09 -6.9361774057380854e-08 3.7098643076679757e-08 5.4396534368579595e-08 -0.00025020751731106168 5.4298367918061604e-09 -1.6140606187425454e-08 -8.846981957551908e-08 -7.0323720081298024e-09 4.0878294473607578e-08 -0.0002501799206652385 3.7897867760641685e-09 2.5030873695399705e-09 -1.8649049614659054e-07 -6.1794285837121702e-10 -1.344757513324928e-08 -1.8495016867787287e-07 -6.1942150567722946e-09 8.8918322772356709e-09 -6.9361774057380854e-08 4.6043480782604051e-09 -1.6725032295509759e-10 -0.0002501972238203639 -5.4682828233691174e-08 1.3878110240878115e-08 -0.00025020481773479672 -7.0323720081298024e-09 4.0878294473607578e-08 -0.0002501799206652385 -6.1942150567722946e-09 8.8918322772356709e-09 -6.9361774057380854e-08 1.3274554778931594e-08 -1.1032834448783912e-08 -1.074340480318001e-07 9.3687500267197246e-09 -6.9492355122834994e-09 -2.328077118236192e-07 -6.1942150567722946e-09 8.8918322772356709e-09 -6.9361774057380854e-08 1.3274554778931594e-08 -1.1032834448783912e-08 -1.074340480318001e-07 -5.4682828233691174e-08 1.3878110240878115e-08 -0.00025020481773479672 -8.5148350349292685e-08 1.0636631122133809e-07 -0.00025022553726982734 -5.4682828233691174e-08 1.3878110240878115e-08 -0.00025020481773479672 9.3687500267197246e-09 -6.9492355122834994e-09 -2.328077118236192e-07 1.3274554778931594e-08 -1.1032834448783912e-08 -1.074340480318001e-07 -6.1942150567722946e-09 8.8918322772356709e-09 -6.9361774057380854e-08 5.4298367918061628e-09 -1.6140606187425454e-08 -8.8469819575516128e-08 1.3274554778931594e-08 -1.1032834448783912e-08 -1.074340480318001e-07 -7.0323720081298024e-09 4.0878294473607578e-08 -0.0002501799206652385 -7.0323720081298024e-09 4.0878294473607578e-08 -0.0002501799206652385 -5.4682828233691174e-08 1.3878110240878115e-08 -0.00025020481773479672 -3.5776833947950643e-08 6.6278349891263183e-08 -0.0002501936936126144 1.3274554778931594e-08 -1.1032834448783912e-08 -1.074340480318001e-07 -5.4682828233691174e-08 1.3878110240878115e-08 -0.00025020481773479672 -8.5148350349292672e-08 1.0636631122133809e-07 -0.00025022553726982734 -3.5776833947950643e-08 6.6278349891263183e-08 -0.0002501936936126144 1.3274554778931594e-08 -1.1032834448783912e-08 -1.074340480318001e-07 -5.5060934260934691e-10 8.0959633824016651e-08 -0.0002501904542286894 -7.0323720081298024e-09 4.0878294473607578e-08 -0.0002501799206652385 -3.5776833947950643e-08 6.6278349891263183e-08 -0.0002501936936126144 1.3274554778931594e-08 -1.1032834448783912e-08 -1.074340480318001e-07 -2.6317448083068262e-09 1.1332133547726994e-08 -2.1468366827848377e-07 9.3687500267197179e-09 -6.9492355122835052e-09 -2.3280771182361922e-07 2.4515321134658616e-08 1.6152693604519199e-08 -1.8749941018175782e-07 -5.4682828233691207e-08 1.3878110240878125e-08 -0.00025020481773479683 9.3687500267197246e-09 -6.9492355122834994e-09 -2.328077118236192e-07 3.7897867760641685e-09 2.5030873695399705e-09 -1.8649049614659054e-07 -6.1942150567722946e-09 8.8918322772356709e-09 -6.9361774057380854e-08 -5.4682828233691174e-08 1.3878110240878115e-08 -0.00025020481773479672 9.3687500267197246e-09 -6.9492355122834994e-09 -2.328077118236192e-07 -2.6317448083068262e-09 1.1332133547726994e-08 -2.1468366827848377e-07 3.7897867760641685e-09 2.5030873695399705e-09 -1.8649049614659054e-07 -5.4682828233691174e-08 1.3878110240878115e-08 -0.00025020481773479672 -5.2296045244011873e-08 -4.3714227390428461e-09 -2.4535997825990501e-07 -1.3343362178334174e-07 -1.9517222007819762e-08 -0.00025021885906525927 2.4515321134658599e-08 1.6152693604519176e-08 -1.8749941018174715e-07 -1.2759872448069573e-07 4.9916605714587851e-08 -0.00025023836984581165 9.3687500267197246e-09 -6.9492355122834994e-09 -2.328077118236192e-07 -1.2759872448069573e-07 4.9916605714587851e-08 -0.00025023836984581165 2.4515321134658616e-08 1.6152693604519199e-08 -1.8749941018174962e-07 -5.4682828233691174e-08 1.3878110240878115e-08 -0.00025020481773479672 9.3687500267197246e-09 -6.9492355122834994e-09 -2.328077118236192e-07 -5.2296045244011873e-08 -4.3714227390428461e-09 -2.4535997825990501e-07 2.4515321134658616e-08 1.6152693604519199e-08 -1.8749941018175782e-07 -1.2759872448069573e-07 4.9916605714587851e-08 -0.00025023836984581165 -1.2759872448069573e-07 4.9916605714587851e-08 -0.00025023836984581165 -5.4682828233691174e-08 1.3878110240878115e-08 -0.00025020481773479672 -8.4335887259894109e-08 -2.3212682267598333e-08 -0.00025021818923034105 2.4515321134658616e-08 1.6152693604519199e-08 -1.8749941018175782e-07 -1.2759872448069573e-07 4.9916605714587851e-08 -0.00025023836984581165 -8.5148350349292685e-08 1.0636631122133809e-07 -0.00025022553726982734 -5.4682828233691174e-08 1.3878110240878115e-08 -0.00025020481773479672 9.3687500267197246e-09 -6.9492355122834994e-09 -2.328077118236192e-07 -4.6484176300289615e-08 2.5656670484043509e-08 -2.4541158876292746e-07 -5.2296045244011873e-08 -4.3714227390428412e-09 -2.4535997825992968e-07 9.3687500267197246e-09 -6.9492355122834994e-09 -2.328077118236192e-07 -1.2759872448069573e-07 4.9916605714587851e-08 -0.00025023836984581165 -4.6484176300289615e-08 2.5656670484043509e-08 -2.4541158876292746e-07 -1.2759872448069573e-07 4.9916605714587851e-08 -0.00025023836984581165 9.3687500267197246e-09 -6.9492355122834994e-09 -2.328077118236192e-07 -8.5148350349292685e-08 1.0636631122133809e-07 -0.00025022553726982734 -4.6484176300289615e-08 2.5656670484043509e-08 -2.4541158876292746e-07 9.3687500267197246e-09 -6.9492355122834994e-09 -2.328077118236192e-07 1.3274554778931594e-08 -1.1032834448783912e-08 -1.074340480318001e-07 -8.5148350349292685e-08 1.0636631122133809e-07 -0.00025022553726982734 -2.9779776082150864e-08 4.455454942600807e-08 -1.4612564950150811e-07 -4.6484176300289615e-08 2.5656670484043509e-08 -2.4541158876292746e-07 1.3274554778931594e-08 -1.1032834448783912e-08 -1.074340480318001e-07 -8.5148350349292685e-08 1.0636631122133809e-07 -0.00025022553726982734 -7.0323720081298024e-09 4.0878294473607578e-08 -0.0002501799206652385 -5.5060934260934815e-10 8.0959633824016651e-08 -0.0002501904542286894 5.4298367918061628e-09 -1.6140606187425454e-08 -8.8469819575516128e-08 1.3274554778931594e-08 -1.1032834448783912e-08 -1.074340480318001e-07 -2.9779776082150864e-08 4.455454942600807e-08 -1.4612564950150811e-07 -8.5148350349292646e-08 1.0636631122133809e-07 -0.00025022553726982739 1.3274554778931594e-08 -1.1032834448783912e-08 -1.074340480318001e-07 -1.950338066840003e-08 1.3539519295682571e-07 -0.0002502022281932811 5.4298367918061628e-09 -1.6140606187425454e-08 -8.8469819575516128e-08 -2.9779776082150864e-08 4.455454942600807e-08 -1.4612564950150811e-07 1.3274554778931594e-08 -1.1032834448783912e-08 -1.074340480318001e-07 -1.950338066840003e-08 1.3539519295682571e-07 -0.0002502022281932811 5.4298367918061628e-09 -1.6140606187425454e-08 -8.8469819575516128e-08 -1.950338066840003e-08 1.3539519295682571e-07 -0.0002502022281932811 1.3274554778931594e-08 -1.1032834448783912e-08 -1.074340480318001e-07 -5.5060934260934691e-10 8.0959633824016651e-08 -0.0002501904542286894 -3.9995650759196232e-09 5.3151282975880431e-08 -2.0220333290372797e-07 -2.9779776082150864e-08 4.455454942600807e-08 -1.4612564950150811e-07 5.4298367918061628e-09 -1.6140606187425454e-08 -8.8469819575516128e-08 -1.950338066840003e-08 1.3539519295682571e-07 -0.0002502022281932811 -1.950338066840003e-08 1.3539519295682571e-07 -0.0002502022281932811 -5.5060934260934691e-10 8.0959633824016651e-08 -0.0002501904542286894 -3.5776833947950643e-08 6.6278349891263183e-08 -0.0002501936936126144 1.3274554778931594e-08 -1.1032834448783912e-08 -1.074340480318001e-07 -8.5148350349292685e-08 1.0636631122133809e-07 -0.00025022553726982734 -1.950338066840003e-08 1.3539519295682571e-07 -0.0002502022281932811 -3.5776833947950643e-08 6.6278349891263183e-08 -0.0002501936936126144 1.3274554778931594e-08 -1.1032834448783912e-08 -1.074340480318001e-07 -1.950338066840003e-08 1.3539519295682571e-07 -0.0002502022281932811 -8.5148350349292685e-08 1.0636631122133809e-07 -0.00025022553726982734 -3.5776833947950643e-08 6.6278349891263183e-08 -0.0002501936936126144 -1.0132650205755014e-07 4.3164003287285081e-08 -0.0005002481424218663 5.2027495737799984e-08 1.2723520133742325e-07 -0.00025022351707994222 -1.950338066840003e-08 1.3539519295682571e-07 -0.0002502022281932811 -5.5060934260934691e-10 8.0959633824016651e-08 -0.0002501904542286894 -6.6338940277702323e-08 8.7950496210806823e-08 -0.00050024100496401196 -1.9840649271549554e-08 3.6185363363215565e-08 -0.00050023854284750064 -2.5387338464478977e-08 6.9260101142205313e-08 -0.00050024057265393913 -5.5060934260934691e-10 8.0959633824016651e-08 -0.0002501904542286894 -3.5776833947950643e-08 6.6278349891263183e-08 -0.0002501936936126144 -1.950338066840003e-08 1.3539519295682571e-07 -0.0002502022281932811 -1.0132650205755014e-07 4.3164003287285067e-08 -0.00050024814242186641 -3.5776833947950643e-08 6.6278349891263183e-08 -0.0002501936936126144 -6.6338940277702323e-08 8.7950496210806823e-08 -0.00050024100496401196 -1.0132650205755014e-07 4.3164003287285081e-08 -0.0005002481424218663 -6.6338940277702323e-08 8.7950496210806823e-08 -0.00050024100496401196 -5.1288148518002281e-08 5.0052271347562858e-08 -0.00050023973668814341 -3.5776833947950643e-08 6.6278349891263183e-08 -0.0002501936936126144 -6.6338940277702323e-08 8.7950496210806823e-08 -0.00050024100496401196 -2.5387338464478983e-08 6.9260101142205313e-08 -0.00050024057265393913 -5.1288148518002281e-08 5.0052271347562858e-08 -0.00050023973668814341 -3.5776833947950643e-08 6.6278349891263183e-08 -0.0002501936936126144 -5.5060934260934691e-10 8.0959633824016651e-08 -0.0002501904542286894 -1.950338066840003e-08 1.3539519295682571e-07 -0.0002502022281932811 -3.5776833947950643e-08 6.6278349891263183e-08 -0.0002501936936126144 -6.6338940277702323e-08 8.7950496210806823e-08 -0.00050024100496401196 -5.5060934260934691e-10 8.0959633824016651e-08 -0.0002501904542286894 -6.6338940277702323e-08 8.7950496210806823e-08 -0.00050024100496401196 -3.5776833947950643e-08 6.6278349891263183e-08 -0.0002501936936126144 -2.5387338464478983e-08 6.9260101142205313e-08 -0.00050024057265393913 -1.34625197469844e-08 1.0928000439039114e-07 -0.00050025034434482191 -6.6338940277702323e-08 8.7950496210806823e-08 -0.00050024100496401196 -2.5387338464478983e-08 6.9260101142205313e-08 -0.00050024057265393913 -5.4063947512711425e-08 9.7721173477354984e-08 -0.00075027603226237249 -2.5387338464478983e-08 6.9260101142205313e-08 -0.00050024057265393913 -6.6338940277702323e-08 8.7950496210806823e-08 -0.00050024100496401196 -5.1288148518002281e-08 5.0052271347562858e-08 -0.00050023973668814341 -5.4063947512711425e-08 9.7721173477354984e-08 -0.00075027603226237249 -6.6338940277702323e-08 8.7950496210806823e-08 -0.00050024100496401196 -1.0132650205755014e-07 4.3164003287285081e-08 -0.0005002481424218663 -5.1288148518002281e-08 5.0052271347562858e-08 -0.00050023973668814341 -9.5745055180024362e-08 5.7469873844976855e-08 -0.00075027822164851936 5.2027495737799984e-08 1.2723520133742325e-07 -0.00025022351707994222 -6.6338940277702336e-08 8.7950496210806796e-08 -0.00050024100496401185 -5.5060934260934691e-10 8.0959633824016651e-08 -0.0002501904542286894 -1.34625197469844e-08 1.0928000439039114e-07 -0.00050025034434482191 4.487812460699719e-08 1.0091049890990442e-07 -0.00050026551339592469 -1.34625197469844e-08 1.0928000439039114e-07 -0.00050025034434482191 1.2954140607460982e-08 5.6981952278945557e-08 -0.00050024586989989752 1.9989999458124343e-09 1.1165772759749064e-07 -0.00075027970848854015 4.487812460699719e-08 1.0091049890990442e-07 -0.00050026551339592469 1.2954140607460987e-08 5.698195227894555e-08 -0.00050024586989989752 5.7244326202712737e-08 3.4702527867377641e-08 -0.00050025570272999649 5.7209199127993408e-08 9.5796432377508078e-08 -0.00075028566214623189 1.2954140607460982e-08 5.6981952278945557e-08 -0.00050024586989989752 -1.34625197469844e-08 1.0928000439039114e-07 -0.00050025034434482191 -2.5387338464478983e-08 6.9260101142205313e-08 -0.00050024057265393913 1.9989999458124385e-09 1.1165772759749064e-07 -0.00075027970848854026 1.2954140607460982e-08 5.6981952278945557e-08 -0.00050024586989989752 -1.9840649271549557e-08 3.6185363363215565e-08 -0.00050023854284750064 -2.5387338464478983e-08 6.9260101142205313e-08 -0.00050024057265393913 -5.5060934260934691e-10 8.0959633824016651e-08 -0.0002501904542286894 3.7098643076679757e-08 5.4396534368579595e-08 -0.00025020751731106168 -1.346251974698441e-08 1.0928000439039114e-07 -0.00050025034434482191 -5.5060934260934691e-10 8.0959633824016651e-08 -0.0002501904542286894 1.2954140607460982e-08 5.6981952278945557e-08 -0.00050024586989989752 3.7098643076679757e-08 5.4396534368579595e-08 -0.00025020751731106168 5.2027495737799984e-08 1.2723520133742325e-07 -0.00025022351707994222 -5.5060934260934691e-10 8.0959633824016651e-08 -0.0002501904542286894 -1.34625197469844e-08 1.0928000439039114e-07 -0.00050025034434482191 -6.6338940277702323e-08 8.7950496210806823e-08 -0.00050024100496401196 -1.3462519746984397e-08 1.0928000439039116e-07 -0.00050025034434482191 -2.5387338464478983e-08 6.9260101142205313e-08 -0.00050024057265393913 -5.5060934260934691e-10 8.0959633824016651e-08 -0.0002501904542286894 -1.34625197469844e-08 1.0928000439039114e-07 -0.00050025034434482191 1.2954140607460982e-08 5.6981952278945557e-08 -0.00050024586989989752 -2.5387338464478983e-08 6.9260101142205313e-08 -0.00050024057265393913 -5.5060934260934691e-10 8.0959633824016651e-08 -0.0002501904542286894 1.0163471781954388e-07 8.6141561073302735e-08 -0.00025025732051556487 3.7098643076679757e-08 5.4396534368579589e-08 -0.00025020751731106168 6.9850117031572248e-08 1.9623091972439513e-08 -0.00025024114742288743 4.487812460699719e-08 1.0091049890990442e-07 -0.00050026551339592469 -1.34625197469844e-08 1.0928000439039114e-07 -0.00050025034434482191 4.487812460699719e-08 1.0091049890990442e-07 -0.00050026551339592469 1.2954140607460982e-08 5.6981952278945557e-08 -0.00050024586989989752 3.7098643076679757e-08 5.4396534368579595e-08 -0.00025020751731106168 1.0163471781954388e-07 8.6141561073302735e-08 -0.00025025732051556487 5.2027495737799984e-08 1.2723520133742325e-07 -0.00025022351707994222 3.7098643076679757e-08 5.4396534368579595e-08 -0.00025020751731106168 -1.3462519746984383e-08 1.0928000439039116e-07 -0.00050025034434482191 1.0163471781954388e-07 8.6141561073302735e-08 -0.00025025732051556487 -1.3462519746984387e-08 1.0928000439039114e-07 -0.0005002503443448218 3.7098643076679757e-08 5.4396534368579595e-08 -0.00025020751731106168 4.487812460699719e-08 1.0091049890990442e-07 -0.00050026551339592469 4.487812460699719e-08 1.0091049890990442e-07 -0.00050026551339592469 1.2954140607460984e-08 5.6981952278945557e-08 -0.00050024586989989741 3.7098643076679751e-08 5.4396534368579628e-08 -0.00025020751731106157 6.9850117031572248e-08 1.9623091972439513e-08 -0.00025024114742288743 5.2027495737799984e-08 1.2723520133742325e-07 -0.00025022351707994222 1.0163471781954388e-07 8.6141561073302735e-08 -0.00025025732051556487 3.7098643076679757e-08 5.4396534368579595e-08 -0.00025020751731106168 -6.1794285837121454e-10 -1.3447575133249285e-08 -1.849501686778729e-07 -1.950338066840003e-08 1.3539519295682571e-07 -0.0002502022281932811 5.2027495737799997e-08 1.2723520133742325e-07 -0.00025022351707994222 -5.5060934260934691e-10 8.0959633824016651e-08 -0.0002501904542286894 5.4298367918061628e-09 -1.6140606187425454e-08 -8.8469819575516128e-08 3.7098643076679757e-08 5.4396534368579595e-08 -0.00025020751731106168 -7.0323720081298065e-09 4.0878294473607578e-08 -0.0002501799206652385 -5.5060934260934691e-10 8.0959633824016651e-08 -0.0002501904542286894 5.4298367918061628e-09 -1.6140606187425454e-08 -8.8469819575516128e-08 5.2027495737799984e-08 1.2723520133742325e-07 -0.00025022351707994222 3.7098643076679757e-08 5.4396534368579595e-08 -0.00025020751731106168 -5.5060934260934691e-10 8.0959633824016651e-08 -0.0002501904542286894 5.4298367918061628e-09 -1.6140606187425454e-08 -8.8469819575516128e-08 -6.1794285837121454e-10 -1.3447575133249285e-08 -1.849501686778729e-07 5.2027495737799984e-08 1.2723520133742325e-07 -0.00025022351707994222 5.4298367918061628e-09 -1.6140606187425454e-08 -8.8469819575516128e-08 3.7098643076679757e-08 5.4396534368579595e-08 -0.00025020751731106168 -6.1794285837121454e-10 -1.3447575133249285e-08 -1.849501686778729e-07 -3.9995650759196232e-09 5.3151282975880431e-08 -2.0220333290372797e-07 5.4298367918061628e-09 -1.6140606187425454e-08 -8.8469819575516128e-08 5.2027495737799984e-08 1.2723520133742325e-07 -0.00025022351707994222 -3.9995650759196232e-09 5.3151282975880431e-08 -2.0220333290372797e-07 -1.9503380668399973e-08 1.3539519295682571e-07 -0.0002502022281932811 5.4298367918061628e-09 -1.6140606187425454e-08 -8.8469819575516128e-08 5.2027495737799984e-08 1.2723520133742325e-07 -0.00025022351707994222 2.4287446514253969e-08 4.6341705734313754e-08 -2.7341331844239983e-07 5.2027495737799978e-08 1.2723520133742323e-07 -0.00025022351707994217 -6.1794285837121454e-10 -1.3447575133249285e-08 -1.849501686778729e-07 1.0163471781954388e-07 8.6141561073302735e-08 -0.00025025732051556487 1.0163471781954388e-07 8.6141561073302735e-08 -0.00025025732051556487 3.7098643076679751e-08 5.4396534368579589e-08 -0.00025020751731106162 -6.1794285837119779e-10 -1.3447575133249303e-08 -1.8495016867777072e-07 -1.9810294987875363e-08 -1.3053250832239394e-08 -2.5384931543311983e-07 2.4287446514253969e-08 4.6341705734313754e-08 -2.7341331844239983e-07 -6.1794285837121981e-10 -1.3447575133249288e-08 -1.849501686778729e-07 -1.9810294987875363e-08 -1.3053250832239394e-08 -2.5384931543311983e-07 1.0163471781954388e-07 8.6141561073302735e-08 -0.00025025732051556487 2.4287446514253969e-08 4.6341705734313754e-08 -2.7341331844239983e-07 -3.9995650759196232e-09 5.3151282975880431e-08 -2.0220333290372797e-07 -6.1794285837121454e-10 -1.3447575133249285e-08 -1.849501686778729e-07 5.2027495737799971e-08 1.2723520133742325e-07 -0.00025022351707994217 5.3715554683268371e-08 3.4992233930771681e-08 -1.8640962241883677e-07 1.0163471781954388e-07 8.6141561073302735e-08 -0.00025025732051556487 -1.9810294987875363e-08 -1.3053250832239394e-08 -2.5384931543311983e-07 1.3377332827312727e-07 1.9292434944003676e-08 -0.00025024721092536489 5.3715554683268371e-08 3.4992233930771681e-08 -1.8640962241883677e-07 2.4287446514253969e-08 4.6341705734313754e-08 -2.7341331844239983e-07 -1.9810294987875363e-08 -1.3053250832239394e-08 -2.5384931543311983e-07 1.0163471781954388e-07 8.6141561073302735e-08 -0.00025025732051556487 1.3377332827312727e-07 1.9292434944003676e-08 -0.00025024721092536489 4.487812460699719e-08 1.0091049890990442e-07 -0.00050026551339592469 6.9850117031572248e-08 1.9623091972439513e-08 -0.00025024114742288743 8.7884144987998554e-08 6.6381839401609373e-08 -0.00050026243348793133 1.3377332827312727e-07 1.9292434944003676e-08 -0.00025024721092536489 1.0163471781954388e-07 8.6141561073302735e-08 -0.00025025732051556487 6.9850117031572248e-08 1.9623091972439513e-08 -0.00025024114742288743 4.487812460699719e-08 1.0091049890990442e-07 -0.00050026551339592469 8.7884144987998554e-08 6.6381839401609373e-08 -0.00050026243348793133 4.487812460699719e-08 1.0091049890990442e-07 -0.00050026551339592469 5.7244326202712737e-08 3.4702527867377641e-08 -0.00050025570272999649 5.7209199127993408e-08 9.5796432377508078e-08 -0.00075028566214623189 2.9118623286993817e-08 -4.4973803613246172e-08 -1.3795280591746329e-07 8.4821262834489885e-08 -1.069612616629088e-07 -0.00025021793237773693 -1.2701596961893357e-08 1.1314998331728964e-08 -9.8543762261211431e-08 1.9424310871453802e-08 -1.3542569724798694e-07 -0.00025019745891851123 8.4821262834489951e-08 -1.069612616629088e-07 -0.00025021793237773687 1.9424310871453802e-08 -1.3542569724798694e-07 -0.00025019745891851123 3.6405868250133183e-08 -7.0375785446202949e-08 -0.00025018848977026719 -1.2701596961893357e-08 1.1314998331728964e-08 -9.8543762261211431e-08 5.319193159560134e-08 -2.6643250058174715e-08 -0.00025019539615658018 8.4821262834489951e-08 -1.069612616629088e-07 -0.00025021793237773687 3.6405868250133183e-08 -7.0375785446202949e-08 -0.00025018848977026719 -1.2701596961893357e-08 1.1314998331728964e-08 -9.8543762261211431e-08 2.9118623286993817e-08 -4.4973803613246172e-08 -1.3795280591746329e-07 4.7289757540756627e-08 -2.4815516377912951e-08 -2.0212896989853116e-07 -1.2701596961893357e-08 1.1314998331728964e-08 -9.8543762261211431e-08 8.4821262834489951e-08 -1.069612616629088e-07 -0.00025021793237773687 8.4821262834489951e-08 -1.069612616629088e-07 -0.00025021793237773687 5.3191931595601334e-08 -2.6643250058174695e-08 -0.00025019539615658018 -1.2601061664699084e-08 4.7781307326028178e-09 -1.7697879554909296e-07 -1.2701596961893357e-08 1.1314998331728964e-08 -9.8543762261211431e-08 4.7289757540756627e-08 -2.4815516377912951e-08 -2.0212896989853116e-07 -1.2601061664699093e-08 4.7781307326028227e-09 -1.7697879554909293e-07 -1.2701596961893357e-08 1.1314998331728964e-08 -9.8543762261211431e-08 8.4821262834489951e-08 -1.069612616629088e-07 -0.00025021793237773687 4.7289757540756627e-08 -2.4815516377912951e-08 -2.0212896989853116e-07 1.2751890474081638e-07 -4.9479640063732693e-08 -0.00025025247404304762 -1.2601061664699083e-08 4.7781307326028211e-09 -1.7697879554908398e-07 8.4821262834489951e-08 -1.069612616629088e-07 -0.00025021793237773687 4.7289757540756627e-08 -2.4815516377912951e-08 -2.0212896989853116e-07 5.2083113339657337e-08 4.061643378792448e-09 -2.7385056570802882e-07 -1.2601061664699084e-08 4.7781307326028178e-09 -1.7697879554909296e-07 1.2751890474081638e-07 -4.9479640063732693e-08 -0.00025025247404304762 -1.2601061664699084e-08 4.7781307326028178e-09 -1.7697879554909296e-07 5.2083113339657337e-08 4.061643378792448e-09 -2.7385056570802882e-07 -1.9810294987875363e-08 -1.3053250832239394e-08 -2.5384931543311983e-07 1.2751890474081641e-07 -4.9479640063732713e-08 -0.00025025247404304772 -1.2601061664699084e-08 4.7781307326028178e-09 -1.7697879554909296e-07 1.2751890474081641e-07 -4.9479640063732699e-08 -0.00025025247404304762 -1.9810294987875363e-08 -1.3053250832239394e-08 -2.5384931543311983e-07 5.319193159560134e-08 -2.6643250058174715e-08 -0.00025019539615658018 5.2083113339657337e-08 4.061643378792448e-09 -2.7385056570802882e-07 5.3715554683268378e-08 3.4992233930771675e-08 -1.8640962241886144e-07 -1.9810294987875363e-08 -1.3053250832239394e-08 -2.5384931543311983e-07 1.3377332827312727e-07 1.9292434944003676e-08 -0.00025024721092536489 5.2083113339657337e-08 4.061643378792448e-09 -2.7385056570802882e-07 1.3377332827312727e-07 1.9292434944003676e-08 -0.00025024721092536489 -1.9810294987875363e-08 -1.3053250832239394e-08 -2.5384931543311983e-07 1.2751890474081638e-07 -4.9479640063732693e-08 -0.00025025247404304762 1.0163471781954388e-07 8.6141561073302735e-08 -0.00025025732051556487 1.3377332827312727e-07 1.9292434944003676e-08 -0.00025024721092536489 6.9850117031572248e-08 1.9623091972439513e-08 -0.00025024114742288743 -1.9810294987875363e-08 -1.3053250832239394e-08 -2.5384931543311983e-07 1.3377332827312727e-07 1.9292434944003676e-08 -0.00025024721092536489 1.2751890474081638e-07 -4.9479640063732693e-08 -0.00025025247404304762 6.9850117031572248e-08 1.9623091972439513e-08 -0.00025024114742288743 -1.9810294987875363e-08 -1.3053250832239394e-08 -2.5384931543311983e-07 1.2751890474081638e-07 -4.9479640063732693e-08 -0.00025025247404304762 8.4821262834489951e-08 -1.069612616629088e-07 -0.00025021793237773687 5.319193159560134e-08 -2.6643250058174715e-08 -0.00025019539615658018 -1.2601061664699112e-08 4.7781307326028285e-09 -1.7697879554897707e-07 1.2751890474081638e-07 -4.9479640063732693e-08 -0.00025025247404304762 5.319193159560134e-08 -2.6643250058174715e-08 -0.00025019539615658018 6.9850117031572248e-08 1.9623091972439513e-08 -0.00025024114742288743 -1.9810294987875363e-08 -1.3053250832239394e-08 -2.5384931543311983e-07 1.0922075973763897e-07 1.335784036234872e-08 -0.00050026177528150132 1.0146930670947647e-07 -4.2926648010002776e-08 -0.00050024698847500398 5.4738989500807387e-08 -1.5673901802753592e-08 -0.00050024195025729539 5.3191931595601347e-08 -2.6643250058174722e-08 -0.00025019539615658007 8.4821262834489951e-08 -1.069612616629088e-07 -0.00025021793237773687 1.2751890474081638e-07 -4.9479640063732693e-08 -0.00025025247404304762 5.319193159560134e-08 -2.6643250058174715e-08 -0.00025019539615658018 1.0922075973763897e-07 1.335784036234872e-08 -0.00050026177528150132 5.319193159560134e-08 -2.6643250058174715e-08 -0.00025019539615658018 1.0922075973763899e-07 1.3357840362348725e-08 -0.00050026177528150143 6.9850117031572248e-08 1.9623091972439513e-08 -0.00025024114742288743 5.4738989500807387e-08 -1.5673901802753592e-08 -0.00050024195025729539 1.0922075973763897e-07 1.335784036234872e-08 -0.00050026177528150132 5.4738989500807387e-08 -1.5673901802753592e-08 -0.00050024195025729539 5.7244326202712737e-08 3.4702527867377641e-08 -0.00050025570272999649 6.9850117031572248e-08 1.9623091972439513e-08 -0.00025024114742288743 5.319193159560134e-08 -2.6643250058174715e-08 -0.00025019539615658018 1.2751890474081638e-07 -4.9479640063732693e-08 -0.00025025247404304762 6.9850117031572248e-08 1.9623091972439513e-08 -0.00025024114742288743 1.0922075973763897e-07 1.335784036234875e-08 -0.00050026177528150143 4.487812460699719e-08 1.0091049890990442e-07 -0.00050026551339592469 8.7884144987998554e-08 6.6381839401609373e-08 -0.00050026243348793133 5.7244326202712737e-08 3.4702527867377641e-08 -0.00050025570272999649 6.9850117031572248e-08 1.9623091972439513e-08 -0.00025024114742288743 1.2751890474081638e-07 -4.9479640063732693e-08 -0.00025025247404304762 8.7884144987998554e-08 6.6381839401609373e-08 -0.00050026243348793133 6.9850117031572248e-08 1.9623091972439513e-08 -0.00025024114742288743 1.0922075973763897e-07 1.335784036234872e-08 -0.00050026177528150132 1.2751890474081638e-07 -4.9479640063732693e-08 -0.00025025247404304762 1.3377332827312724e-07 1.9292434944003679e-08 -0.00025024721092536489 6.9850117031572248e-08 1.9623091972439513e-08 -0.00025024114742288743 8.7884144987998554e-08 6.6381839401609373e-08 -0.00050026243348793133 8.7884144987998554e-08 6.6381839401609373e-08 -0.00050026243348793133 1.0922075973763897e-07 1.335784036234872e-08 -0.00050026177528150132 5.7244326202712737e-08 3.4702527867377641e-08 -0.00050025570272999649 6.9850117031572248e-08 1.9623091972439513e-08 -0.00025024114742288743 1.0922075973763897e-07 1.335784036234872e-08 -0.00050026177528150132 8.7884144987998554e-08 6.6381839401609359e-08 -0.00050026243348793133 5.7244326202712737e-08 3.4702527867377641e-08 -0.00050025570272999649 9.773174919674207e-08 5.4131343058225002e-08 -0.00075028440958027349 1.0146930670947647e-07 -4.2926648010002776e-08 -0.00050024698847500398 1.0922075973763897e-07 1.335784036234872e-08 -0.00050026177528150132 5.4738989500807387e-08 -1.5673901802753592e-08 -0.00050024195025729539 1.1166284956060045e-07 -1.8633836447845702e-09 -0.00075028411205121134 5.4738989500807387e-08 -1.5673901802753592e-08 -0.00050024195025729539 1.0922075973763897e-07 1.335784036234872e-08 -0.00050026177528150132 5.7244326202712737e-08 3.4702527867377641e-08 -0.00050025570272999649 1.1166284956060045e-07 -1.8633836447845772e-09 -0.00075028411205121145 1.0146930670947647e-07 -4.2926648010002776e-08 -0.00050024698847500398 5.4738989500807381e-08 -1.5673901802753595e-08 -0.00050024195025729528 5.1805934153494718e-08 -5.3007706776265342e-08 -0.00050023741773647839 9.5731269342177562e-08 -5.7488857014432856e-08 -0.00075027843508597522 6.6421005118310837e-08 -8.7910681369482475e-08 -0.00050023805451968073 1.0146930670947647e-07 -4.2926648010002776e-08 -0.00050024698847500398 5.1805934153494718e-08 -5.3007706776265342e-08 -0.00050023741773647839 9.5731269342177562e-08 -5.7488857014432856e-08 -0.00075027843508597522 8.4821262834489951e-08 -1.069612616629088e-07 -0.00025021793237773687 5.3191931595601327e-08 -2.6643250058174715e-08 -0.00025019539615658013 3.6405868250133183e-08 -7.0375785446202949e-08 -0.00025018848977026719 1.0146930670947647e-07 -4.2926648010002776e-08 -0.00050024698847500398 5.4738989500807387e-08 -1.5673901802753592e-08 -0.00050024195025729539 1.0146930670947647e-07 -4.2926648010002776e-08 -0.00050024698847500398 5.1805934153494718e-08 -5.3007706776265342e-08 -0.00050023741773647839 3.6405868250133183e-08 -7.0375785446202949e-08 -0.00025018848977026719 8.4821262834489951e-08 -1.069612616629088e-07 -0.00025021793237773687 1.0922075973763897e-07 1.335784036234872e-08 -0.00050026177528150132 5.319193159560134e-08 -2.6643250058174718e-08 -0.00025019539615658018 1.0146930670947647e-07 -4.2926648010002776e-08 -0.00050024698847500398 1.0146930670947647e-07 -4.2926648010002776e-08 -0.00050024698847500398 5.4738989500807374e-08 -1.5673901802753595e-08 -0.00050024195025729539 5.319193159560134e-08 -2.6643250058174715e-08 -0.00025019539615658018 3.6405868250133183e-08 -7.0375785446202949e-08 -0.00025018848977026719 1.0146930670947647e-07 -4.2926648010002776e-08 -0.00050024698847500398 6.6421005118310837e-08 -8.7910681369482475e-08 -0.00050023805451968073 5.1805934153494718e-08 -5.3007706776265342e-08 -0.00050023741773647839 3.6405868250133183e-08 -7.0375785446202949e-08 -0.00025018848977026719 1.9424310871453802e-08 -1.3542569724798694e-07 -0.00025019745891851123 8.4821262834489951e-08 -1.069612616629088e-07 -0.00025021793237773687 3.6405868250133183e-08 -7.0375785446202949e-08 -0.00025018848977026719 1.0146930670947647e-07 -4.2926648010002776e-08 -0.00050024698847500398 1.9424310871453802e-08 -1.3542569724798694e-07 -0.00025019745891851123 1.0146930670947648e-07 -4.2926648010002749e-08 -0.00050024698847500398 3.6405868250133183e-08 -7.0375785446202949e-08 -0.00025018848977026719 6.6421005118310837e-08 -8.7910681369482475e-08 -0.00050023805451968073 6.6421005118310837e-08 -8.7910681369482475e-08 -0.00050023805451968073 9.5731269342177536e-08 -5.7488857014432849e-08 -0.00075027843508597533 5.1805934153494718e-08 -5.3007706776265342e-08 -0.00050023741773647839 5.4070228973611877e-08 -9.7714605223153578e-08 -0.00075027448065849108 5.4070228973611877e-08 -9.7714605223153578e-08 -0.00075027448065849108 9.6706481976583768e-08 -5.5721953135531726e-08 -0.001000310337043201 4.912969184672443e-08 -5.6862900002167027e-08 -0.00075027503192186392 5.5907939072620665e-08 -9.6593883351501875e-08 -0.0010003083732922115 9.6706481976583781e-08 -5.5721953135531733e-08 -0.001000310337043201 5.3605822410524034e-08 -2.050314677758082e-08 -0.0010003100323126633 5.3657350029319365e-08 -1.9714371937881978e-08 -0.00075027713438146812 4.912969184672443e-08 -5.6862900002167027e-08 -0.00075027503192186392 9.5731269342177562e-08 -5.7488857014432856e-08 -0.00075027843508597522 5.3657350029319358e-08 -1.9714371937881982e-08 -0.00075027713438146812 4.912969184672443e-08 -5.6862900002167027e-08 -0.00075027503192186392 9.6706481976583781e-08 -5.5721953135531733e-08 -0.001000310337043201 9.5731269342177562e-08 -5.7488857014432856e-08 -0.00075027843508597522 1.1161024623459325e-07 1.0837005765308749e-10 -0.0010003128822878057 5.3657350029319365e-08 -1.9714371937881978e-08 -0.00075027713438146812 9.6706481976583781e-08 -5.5721953135531733e-08 -0.001000310337043201 5.4070228973611877e-08 -9.7714605223153578e-08 -0.00075027448065849108 9.5731269342177562e-08 -5.7488857014432856e-08 -0.00075027843508597522 4.912969184672443e-08 -5.6862900002167027e-08 -0.00075027503192186392 9.6706481976583781e-08 -5.5721953135531733e-08 -0.001000310337043201 9.5731269342177562e-08 -5.7488857014432856e-08 -0.00075027843508597522 5.4070228973611877e-08 -9.7714605223153578e-08 -0.00075027448065849108 4.912969184672443e-08 -5.6862900002167027e-08 -0.00075027503192186392 5.1805934153494718e-08 -5.3007706776265342e-08 -0.00050023741773647839 5.3657350029319365e-08 -1.9714371937881978e-08 -0.00075027713438146812 9.5731269342177562e-08 -5.7488857014432856e-08 -0.00075027843508597522 4.912969184672443e-08 -5.6862900002167027e-08 -0.00075027503192186392 5.1805934153494718e-08 -5.3007706776265342e-08 -0.00050023741773647839 1.0146930670947647e-07 -4.2926648010002776e-08 -0.00050024698847500398 1.1166284956060045e-07 -1.8633836447845702e-09 -0.00075028411205121134 5.4738989500807387e-08 -1.5673901802753592e-08 -0.00050024195025729539 9.5731269342177562e-08 -5.7488857014432856e-08 -0.00075027843508597522 9.5731269342177562e-08 -5.7488857014432856e-08 -0.00075027843508597522 5.3657350029319358e-08 -1.9714371937881978e-08 -0.00075027713438146812 5.4738989500807387e-08 -1.5673901802753592e-08 -0.00050024195025729539 5.1805934153494718e-08 -5.3007706776265342e-08 -0.00050023741773647839 5.4738989500807387e-08 -1.5673901802753592e-08 -0.00050024195025729539 1.1166284956060048e-07 -1.8633836447845726e-09 -0.00075028411205121134 5.7244326202712737e-08 3.4702527867377641e-08 -0.00050025570272999649 5.3657350029319365e-08 -1.9714371937881978e-08 -0.00075027713438146812 1.1166284956060045e-07 -1.8633836447845702e-09 -0.00075028411205121134 9.5731269342177562e-08 -5.7488857014432856e-08 -0.00075027843508597522 5.3657350029319365e-08 -1.9714371937881978e-08 -0.00075027713438146812 5.4738989500807394e-08 -1.5673901802753592e-08 -0.00050024195025729528 1.1166284956060045e-07 -1.8633836447845702e-09 -0.00075028411205121134 5.3657350029319365e-08 -1.9714371937881978e-08 -0.00075027713438146812 5.6585513244330103e-08 3.2001598119630793e-08 -0.00075028204803643703 5.7244326202712737e-08 3.4702527867377641e-08 -0.00050025570272999649 1.0922075973763897e-07 1.335784036234872e-08 -0.00050026177528150132 9.773174919674207e-08 5.4131343058225002e-08 -0.00075028440958027349 5.7244326202712737e-08 3.4702527867377641e-08 -0.00050025570272999649 1.1166284956060045e-07 -1.8633836447845702e-09 -0.00075028411205121134 9.773174919674207e-08 5.4131343058225002e-08 -0.00075028440958027349 1.1166284956060045e-07 -1.8633836447845702e-09 -0.00075028411205121134 5.6585513244330103e-08 3.2001598119630793e-08 -0.00075028204803643703 5.7244326202712737e-08 3.4702527867377641e-08 -0.00050025570272999649 5.7209199127993408e-08 9.5796432377508078e-08 -0.00075028566214623189 9.773174919674207e-08 5.4131343058225002e-08 -0.00075028440958027349 5.6585513244330103e-08 3.2001598119630793e-08 -0.00075028204803643703 5.7244326202712737e-08 3.4702527867377641e-08 -0.00050025570272999649 1.1166284956060045e-07 -1.8633836447845702e-09 -0.00075028411205121134 9.6580073463770823e-08 5.5899338622397002e-08 -0.0010003131464458291 5.6585513244330103e-08 3.2001598119630793e-08 -0.00075028204803643703 1.1161024623459325e-07 1.0837005765308749e-10 -0.0010003128822878057 1.1166284956060045e-07 -1.8633836447845702e-09 -0.00075028411205121134 9.773174919674207e-08 5.4131343058225002e-08 -0.00075028440958027349 5.6585513244330103e-08 3.2001598119630793e-08 -0.00075028204803643703 9.6580073463770823e-08 5.5899338622397002e-08 -0.0010003131464458291 5.3657350029319365e-08 -1.9714371937881978e-08 -0.00075027713438146812 1.1166284956060045e-07 -1.8633836447845702e-09 -0.00075028411205121134 5.6585513244330103e-08 3.2001598119630793e-08 -0.00075028204803643703 1.1161024623459325e-07 1.0837005765308839e-10 -0.0010003128822878057 5.3657350029319365e-08 -1.9714371937881978e-08 -0.00075027713438146812 1.1161024623459328e-07 1.0837005765308584e-10 -0.0010003128822878057 5.6585513244330103e-08 3.2001598119630793e-08 -0.00075028204803643703 5.360582241052404e-08 -2.050314677758082e-08 -0.0010003100323126633 9.5731269342177562e-08 -5.7488857014432856e-08 -0.00075027843508597522 1.1166284956060045e-07 -1.8633836447845702e-09 -0.00075028411205121134 5.3657350029319365e-08 -1.9714371937881978e-08 -0.00075027713438146812 1.1161024623459325e-07 1.0837005765308749e-10 -0.0010003128822878057 1.1161024623459325e-07 1.0837005765308749e-10 -0.0010003128822878057 5.360582241052404e-08 -2.050314677758082e-08 -0.0010003100323126633 5.5654579969643579e-08 3.1856575678103071e-08 -0.001000311888043411 5.6585513244330103e-08 3.2001598119630793e-08 -0.00075028204803643703 5.360582241052404e-08 -2.050314677758082e-08 -0.0010003100323126633 1.1161024623459325e-07 1.0837005765308749e-10 -0.0010003128822878057 5.5654579969643579e-08 3.1856575678103071e-08 -0.001000311888043411 1.1152429301423937e-07 5.3578732628559822e-11 -0.0012503445884289321 9.6706481976583781e-08 -5.5721953135531733e-08 -0.001000310337043201 1.1161024623459325e-07 1.0837005765308749e-10 -0.0010003128822878057 5.360582241052404e-08 -2.050314677758082e-08 -0.0010003100323126633 1.1152429301423937e-07 5.3578732628559848e-11 -0.0012503445884289319 1.1161024623459325e-07 1.0837005765308749e-10 -0.0010003128822878057 9.6706481976583781e-08 -5.5721953135531733e-08 -0.001000310337043201 5.360582241052404e-08 -2.050314677758082e-08 -0.0010003100323126633 5.3657350029319372e-08 -1.9714371937881982e-08 -0.00075027713438146802 1.1161024623459325e-07 1.0837005765308749e-10 -0.0010003128822878057 9.6580073463770823e-08 5.5899338622397002e-08 -0.0010003131464458291 5.5654579969643579e-08 3.1856575678103071e-08 -0.001000311888043411 9.6566409540352831e-08 5.5803111361591985e-08 -0.0012503450450341092 9.6580073463770823e-08 5.5899338622397002e-08 -0.0010003131464458291 1.1161024623459325e-07 1.0837005765308749e-10 -0.0010003128822878057 5.5654579969643579e-08 3.1856575678103071e-08 -0.001000311888043411 5.6585513244330103e-08 3.2001598119630793e-08 -0.00075028204803643703 5.575843564353555e-08 9.6693800124975683e-08 -0.0010003136138971992 9.6580073463770823e-08 5.5899338622397002e-08 -0.0010003131464458291 5.5654579969643579e-08 3.1856575678103071e-08 -0.001000311888043411 5.6585513244330103e-08 3.2001598119630793e-08 -0.00075028204803643703 5.5731350244595352e-08 9.6602826542159888e-08 -0.0012503450193563168 9.6566409540352831e-08 5.5803111361591985e-08 -0.0012503450450341092 5.5648313307598606e-08 3.1980086341880219e-08 -0.0012503459193381203 5.5654579969643579e-08 3.1856575678103071e-08 -0.001000311888043411 1.1161024623459325e-07 1.0837005765308749e-10 -0.0010003128822878057 9.6566409540352831e-08 5.5803111361591985e-08 -0.0012503450450341092 5.5654579969643579e-08 3.1856575678103071e-08 -0.001000311888043411 1.1152429301423937e-07 5.3578732628559848e-11 -0.0012503445884289319 9.6566409540352831e-08 5.5803111361591985e-08 -0.0012503450450341092 1.1152429301423937e-07 5.3578732628559848e-11 -0.0012503445884289319 5.5648313307598606e-08 3.1980086341880219e-08 -0.0012503459193381203 5.5654579969643579e-08 3.1856575678103071e-08 -0.001000311888043411 1.1152429301423937e-07 5.3578732628559848e-11 -0.0012503445884289319 9.6618384011306118e-08 -5.5701674589253743e-08 -0.0012503429814443006 5.3694057699115272e-08 -2.0355104453914672e-08 -0.0012503433725539713 5.3605822410524047e-08 -2.0503146777580823e-08 -0.0010003100323126631 1.1152429301423937e-07 5.3578732628559848e-11 -0.0012503445884289319 5.3694057699115272e-08 -2.0355104453914672e-08 -0.0012503433725539713 5.5648313307598606e-08 3.1980086341880219e-08 -0.0012503459193381203 5.5654579969643579e-08 3.1856575678103071e-08 -0.001000311888043411 5.360582241052404e-08 -2.050314677758082e-08 -0.0010003100323126633 1.115242930142394e-07 5.3578732628557935e-11 -0.0012503445884289319 5.5654579969643579e-08 3.1856575678103071e-08 -0.001000311888043411 5.3694057699115272e-08 -2.0355104453914672e-08 -0.0012503433725539713 9.6618384011306118e-08 -5.5701674589253743e-08 -0.0012503429814443006 5.5796837193262483e-08 -9.6563937209230902e-08 -0.001250341787320084 4.9655269957003506e-08 -5.6816417590783089e-08 -0.0012503432386826523 4.9590370836242675e-08 -5.7065573537965788e-08 -0.0010003085485966532 5.3694057699115272e-08 -2.0355104453914672e-08 -0.0012503433725539713 9.6618384011306118e-08 -5.5701674589253743e-08 -0.0012503429814443006 4.9655269957003506e-08 -5.6816417590783089e-08 -0.0012503432386826523 4.9590370836242675e-08 -5.7065573537965788e-08 -0.0010003085485966532 9.6618384011306118e-08 -5.5701674589253743e-08 -0.0012503429814443006 5.3694057699115265e-08 -2.0355104453914672e-08 -0.0012503433725539713 5.360582241052404e-08 -2.050314677758082e-08 -0.0010003100323126633 4.9590370836242675e-08 -5.7065573537965788e-08 -0.0010003085485966532 9.6706481976583781e-08 -5.5721953135531733e-08 -0.001000310337043201 1.1152429301423937e-07 5.3578732628559848e-11 -0.0012503445884289319 5.360582241052404e-08 -2.050314677758082e-08 -0.0010003100323126633 9.6618384011306118e-08 -5.5701674589253743e-08 -0.0012503429814443006 9.6706481976583781e-08 -5.5721953135531733e-08 -0.001000310337043201 5.5907939072620665e-08 -9.6593883351501875e-08 -0.0010003083732922115 4.9590370836242675e-08 -5.7065573537965788e-08 -0.0010003085485966532 4.912969184672443e-08 -5.6862900002167027e-08 -0.00075027503192186392 9.6706481976583781e-08 -5.5721953135531733e-08 -0.001000310337043201 5.3605822410524034e-08 -2.0503146777580823e-08 -0.0010003100323126631 4.9590370836242675e-08 -5.7065573537965788e-08 -0.0010003085485966532 9.6618384011306118e-08 -5.5701674589253743e-08 -0.0012503429814443006 5.360582241052404e-08 -2.050314677758082e-08 -0.0010003100323126633 9.6706481976583781e-08 -5.5721953135531733e-08 -0.001000310337043201 4.9590370836242675e-08 -5.7065573537965788e-08 -0.0010003085485966532 4.912969184672443e-08 -5.6862900002167027e-08 -0.00075027503192186392 5.5907939072620665e-08 -9.6593883351501875e-08 -0.0010003083732922115 9.6706481976583781e-08 -5.5721953135531733e-08 -0.001000310337043201 4.9590370836242675e-08 -5.7065573537965788e-08 -0.0010003085485966532 9.6618384011306118e-08 -5.5701674589253743e-08 -0.0012503429814443006 5.5907939072620665e-08 -9.6593883351501875e-08 -0.0010003083732922115 9.6618384011306105e-08 -5.5701674589253736e-08 -0.0012503429814443006 4.9590370836242675e-08 -5.7065573537965788e-08 -0.0010003085485966532 5.5796837193262483e-08 -9.6563937209230902e-08 -0.001250341787320084 8.7884144987998554e-08 6.6381839401609373e-08 -0.00050026243348793133 5.7209199127993408e-08 9.5796432377508078e-08 -0.00075028566214623189 5.7244326202712737e-08 3.4702527867377641e-08 -0.00050025570272999649 9.773174919674207e-08 5.4131343058225002e-08 -0.00075028440958027349 9.773174919674207e-08 5.4131343058225002e-08 -0.00075028440958027349 5.7209199127993408e-08 9.5796432377508078e-08 -0.00075028566214623189 5.6585513244330103e-08 3.2001598119630793e-08 -0.00075028204803643703 5.575843564353555e-08 9.6693800124975683e-08 -0.0010003136138971992 9.773174919674207e-08 5.4131343058225002e-08 -0.00075028440958027349 5.575843564353555e-08 9.6693800124975683e-08 -0.0010003136138971992 5.6585513244330103e-08 3.2001598119630793e-08 -0.00075028204803643703 9.6580073463770823e-08 5.5899338622397002e-08 -0.0010003131464458291 9.6580073463770823e-08 5.5899338622397002e-08 -0.0010003131464458291 5.575843564353555e-08 9.6693800124975683e-08 -0.0010003136138971992 5.5654579969643579e-08 3.1856575678103071e-08 -0.001000311888043411 5.5731350244595352e-08 9.6602826542159888e-08 -0.0012503450193563168 9.6580073463770823e-08 5.5899338622397002e-08 -0.0010003131464458291 5.5731350244595352e-08 9.6602826542159888e-08 -0.0012503450193563168 5.5654579969643579e-08 3.1856575678103071e-08 -0.001000311888043411 9.6566409540352831e-08 5.5803111361591985e-08 -0.0012503450450341092 -6.0501819233229554e-12 1.115203612880333e-07 -0.0012503434295617771 5.5731350244595352e-08 9.6602826542159888e-08 -0.0012503450193563168 9.1804589736325849e-09 5.7063848980430656e-08 -0.0012503438593127417 9.2582673600235423e-09 5.7009086473738948e-08 -0.001000310839251894 5.5731350244595352e-08 9.6602826542159888e-08 -0.0012503450193563168 9.1804589736325849e-09 5.7063848980430656e-08 -0.0012503438593127415 9.2582673600235225e-09 5.7009086473738982e-08 -0.001000310839251894 5.5654579969643579e-08 3.1856575678103071e-08 -0.001000311888043411 5.575843564353555e-08 9.6693800124975683e-08 -0.0010003136138971992 -6.0501819233167645e-12 1.115203612880333e-07 -0.0012503434295617771 9.2582673600235423e-09 5.7009086473738948e-08 -0.001000310839251894 5.5731350244595352e-08 9.6602826542159888e-08 -0.0012503450193563168 -8.6346356609133445e-11 1.1160829615841248e-07 -0.0010003109906961303 -5.5767694692123236e-08 9.657946765838576e-08 -0.0012503425501969065 -2.4311345434539882e-08 7.1412898563388685e-08 -0.0010003097018009941 -6.0501819233229554e-12 1.115203612880333e-07 -0.0012503434295617771 -6.0501819233229554e-12 1.115203612880333e-07 -0.0012503434295617771 9.1804589736325849e-09 5.7063848980430656e-08 -0.0012503438593127417 -2.4202369352266242e-08 7.1408478773473112e-08 -0.0012503436387922675 -2.4311345434539882e-08 7.1412898563388685e-08 -0.0010003097018009941 -5.5767694692123256e-08 9.6579467658385774e-08 -0.0012503425501969065 -6.0501819233171466e-12 1.1152036128803331e-07 -0.0012503434295617771 -2.4202369352266242e-08 7.1408478773473112e-08 -0.0012503436387922675 -2.4311345434539882e-08 7.1412898563388685e-08 -0.0010003097018009941 9.2582673600235423e-09 5.7009086473738948e-08 -0.001000310839251894 -6.0501819233309243e-12 1.115203612880333e-07 -0.0012503434295617771 -2.4311345434539882e-08 7.1412898563388685e-08 -0.0010003097018009941 9.1804589736325849e-09 5.7063848980430656e-08 -0.0012503438593127417 9.1804589736325849e-09 5.7063848980430656e-08 -0.0012503438593127417 -1.9820274842325786e-08 3.585514643871642e-08 -0.0012503432396727731 -2.4202369352266242e-08 7.1408478773473112e-08 -0.0012503436387922675 -2.4311345434539882e-08 7.1412898563388685e-08 -0.0010003097018009941 9.2582673600235423e-09 5.7009086473738948e-08 -0.001000310839251894 -8.6346356609133445e-11 1.1160829615841248e-07 -0.0010003109906961303 -2.4311345434539882e-08 7.1412898563388685e-08 -0.0010003097018009941 -6.0501819233229554e-12 1.115203612880333e-07 -0.0012503434295617771 5.575843564353555e-08 9.6693800124975683e-08 -0.0010003136138971992 -8.6346356609133445e-11 1.1160829615841248e-07 -0.0010003109906961303 9.2582673600235423e-09 5.7009086473738948e-08 -0.001000310839251894 -6.0501819233229764e-12 1.115203612880333e-07 -0.0012503434295617771 5.575843564353555e-08 9.6693800124975683e-08 -0.0010003136138971992 9.2582673600235473e-09 5.7009086473738942e-08 -0.001000310839251894 5.5654579969643579e-08 3.1856575678103071e-08 -0.001000311888043411 5.5731350244595352e-08 9.6602826542159888e-08 -0.0012503450193563168 5.575843564353555e-08 9.6693800124975683e-08 -0.0010003136138971992 9.2582673600235423e-09 5.7009086473738948e-08 -0.0010003108392518938 1.0865529864695154e-08 5.7025167873017469e-08 -0.0007502789224391632 5.6585513244330103e-08 3.2001598119630793e-08 -0.00075028204803643703 5.7209199127993408e-08 9.5796432377508078e-08 -0.00075028566214623189 1.0865529864695179e-08 5.7025167873017436e-08 -0.0007502789224391633 5.6585513244330103e-08 3.2001598119630793e-08 -0.00075028204803643703 5.575843564353555e-08 9.6693800124975683e-08 -0.0010003136138971992 5.7209199127993408e-08 9.5796432377508078e-08 -0.00075028566214623189 -8.6346356609127086e-11 1.1160829615841248e-07 -0.0010003109906961301 1.0865529864695174e-08 5.7025167873017443e-08 -0.0007502789224391633 5.575843564353555e-08 9.6693800124975683e-08 -0.0010003136138971992 5.7209199127993408e-08 9.5796432377508078e-08 -0.00075028566214623189 1.9989999458124385e-09 1.1165772759749064e-07 -0.00075027970848854026 1.0865529864695174e-08 5.7025167873017443e-08 -0.0007502789224391633 -8.6346356609132902e-11 1.1160829615841248e-07 -0.0010003109906961303 -8.6346356609133445e-11 1.1160829615841248e-07 -0.0010003109906961303 5.575843564353555e-08 9.6693800124975683e-08 -0.0010003136138971992 9.2582673600235423e-09 5.7009086473738948e-08 -0.001000310839251894 1.0865529864695174e-08 5.7025167873017443e-08 -0.0007502789224391633 9.2582673600235423e-09 5.7009086473738948e-08 -0.001000310839251894 -2.0017953195737193e-08 3.5792565926727093e-08 -0.0010003093683225274 -2.4311345434539882e-08 7.1412898563388685e-08 -0.0010003097018009941 -2.3150820534305295e-08 7.1581997535711375e-08 -0.00075027683267879096 -8.6346356609133445e-11 1.1160829615841248e-07 -0.0010003109906961303 9.2582673600235423e-09 5.7009086473738948e-08 -0.001000310839251894 -2.4311345434539882e-08 7.1412898563388685e-08 -0.0010003097018009941 -2.3150820534305295e-08 7.1581997535711375e-08 -0.00075027683267879096 1.0865529864695174e-08 5.7025167873017443e-08 -0.0007502789224391633 1.9989999458124385e-09 1.1165772759749064e-07 -0.00075027970848854026 -2.3150820534305295e-08 7.1581997535711375e-08 -0.00075027683267879096 -8.6346356609133445e-11 1.1160829615841248e-07 -0.0010003109906961303 1.0865529864695174e-08 5.7025167873017443e-08 -0.0007502789224391633 -8.6346356609141652e-11 1.1160829615841248e-07 -0.0010003109906961303 -2.3150820534305295e-08 7.1581997535711375e-08 -0.00075027683267879096 9.2582673600235423e-09 5.7009086473738948e-08 -0.001000310839251894 -5.5889601026439354e-08 9.660525351516769e-08 -0.0010003093514136079 -8.6346356609127616e-11 1.1160829615841249e-07 -0.0010003109906961303 -2.4311345434539882e-08 7.1412898563388685e-08 -0.0010003097018009941 -2.3150820534305295e-08 7.1581997535711375e-08 -0.00075027683267879096 1.9989999458124385e-09 1.1165772759749064e-07 -0.00075027970848854026 1.0865529864695174e-08 5.7025167873017443e-08 -0.0007502789224391633 -2.3150820534305295e-08 7.1581997535711375e-08 -0.00075027683267879096 -2.5387338464478983e-08 6.9260101142205313e-08 -0.00050024057265393913 -5.4063947512711425e-08 9.7721173477354984e-08 -0.00075027603226237249 1.9989999458124447e-09 1.1165772759749066e-07 -0.00075027970848854037 -2.3150820534305295e-08 7.1581997535711375e-08 -0.00075027683267879096 -2.5387338464478983e-08 6.9260101142205313e-08 -0.00050024057265393913 1.2954140607460982e-08 5.6981952278945557e-08 -0.00050024586989989752 1.998999945812429e-09 1.1165772759749064e-07 -0.00075027970848854037 -2.5387338464478983e-08 6.9260101142205313e-08 -0.00050024057265393913 1.0865529864695174e-08 5.7025167873017443e-08 -0.0007502789224391633 1.0865529864695174e-08 5.7025167873017443e-08 -0.0007502789224391633 -1.9290245809532133e-08 3.6140554597264407e-08 -0.00075027600330388757 -2.3150820534305295e-08 7.1581997535711375e-08 -0.00075027683267879096 -2.5387338464478983e-08 6.9260101142205313e-08 -0.00050024057265393913 4.487812460699719e-08 1.0091049890990442e-07 -0.00050026551339592469 1.998999945812443e-09 1.1165772759749064e-07 -0.00075027970848854026 1.2954140607460982e-08 5.6981952278945557e-08 -0.00050024586989989752 5.7209199127993408e-08 9.5796432377508078e-08 -0.00075028566214623189 1.9989999458124385e-09 1.1165772759749064e-07 -0.00075027970848854026 5.7209199127993408e-08 9.5796432377508078e-08 -0.00075028566214623189 1.0865529864695174e-08 5.7025167873017443e-08 -0.0007502789224391633 1.2954140607460982e-08 5.6981952278945557e-08 -0.00050024586989989752 5.7209199127993408e-08 9.5796432377508078e-08 -0.00075028566214623189 1.0865529864695174e-08 5.7025167873017443e-08 -0.0007502789224391632 1.2954140607460964e-08 5.6981952278945583e-08 -0.00050024586989989741 5.7244326202712737e-08 3.4702527867377641e-08 -0.00050025570272999649 -1.34625197469844e-08 1.0928000439039114e-07 -0.00050025034434482191 -5.4063947512711399e-08 9.7721173477354971e-08 -0.00075027603226237249 -2.5387338464478983e-08 6.9260101142205313e-08 -0.00050024057265393913 1.9989999458124385e-09 1.1165772759749064e-07 -0.00075027970848854026 1.9989999458124385e-09 1.1165772759749064e-07 -0.00075027970848854026 -5.5889601026439334e-08 9.6605253515167677e-08 -0.0010003093514136079 -2.3150820534305295e-08 7.1581997535711375e-08 -0.00075027683267879096 -8.6346356609133445e-11 1.1160829615841248e-07 -0.0010003109906961303 -5.4063947512711425e-08 9.7721173477354984e-08 -0.00075027603226237249 -2.3150820534305295e-08 7.1581997535711375e-08 -0.00075027683267879096 -4.8820580016161345e-08 5.3219316620392358e-08 -0.00075027602972922746 -5.1288148518002281e-08 5.0052271347562858e-08 -0.00050023973668814341 -1.929024580953213e-08 3.6140554597264407e-08 -0.00075027600330388757 -2.3150820534305292e-08 7.1581997535711375e-08 -0.00075027683267879096 -2.5387338464478983e-08 6.9260101142205313e-08 -0.00050024057265393913 -5.1288148518002281e-08 5.0052271347562858e-08 -0.00050023973668814341 -2.5387338464478983e-08 6.9260101142205313e-08 -0.00050024057265393913 -5.4063947512711425e-08 9.7721173477354984e-08 -0.00075027603226237249 -5.1288148518002281e-08 5.0052271347562858e-08 -0.00050023973668814341 -2.3150820534305295e-08 7.1581997535711375e-08 -0.00075027683267879096 -6.6338940277702323e-08 8.7950496210806823e-08 -0.00050024100496401196 -9.5745055180024348e-08 5.7469873844976855e-08 -0.00075027822164851947 -5.1288148518002281e-08 5.0052271347562858e-08 -0.00050023973668814341 -5.4063947512711425e-08 9.7721173477354984e-08 -0.00075027603226237249 -9.5745055180024362e-08 5.7469873844976855e-08 -0.00075027822164851936 -5.4063947512711425e-08 9.7721173477354984e-08 -0.00075027603226237249 -4.8820580016161345e-08 5.3219316620392358e-08 -0.00075027602972922746 -5.1288148518002281e-08 5.0052271347562858e-08 -0.00050023973668814341 -2.001795319573719e-08 3.5792565926727093e-08 -0.0010003093683225274 -2.4311345434539879e-08 7.1412898563388685e-08 -0.0010003097018009941 -2.3150820534305295e-08 7.1581997535711375e-08 -0.00075027683267879096 -4.8820580016161345e-08 5.3219316620392358e-08 -0.00075027602972922746 -2.3150820534305295e-08 7.1581997535711375e-08 -0.00075027683267879096 -5.4063947512711425e-08 9.7721173477354984e-08 -0.00075027603226237249 -4.8820580016161345e-08 5.3219316620392358e-08 -0.00075027602972922746 -5.5889601026439354e-08 9.660525351516769e-08 -0.0010003093514136079 1.9989999458124385e-09 1.1165772759749064e-07 -0.00075027970848854026 -5.4063947512711425e-08 9.7721173477354984e-08 -0.00075027603226237249 -2.3150820534305295e-08 7.1581997535711375e-08 -0.00075027683267879096 -5.5889601026439354e-08 9.660525351516769e-08 -0.0010003093514136079 -5.5889601026439354e-08 9.660525351516769e-08 -0.0010003093514136079 -2.4311345434539882e-08 7.1412898563388685e-08 -0.0010003097018009941 -4.9523215203247632e-08 5.2963002430951183e-08 -0.0010003090211556454 -4.8820580016161345e-08 5.3219316620392358e-08 -0.00075027602972922746 -2.3150820534305295e-08 7.1581997535711375e-08 -0.00075027683267879096 -5.5889601026439354e-08 9.660525351516769e-08 -0.0010003093514136079 -4.8820580016161345e-08 5.3219316620392358e-08 -0.00075027602972922746 -2.4311345434539882e-08 7.1412898563388685e-08 -0.0010003097018009941 -5.4063947512711425e-08 9.7721173477354984e-08 -0.00075027603226237249 -9.6698930719341058e-08 5.5735000014528973e-08 -0.0010003098361472357 -4.8820580016161345e-08 5.3219316620392358e-08 -0.00075027602972922746 -5.5889601026439354e-08 9.660525351516769e-08 -0.0010003093514136079 -9.6698930719341072e-08 5.5735000014528967e-08 -0.0010003098361472357 -5.5889601026439354e-08 9.660525351516769e-08 -0.0010003093514136079 -4.9523215203247632e-08 5.2963002430951183e-08 -0.0010003090211556454 -4.8820580016161345e-08 5.3219316620392358e-08 -0.00075027602972922746 -5.4063947512711425e-08 9.7721173477354984e-08 -0.00075027603226237249 -9.5745055180024362e-08 5.7469873844976855e-08 -0.00075027822164851936 -4.8820580016161345e-08 5.3219316620392358e-08 -0.00075027602972922746 -9.6698930719341072e-08 5.5735000014528967e-08 -0.0010003098361472357 -5.5889601026439354e-08 9.660525351516769e-08 -0.0010003093514136079 -9.6698930719341072e-08 5.5735000014528967e-08 -0.0010003098361472357 -4.9523215203247632e-08 5.2963002430951183e-08 -0.0010003090211556454 -9.6597148664617171e-08 5.5734480166143205e-08 -0.0012503423968820025 -2.4311345434539882e-08 7.1412898563388685e-08 -0.0010003097018009941 -5.5889601026439354e-08 9.660525351516769e-08 -0.0010003093514136079 -4.9523215203247632e-08 5.2963002430951183e-08 -0.0010003090211556454 -5.5767694692123256e-08 9.6579467658385774e-08 -0.0012503425501969065 -8.6346356609133445e-11 1.1160829615841248e-07 -0.0010003109906961303 -5.5889601026439354e-08 9.660525351516769e-08 -0.0010003093514136079 -2.4311345434539882e-08 7.1412898563388685e-08 -0.0010003097018009941 -5.5767694692123256e-08 9.6579467658385774e-08 -0.0012503425501969065 -9.6597148664617171e-08 5.5734480166143205e-08 -0.0012503423968820025 -5.5767694692123256e-08 9.6579467658385774e-08 -0.0012503425501969065 -4.9234397809029749e-08 5.3029730560861489e-08 -0.0012503435904730152 -4.9523215203247632e-08 5.2963002430951183e-08 -0.0010003090211556454 -1.9820274842325783e-08 3.585514643871642e-08 -0.0012503432396727731 -2.4202369352266238e-08 7.1408478773473112e-08 -0.0012503436387922675 -2.4311345434539882e-08 7.1412898563388685e-08 -0.0010003097018009941 -4.9523215203247632e-08 5.2963002430951183e-08 -0.0010003090211556454 -5.5889601026439354e-08 9.660525351516769e-08 -0.0010003093514136079 -9.6597148664617158e-08 5.5734480166143212e-08 -0.0012503423968820027 -4.9523215203247632e-08 5.2963002430951183e-08 -0.0010003090211556454 -5.5767694692123256e-08 9.6579467658385774e-08 -0.0012503425501969065 -2.4311345434539882e-08 7.1412898563388685e-08 -0.0010003097018009941 -5.5767694692123256e-08 9.6579467658385774e-08 -0.0012503425501969065 -4.9523215203247632e-08 5.2963002430951183e-08 -0.0010003090211556454 -2.4202369352266242e-08 7.1408478773473112e-08 -0.0012503436387922675 -5.5767694692123256e-08 9.6579467658385774e-08 -0.0012503425501969065 -2.4202369352266242e-08 7.1408478773473112e-08 -0.0012503436387922675 -4.9234397809029749e-08 5.3029730560861489e-08 -0.0012503435904730152 -4.9523215203247632e-08 5.2963002430951183e-08 -0.0010003090211556454 -1.1152109486320633e-07 -6.1299052747077372e-12 -0.0012503422485563129 -9.6597148664617171e-08 5.5734480166143205e-08 -0.0012503423968820025 -5.0386895960428328e-08 5.4567616861833018e-09 -0.0012503424187937716 -5.0640904292000413e-08 5.2446758564006649e-09 -0.0010003091045474469 -9.6698930719341072e-08 5.5735000014528967e-08 -0.0010003098361472357 -1.1152109486320633e-07 -6.1299052747077372e-12 -0.0012503422485563129 -5.0640904292000413e-08 5.2446758564006649e-09 -0.0010003091045474469 -9.6597148664617171e-08 5.5734480166143205e-08 -0.0012503423968820025 -9.6698930719341072e-08 5.5735000014528967e-08 -0.0010003098361472357 -5.0640904292000413e-08 5.2446758564006649e-09 -0.0010003091045474469 -4.9523215203247632e-08 5.2963002430951183e-08 -0.0010003090211556454 -9.6597148664617171e-08 5.5734480166143205e-08 -0.0012503423968820025 -9.6698930719341072e-08 5.5735000014528967e-08 -0.0010003098361472357 -1.116051788677667e-07 -1.0815869263475603e-10 -0.0010003099880741371 -5.0640904292000413e-08 5.2446758564006649e-09 -0.0010003091045474469 -1.1152109486320633e-07 -6.1299052747077372e-12 -0.0012503422485563129 -5.0640904292000413e-08 5.2446758564006649e-09 -0.0010003091045474469 -1.116051788677667e-07 -1.0815869263475616e-10 -0.0010003099880741368 -6.6118997416992864e-08 -4.0521264622021749e-08 -0.001000308485554262 -1.1152109486320633e-07 -6.1299052747077372e-12 -0.0012503422485563129 -1.116051788677667e-07 -1.0815869263475616e-10 -0.0010003099880741368 -9.6577999071741602e-08 -5.5782379673267091e-08 -0.0012503416445532232 -6.6118997416992878e-08 -4.0521264622021756e-08 -0.001000308485554262 -1.1152109486320633e-07 -6.1299052747077372e-12 -0.0012503422485563129 -5.0640904292000413e-08 5.2446758564006649e-09 -0.0010003091045474469 -1.1152109486320633e-07 -6.1299052747025795e-12 -0.0012503422485563129 -6.6118997416992864e-08 -4.0521264622021749e-08 -0.001000308485554262 -5.0386895960428328e-08 5.4567616861833018e-09 -0.0012503424187937716 -1.1152109486320633e-07 -6.1299052747077372e-12 -0.0012503422485563129 -5.0386895960428328e-08 5.4567616861833018e-09 -0.0012503424187937716 -6.5861345239174646e-08 -4.0328862122349991e-08 -0.0012503429875137561 -6.6118997416992864e-08 -4.0521264622021749e-08 -0.001000308485554262 -1.5313441739121748e-08 -5.556515107470055e-08 -0.0010003084107090762 -5.0640904292000407e-08 5.2446758564006723e-09 -0.0010003091045474469 -6.6118997416992864e-08 -4.0521264622021749e-08 -0.001000308485554262 -5.0386895960428321e-08 5.4567616861833018e-09 -0.0012503424187937718 -5.0640904292000413e-08 5.2446758564006649e-09 -0.0010003091045474469 -1.5313441739121748e-08 -5.556515107470055e-08 -0.0010003084107090762 4.8243636123191802e-09 1.3972275275718993e-09 -0.0010003091416090615 -5.0386895960428328e-08 5.4567616861833018e-09 -0.0012503424187937716 -5.0640904292000413e-08 5.2446758564006649e-09 -0.0010003091045474469 4.8243636123191802e-09 1.3972275275718993e-09 -0.0010003091416090615 -2.001795319573719e-08 3.5792565926727093e-08 -0.0010003093683225274 -5.0386895960428328e-08 5.4567616861833018e-09 -0.0012503424187937716 -5.0640904292000413e-08 5.2446758564006649e-09 -0.0010003091045474469 -2.001795319573719e-08 3.5792565926727093e-08 -0.0010003093683225274 -4.9523215203247632e-08 5.2963002430951183e-08 -0.0010003090211556454 -5.0386895960428328e-08 5.4567616861833018e-09 -0.0012503424187937716 -2.001795319573719e-08 3.5792565926727093e-08 -0.0010003093683225274 -2.4311345434539882e-08 7.1412898563388685e-08 -0.0010003097018009941 -4.9523215203247632e-08 5.2963002430951183e-08 -0.0010003090211556454 -1.9820274842325783e-08 3.585514643871642e-08 -0.0012503432396727731 -5.0386895960428328e-08 5.4567616861833018e-09 -0.0012503424187937716 -1.9820274842325783e-08 3.585514643871642e-08 -0.0012503432396727731 -2.001795319573719e-08 3.5792565926727093e-08 -0.0010003093683225274 -4.9523215203247632e-08 5.2963002430951183e-08 -0.0010003090211556454 -2.4202369352266242e-08 7.1408478773473112e-08 -0.0012503436387922675 -1.9820274842325783e-08 3.585514643871642e-08 -0.0012503432396727731 -4.9234397809029749e-08 5.3029730560861489e-08 -0.0012503435904730152 -4.9523215203247632e-08 5.2963002430951183e-08 -0.0010003090211556454 -9.6597148664617171e-08 5.5734480166143205e-08 -0.0012503423968820025 -5.0386895960428328e-08 5.4567616861833018e-09 -0.0012503424187937716 -5.0640904292000413e-08 5.2446758564006649e-09 -0.0010003091045474469 -4.9523215203247632e-08 5.2963002430951183e-08 -0.0010003090211556454 -1.9820274842325783e-08 3.585514643871642e-08 -0.0012503432396727731 -5.0386895960428328e-08 5.4567616861833018e-09 -0.0012503424187937716 -4.9234397809029749e-08 5.3029730560861489e-08 -0.0012503435904730152 -4.9523215203247632e-08 5.2963002430951183e-08 -0.0010003090211556454 -5.0386895960428328e-08 5.4567616861833018e-09 -0.0012503424187937716 -9.6597148664617158e-08 5.5734480166143212e-08 -0.0012503423968820025 -4.9234397809029749e-08 5.3029730560861489e-08 -0.0012503435904730152 -4.9523215203247632e-08 5.2963002430951183e-08 -0.0010003090211556454 -2.001795319573719e-08 3.5792565926727093e-08 -0.0010003093683225274 9.1804589736325849e-09 5.7063848980430656e-08 -0.0012503438593127417 -2.4311345434539882e-08 7.1412898563388685e-08 -0.0010003097018009938 -1.9820274842325783e-08 3.585514643871642e-08 -0.0012503432396727731 9.1804589736325849e-09 5.7063848980430656e-08 -0.0012503438593127417 4.9910992993627707e-09 1.5338074700969125e-09 -0.0012503426991213632 -1.9820274842325783e-08 3.585514643871642e-08 -0.0012503432396727731 -2.001795319573719e-08 3.5792565926727093e-08 -0.0010003093683225274 4.9910992993627707e-09 1.5338074700969125e-09 -0.0012503426991213632 -5.0386895960428328e-08 5.4567616861833018e-09 -0.0012503424187937716 -1.9820274842325783e-08 3.585514643871642e-08 -0.0012503432396727731 -2.001795319573719e-08 3.5792565926727093e-08 -0.0010003093683225274 4.9910992993627707e-09 1.5338074700969125e-09 -0.0012503426991213632 9.180458973632575e-09 5.7063848980430662e-08 -0.0012503438593127417 9.2582673600235738e-09 5.7009086473738948e-08 -0.0010003108392518942 -2.001795319573722e-08 3.5792565926727093e-08 -0.0010003093683225274 -1.4913665634137476e-08 -5.5367950078690533e-08 -0.0012503418554291224 -5.0386895960428328e-08 5.4567616861833018e-09 -0.0012503424187937716 4.9910992993627707e-09 1.5338074700969125e-09 -0.0012503426991213632 4.8243636123191802e-09 1.3972275275718993e-09 -0.0010003091416090615 -5.0386895960428328e-08 5.4567616861833018e-09 -0.0012503424187937716 4.9910992993627707e-09 1.5338074700969125e-09 -0.0012503426991213632 4.8243636123191793e-09 1.3972275275718722e-09 -0.0010003091416090615 -2.001795319573719e-08 3.5792565926727093e-08 -0.0010003093683225274 4.8243636123191802e-09 1.3972275275718993e-09 -0.0010003091416090615 -1.4913665634137479e-08 -5.5367950078690519e-08 -0.0012503418554291224 2.1358590800440866e-08 -3.6555104097003052e-08 -0.0010003085802309706 4.9910992993627707e-09 1.5338074700969125e-09 -0.0012503426991213632 -5.0386895960428328e-08 5.4567616861833018e-09 -0.0012503424187937716 -1.4913665634137476e-08 -5.5367950078690533e-08 -0.0012503418554291224 -1.5313441739121778e-08 -5.556515107470057e-08 -0.001000308410709076 4.8243636123191967e-09 1.3972275275719086e-09 -0.0010003091416090615 4.9910992993627707e-09 1.5338074700969125e-09 -0.0012503426991213632 5.3694057699115272e-08 -2.0355104453914672e-08 -0.0012503433725539713 2.1590360182133967e-08 -3.6352207099423652e-08 -0.0012503428874360376 2.1358590800440866e-08 -3.6555104097003052e-08 -0.0010003085802309706 5.3694057699115272e-08 -2.0355104453914672e-08 -0.0012503433725539713 4.9910992993627707e-09 1.5338074700969125e-09 -0.0012503426991213632 4.8243636123191645e-09 1.3972275275718712e-09 -0.0010003091416090615 2.1358590800440866e-08 -3.6555104097003052e-08 -0.0010003085802309706 4.8243636123191802e-09 1.3972275275718993e-09 -0.0010003091416090615 5.3694057699115259e-08 -2.0355104453914646e-08 -0.0012503433725539715 5.5654579969643579e-08 3.1856575678103071e-08 -0.001000311888043411 4.9910992993627707e-09 1.5338074700969125e-09 -0.0012503426991213632 5.3694057699115272e-08 -2.0355104453914672e-08 -0.0012503433725539713 4.9910992993627707e-09 1.5338074700969125e-09 -0.0012503426991213632 5.5648313307598606e-08 3.1980086341880219e-08 -0.0012503459193381203 5.5654579969643579e-08 3.1856575678103071e-08 -0.001000311888043411 9.1804589736325849e-09 5.7063848980430656e-08 -0.0012503438593127417 5.5731350244595352e-08 9.6602826542159888e-08 -0.0012503450193563168 5.5648313307598606e-08 3.1980086341880219e-08 -0.0012503459193381203 5.5654579969643579e-08 3.1856575678103071e-08 -0.001000311888043411 9.2582673600235423e-09 5.7009086473738948e-08 -0.001000310839251894 4.9910992993627707e-09 1.5338074700969125e-09 -0.0012503426991213632 5.5654579969643579e-08 3.1856575678103071e-08 -0.001000311888043411 9.1804589736325849e-09 5.7063848980430656e-08 -0.0012503438593127417 4.9910992993627707e-09 1.5338074700969125e-09 -0.0012503426991213632 9.1804589736325849e-09 5.7063848980430656e-08 -0.0012503438593127417 5.5648313307598599e-08 3.1980086341880219e-08 -0.0012503459193381201 5.5654579969643579e-08 3.1856575678103071e-08 -0.001000311888043411 9.2582673600235423e-09 5.7009086473738948e-08 -0.001000310839251894 4.8243636123191802e-09 1.3972275275718993e-09 -0.0010003091416090615 5.5654579969643579e-08 3.1856575678103071e-08 -0.001000311888043411 4.9910992993627707e-09 1.5338074700969125e-09 -0.0012503426991213632 4.8243636123191802e-09 1.3972275275718993e-09 -0.0010003091416090615 5.360582241052404e-08 -2.050314677758082e-08 -0.0010003100323126633 5.5654579969643579e-08 3.1856575678103071e-08 -0.001000311888043411 5.3694057699115265e-08 -2.0355104453914672e-08 -0.0012503433725539713 5.360582241052404e-08 -2.050314677758082e-08 -0.0010003100323126633 4.8243636123191802e-09 1.3972275275718993e-09 -0.0010003091416090615 2.1358590800440866e-08 -3.6555104097003052e-08 -0.0010003085802309706 5.3694057699115272e-08 -2.0355104453914672e-08 -0.0012503433725539713 -2.001795319573719e-08 3.5792565926727093e-08 -0.0010003093683225274 9.2582673600235423e-09 5.7009086473738948e-08 -0.001000310839251894 -2.4311345434539882e-08 7.1412898563388685e-08 -0.0010003097018009941 9.1804589736325849e-09 5.7063848980430656e-08 -0.0012503438593127417 4.8243636123191802e-09 1.3972275275718993e-09 -0.0010003091416090615 9.2582673600235324e-09 5.7009086473738955e-08 -0.0010003108392518938 -2.001795319573719e-08 3.5792565926727093e-08 -0.0010003093683225274 4.9910992993627707e-09 1.5338074700969125e-09 -0.0012503426991213632 4.8243636123191802e-09 1.3972275275718993e-09 -0.0010003091416090615 9.2582673600235341e-09 5.7009086473738955e-08 -0.001000310839251894 1.0865529864695207e-08 5.7025167873017436e-08 -0.00075027892243916341 -1.929024580953216e-08 3.6140554597264407e-08 -0.00075027600330388768 4.9011080886375494e-09 1.8464299789983047e-09 -0.00075027576101200288 1.0865529864695166e-08 5.7025167873017449e-08 -0.0007502789224391633 -1.929024580953213e-08 3.6140554597264407e-08 -0.00075027600330388757 4.8243636123191802e-09 1.3972275275718993e-09 -0.0010003091416090615 -1.929024580953213e-08 3.6140554597264407e-08 -0.00075027600330388757 1.0865529864695174e-08 5.7025167873017443e-08 -0.0007502789224391633 -2.3150820534305295e-08 7.1581997535711375e-08 -0.00075027683267879096 9.2582673600235423e-09 5.7009086473738948e-08 -0.001000310839251894 4.8243636123191802e-09 1.3972275275718993e-09 -0.0010003091416090615 -5.0640904292000413e-08 5.2446758564006649e-09 -0.0010003091045474469 -2.001795319573719e-08 3.5792565926727093e-08 -0.0010003093683225274 -1.929024580953213e-08 3.6140554597264407e-08 -0.00075027600330388757 -1.929024580953213e-08 3.6140554597264407e-08 -0.00075027600330388757 9.2582673600235423e-09 5.7009086473738948e-08 -0.001000310839251894 -2.3150820534305295e-08 7.1581997535711375e-08 -0.00075027683267879096 -2.001795319573719e-08 3.5792565926727093e-08 -0.0010003093683225274 9.2582673600235423e-09 5.7009086473738948e-08 -0.001000310839251894 4.8243636123191802e-09 1.3972275275718993e-09 -0.0010003091416090615 -2.001795319573719e-08 3.5792565926727093e-08 -0.0010003093683225274 -1.929024580953213e-08 3.6140554597264407e-08 -0.00075027600330388757 4.9011080886375494e-09 1.8464299789983047e-09 -0.00075027576101200288 -1.5313441739121752e-08 -5.5565151074700537e-08 -0.001000308410709076 2.0979606703794938e-08 -3.6313414312472501e-08 -0.00075027482276316922 4.8243636123191802e-09 1.3972275275718993e-09 -0.0010003091416090615 -5.0640904292000413e-08 5.2446758564006649e-09 -0.0010003091045474469 -1.5313441739121748e-08 -5.556515107470055e-08 -0.0010003084107090762 -1.6514482476448068e-08 -5.5256771276673075e-08 -0.00075027529800880286 4.9011080886375659e-09 1.846429978998314e-09 -0.00075027576101200288 -1.5313441739121748e-08 -5.556515107470055e-08 -0.0010003084107090762 -5.0640904292000413e-08 5.2446758564006649e-09 -0.0010003091045474469 4.8243636123191802e-09 1.3972275275718993e-09 -0.0010003091416090615 4.9011080886375494e-09 1.8464299789983047e-09 -0.00075027576101200288 -5.0640904292000413e-08 5.2446758564006649e-09 -0.0010003091045474469 4.8243636123191802e-09 1.3972275275718993e-09 -0.0010003091416090615 4.9011080886375477e-09 1.8464299789982776e-09 -0.00075027576101200288 -1.929024580953213e-08 3.6140554597264407e-08 -0.00075027600330388757 5.360582241052404e-08 -2.050314677758082e-08 -0.0010003100323126633 4.8243636123191802e-09 1.3972275275718993e-09 -0.0010003091416090615 4.9011080886375328e-09 1.8464299789982759e-09 -0.00075027576101200299 2.0979606703794938e-08 -3.6313414312472501e-08 -0.00075027482276316922 5.3657350029319365e-08 -1.9714371937881978e-08 -0.00075027713438146812 4.9011080886375494e-09 1.8464299789983047e-09 -0.00075027576101200288 2.0979606703794938e-08 -3.6313414312472501e-08 -0.00075027482276316922 5.360582241052404e-08 -2.050314677758082e-08 -0.0010003100323126633 4.8243636123191802e-09 1.3972275275718993e-09 -0.0010003091416090615 5.360582241052404e-08 -2.050314677758082e-08 -0.0010003100323126633 2.1358590800440866e-08 -3.6555104097003052e-08 -0.0010003085802309706 2.0979606703794938e-08 -3.6313414312472501e-08 -0.00075027482276316922 4.9011080886375494e-09 1.8464299789983047e-09 -0.00075027576101200288 5.3605822410524027e-08 -2.0503146777580794e-08 -0.0010003100323126631 5.6585513244330103e-08 3.2001598119630793e-08 -0.00075028204803643703 4.8243636123191802e-09 1.3972275275718993e-09 -0.0010003091416090615 4.9011080886375494e-09 1.8464299789983047e-09 -0.00075027576101200288 5.3657350029319365e-08 -1.9714371937881978e-08 -0.00075027713438146812 5.6585513244330103e-08 3.2001598119630793e-08 -0.00075028204803643703 5.3605822410524034e-08 -2.050314677758082e-08 -0.0010003100323126633 5.360582241052404e-08 -2.050314677758082e-08 -0.0010003100323126633 4.8243636123191802e-09 1.3972275275718993e-09 -0.0010003091416090615 5.5654579969643579e-08 3.1856575678103071e-08 -0.001000311888043411 5.6585513244330103e-08 3.2001598119630793e-08 -0.00075028204803643703 9.2582673600235423e-09 5.7009086473738948e-08 -0.001000310839251894 5.575843564353555e-08 9.6693800124975683e-08 -0.0010003136138971992 5.5654579969643579e-08 3.1856575678103071e-08 -0.001000311888043411 5.6585513244330103e-08 3.2001598119630793e-08 -0.00075028204803643703 1.0865529864695174e-08 5.7025167873017443e-08 -0.0007502789224391633 4.8243636123191802e-09 1.3972275275718993e-09 -0.0010003091416090615 5.6585513244330103e-08 3.2001598119630793e-08 -0.00075028204803643703 9.2582673600235423e-09 5.7009086473738948e-08 -0.001000310839251894 1.0865529864695174e-08 5.7025167873017443e-08 -0.0007502789224391633 4.9011080886375494e-09 1.8464299789983047e-09 -0.00075027576101200288 5.6585513244330103e-08 3.2001598119630793e-08 -0.00075028204803643703 4.8243636123191802e-09 1.3972275275718993e-09 -0.0010003091416090615 4.8243636123191802e-09 1.3972275275718993e-09 -0.0010003091416090615 9.2582673600235423e-09 5.7009086473738948e-08 -0.001000310839251894 5.5654579969643573e-08 3.1856575678103071e-08 -0.0010003118880434108 5.6585513244330103e-08 3.2001598119630793e-08 -0.00075028204803643703 1.2954140607460982e-08 5.6981952278945557e-08 -0.00050024586989989752 4.9011080886375494e-09 1.8464299789983047e-09 -0.00075027576101200288 5.7244326202712737e-08 3.4702527867377641e-08 -0.00050025570272999649 1.0865529864695174e-08 5.7025167873017443e-08 -0.0007502789224391633 1.0865529864695174e-08 5.7025167873017443e-08 -0.0007502789224391633 5.7209199127993408e-08 9.5796432377508078e-08 -0.00075028566214623189 5.6585513244330103e-08 3.2001598119630793e-08 -0.00075028204803643703 5.7244326202712737e-08 3.4702527867377641e-08 -0.00050025570272999649 4.9011080886375494e-09 1.8464299789983047e-09 -0.00075027576101200288 1.0865529864695174e-08 5.7025167873017443e-08 -0.0007502789224391633 5.6585513244330096e-08 3.2001598119630799e-08 -0.00075028204803643693 5.7244326202712737e-08 3.4702527867377641e-08 -0.00050025570272999649 5.3657350029319365e-08 -1.9714371937881978e-08 -0.00075027713438146812 4.9011080886375494e-09 1.8464299789983047e-09 -0.00075027576101200288 5.2853845596253342e-09 3.3970567896000104e-09 -0.00050024015922826262 2.1896277509829348e-08 -3.3947339908759605e-08 -0.00050023618606350525 4.9011080886375494e-09 1.8464299789983047e-09 -0.00075027576101200288 5.3657350029319365e-08 -1.9714371937881978e-08 -0.00075027713438146812 2.0979606703794938e-08 -3.6313414312472501e-08 -0.00075027482276316922 2.1896277509829348e-08 -3.3947339908759605e-08 -0.00050023618606350525 5.2853845596253499e-09 3.3970567896000386e-09 -0.00050024015922826262 5.3657350029319352e-08 -1.9714371937881952e-08 -0.00075027713438146823 5.7244326202712737e-08 3.4702527867377641e-08 -0.00050025570272999649 4.9011080886375494e-09 1.8464299789983047e-09 -0.00075027576101200288 5.3657350029319365e-08 -1.9714371937881978e-08 -0.00075027713438146812 4.9011080886375494e-09 1.8464299789983047e-09 -0.00075027576101200288 5.6585513244330103e-08 3.2001598119630793e-08 -0.00075028204803643703 5.7244326202712737e-08 3.4702527867377641e-08 -0.00050025570272999649 -5.0696617646469992e-08 5.2387538262927215e-09 -0.00075027634798615044 4.9011080886375494e-09 1.8464299789983047e-09 -0.00075027576101200288 5.2853845596253499e-09 3.3970567896000125e-09 -0.00050024015922826262 -1.9840649271549554e-08 3.6185363363215565e-08 -0.00050023854284750064 -1.6514482476448035e-08 -5.5256771276673055e-08 -0.00075027529800880297 -5.0696617646469992e-08 5.2387538262927215e-09 -0.00075027634798615044 4.9011080886375494e-09 1.8464299789983047e-09 -0.00075027576101200288 5.2853845596253499e-09 3.3970567896000386e-09 -0.00050024015922826262 -5.0696617646469992e-08 5.2387538262927215e-09 -0.00075027634798615044 -1.6514482476448035e-08 -5.5256771276673055e-08 -0.00075027529800880297 -1.7765106161628396e-08 -5.5700452425439782e-08 -0.00050024072853128651 5.2853845596253673e-09 3.3970567896000489e-09 -0.00050024015922826262 5.2853845596253499e-09 3.3970567896000386e-09 -0.00050024015922826262 -1.6514482476448039e-08 -5.5256771276673048e-08 -0.00075027529800880297 2.1896277509829348e-08 -3.3947339908759605e-08 -0.00050023618606350525 4.9011080886375494e-09 1.8464299789983047e-09 -0.00075027576101200288 -1.9840649271549554e-08 3.6185363363215565e-08 -0.00050023854284750064 1.0865529864695174e-08 5.7025167873017443e-08 -0.0007502789224391633 -2.5387338464478983e-08 6.9260101142205313e-08 -0.00050024057265393902 -1.929024580953213e-08 3.6140554597264407e-08 -0.00075027600330388757 4.9011080886375494e-09 1.8464299789983047e-09 -0.00075027576101200288 -5.0696617646469992e-08 5.2387538262927215e-09 -0.00075027634798615044 -1.929024580953213e-08 3.6140554597264407e-08 -0.00075027600330388757 -1.9840649271549554e-08 3.6185363363215565e-08 -0.00050023854284750064 4.9011080886375494e-09 1.8464299789983047e-09 -0.00075027576101200288 1.0865529864695164e-08 5.7025167873017449e-08 -0.0007502789224391633 1.2954140607461018e-08 5.6981952278945557e-08 -0.00050024586989989763 -1.9840649271549591e-08 3.6185363363215565e-08 -0.00050023854284750075 1.0865529864695174e-08 5.7025167873017443e-08 -0.0007502789224391633 4.9011080886375494e-09 1.8464299789983047e-09 -0.00075027576101200288 -1.929024580953213e-08 3.6140554597264407e-08 -0.00075027600330388757 -1.9840649271549554e-08 3.6185363363215565e-08 -0.00050023854284750064 -5.0696617646469992e-08 5.2387538262927215e-09 -0.00075027634798615044 -9.5745055180024348e-08 5.7469873844976861e-08 -0.00075027822164851936 -4.8820580016161345e-08 5.3219316620392358e-08 -0.00075027602972922746 -5.1288148518002281e-08 5.0052271347562858e-08 -0.00050023973668814341 -2.3150820534305295e-08 7.1581997535711375e-08 -0.00075027683267879096 -1.929024580953213e-08 3.6140554597264407e-08 -0.00075027600330388757 -4.8820580016161345e-08 5.3219316620392358e-08 -0.00075027602972922746 -5.1288148518002281e-08 5.0052271347562858e-08 -0.00050023973668814341 -9.5745055180024362e-08 5.7469873844976855e-08 -0.00075027822164851936 -5.0696617646469992e-08 5.2387538262927215e-09 -0.00075027634798615044 -5.0934102879945581e-08 3.0311069697498439e-09 -0.00050024263371943752 -5.1288148518002281e-08 5.0052271347562858e-08 -0.00050023973668814341 -5.0696617646469992e-08 5.2387538262927215e-09 -0.00075027634798615044 -1.929024580953213e-08 3.6140554597264407e-08 -0.00075027600330388757 -1.9840649271549554e-08 3.6185363363215565e-08 -0.00050023854284750064 -5.1288148518002281e-08 5.0052271347562858e-08 -0.00050023973668814341 -1.929024580953213e-08 3.6140554597264407e-08 -0.00075027600330388757 -5.0696617646469992e-08 5.2387538262927215e-09 -0.00075027634798615044 -4.8820580016161345e-08 5.3219316620392358e-08 -0.00075027602972922746 -5.1288148518002281e-08 5.0052271347562858e-08 -0.00050023973668814341 -1.1167807400772395e-07 1.9376738627754894e-09 -0.00075027950081702703 -9.5745055180024362e-08 5.7469873844976855e-08 -0.00075027822164851936 -5.0696617646469992e-08 5.2387538262927215e-09 -0.00075027634798615044 -5.0934102879945581e-08 3.0311069697498439e-09 -0.00050024263371943752 -1.0132650205755014e-07 4.3164003287285081e-08 -0.0005002481424218663 -1.1167807400772395e-07 1.9376738627754894e-09 -0.00075027950081702703 -5.0934102879945581e-08 3.0311069697498439e-09 -0.00050024263371943752 -9.5745055180024362e-08 5.7469873844976855e-08 -0.00075027822164851936 -1.116051788677667e-07 -1.0815869263475616e-10 -0.0010003099880741368 -9.6698930719341072e-08 5.5735000014528967e-08 -0.0010003098361472357 -5.0640904292000413e-08 5.2446758564006649e-09 -0.0010003091045474469 -5.0696617646469992e-08 5.2387538262927215e-09 -0.00075027634798615044 -9.5745055180024362e-08 5.7469873844976855e-08 -0.00075027822164851936 -5.0696617646469992e-08 5.2387538262927215e-09 -0.00075027634798615044 -4.8820580016161345e-08 5.3219316620392358e-08 -0.00075027602972922746 -9.6698930719341072e-08 5.5735000014528967e-08 -0.0010003098361472357 -9.5745055180024362e-08 5.7469873844976855e-08 -0.00075027822164851936 -1.1167807400772395e-07 1.9376738627754894e-09 -0.00075027950081702703 -5.0696617646469992e-08 5.2387538262927215e-09 -0.00075027634798615044 -1.116051788677667e-07 -1.0815869263475616e-10 -0.0010003099880741368 -9.5745055180024362e-08 5.7469873844976855e-08 -0.00075027822164851936 -1.116051788677667e-07 -1.0815869263475616e-10 -0.0010003099880741368 -5.0696617646469992e-08 5.2387538262927215e-09 -0.00075027634798615044 -9.6698930719341072e-08 5.5735000014528967e-08 -0.0010003098361472357 -2.4311345434539882e-08 7.1412898563388685e-08 -0.0010003097018009941 -2.001795319573719e-08 3.5792565926727093e-08 -0.0010003093683225274 -4.9523215203247632e-08 5.2963002430951183e-08 -0.0010003090211556454 -4.8820580016161345e-08 5.3219316620392358e-08 -0.00075027602972922746 -5.0640904292000413e-08 5.2446758564006649e-09 -0.0010003091045474469 -9.6698930719341058e-08 5.5735000014528973e-08 -0.0010003098361472357 -4.9523215203247632e-08 5.2963002430951183e-08 -0.0010003090211556454 -4.8820580016161345e-08 5.3219316620392358e-08 -0.00075027602972922746 -1.929024580953213e-08 3.6140554597264407e-08 -0.00075027600330388757 -2.3150820534305295e-08 7.1581997535711375e-08 -0.00075027683267879107 -4.8820580016161345e-08 5.3219316620392358e-08 -0.00075027602972922746 -2.001795319573719e-08 3.5792565926727093e-08 -0.0010003093683225274 -2.001795319573719e-08 3.5792565926727093e-08 -0.0010003093683225274 -5.0640904292000413e-08 5.2446758564006649e-09 -0.0010003091045474469 -4.9523215203247632e-08 5.2963002430951183e-08 -0.0010003090211556454 -4.8820580016161345e-08 5.3219316620392358e-08 -0.00075027602972922746 -5.0696617646469992e-08 5.2387538262927215e-09 -0.00075027634798615044 -1.929024580953213e-08 3.6140554597264407e-08 -0.00075027600330388757 -4.8820580016161345e-08 5.3219316620392358e-08 -0.00075027602972922746 -5.0640904292000413e-08 5.2446758564006649e-09 -0.0010003091045474469 -5.0640904292000413e-08 5.2446758564006649e-09 -0.0010003091045474469 -2.001795319573719e-08 3.5792565926727093e-08 -0.0010003093683225274 -1.929024580953213e-08 3.6140554597264407e-08 -0.00075027600330388757 -4.8820580016161345e-08 5.3219316620392358e-08 -0.00075027602972922746 -9.6698930719341072e-08 5.5735000014528967e-08 -0.0010003098361472357 -5.0640904292000413e-08 5.2446758564006649e-09 -0.0010003091045474469 -5.0696617646469992e-08 5.2387538262927215e-09 -0.00075027634798615044 -4.8820580016161345e-08 5.3219316620392358e-08 -0.00075027602972922746 -5.0696617646469992e-08 5.2387538262927215e-09 -0.00075027634798615044 -1.6514482476448035e-08 -5.5256771276673055e-08 -0.00075027529800880297 4.9011080886375494e-09 1.8464299789983047e-09 -0.00075027576101200288 -5.0640904292000413e-08 5.2446758564006649e-09 -0.0010003091045474469 -5.0696617646469992e-08 5.2387538262927215e-09 -0.00075027634798615044 4.9011080886375494e-09 1.8464299789983047e-09 -0.00075027576101200288 -1.929024580953213e-08 3.6140554597264407e-08 -0.00075027600330388757 -5.0640904292000413e-08 5.2446758564006649e-09 -0.0010003091045474469 -1.6514482476448035e-08 -5.5256771276673055e-08 -0.00075027529800880297 -5.0696617646469986e-08 5.2387538262927289e-09 -0.00075027634798615055 -6.6852162402190739e-08 -4.0015026301348792e-08 -0.00075027665554078357 -5.0640904292000407e-08 5.2446758564006649e-09 -0.0010003091045474469 -1.1167807400772395e-07 1.9376738627754894e-09 -0.00075027950081702703 -9.6578201909008092e-08 -5.5901835496752832e-08 -0.0010003085674506935 -6.6852162402190752e-08 -4.0015026301348799e-08 -0.00075027665554078357 -1.116051788677667e-07 -1.0815869263475616e-10 -0.0010003099880741368 -1.116051788677667e-07 -1.0815869263475616e-10 -0.0010003099880741368 -5.0640904292000413e-08 5.2446758564006649e-09 -0.0010003091045474469 -6.6118997416992864e-08 -4.0521264622021749e-08 -0.001000308485554262 -6.6852162402190739e-08 -4.0015026301348792e-08 -0.00075027665554078357 -5.0696617646469992e-08 5.2387538262927215e-09 -0.00075027634798615044 -1.1167807400772395e-07 1.9376738627754894e-09 -0.00075027950081702703 -6.6852162402190739e-08 -4.0015026301348792e-08 -0.00075027665554078357 -1.116051788677667e-07 -1.0815869263475616e-10 -0.0010003099880741368 -5.0696617646469992e-08 5.2387538262927215e-09 -0.00075027634798615044 -1.116051788677667e-07 -1.0815869263475105e-10 -0.0010003099880741371 -6.6852162402190739e-08 -4.0015026301348792e-08 -0.00075027665554078357 -5.0640904292000413e-08 5.2446758564006649e-09 -0.0010003091045474469 -1.0916642895293302e-07 -1.3238868893469048e-08 -0.00050025384485885896 -9.777036124303254e-08 -5.407717841873611e-08 -0.00075027636077558066 -6.5684941232965023e-08 -4.3493554084362869e-08 -0.00050024544080534683 -1.1167807400772395e-07 1.9376738627754894e-09 -0.00075027950081702703 -5.0934102879945581e-08 3.0311069697498439e-09 -0.00050024263371943752 -1.1167807400772395e-07 1.9376738627754948e-09 -0.00075027950081702703 -6.568494123296501e-08 -4.3493554084362863e-08 -0.00050024544080534683 -5.0696617646469992e-08 5.2387538262927215e-09 -0.00075027634798615044 -1.1167807400772395e-07 1.9376738627754894e-09 -0.00075027950081702703 -5.0696617646469992e-08 5.2387538262927215e-09 -0.00075027634798615044 -6.6852162402190739e-08 -4.0015026301348792e-08 -0.00075027665554078357 -6.568494123296501e-08 -4.3493554084362863e-08 -0.00050024544080534683 -1.7765106161628363e-08 -5.5700452425439762e-08 -0.00050024072853128662 -5.0696617646469992e-08 5.2387538262927446e-09 -0.00075027634798615044 -6.568494123296501e-08 -4.3493554084362863e-08 -0.00050024544080534683 -1.6514482476448035e-08 -5.5256771276673055e-08 -0.00075027529800880297 -5.0696617646469992e-08 5.2387538262927215e-09 -0.00075027634798615044 -1.6514482476448035e-08 -5.5256771276673055e-08 -0.00075027529800880297 -6.6852162402190739e-08 -4.0015026301348792e-08 -0.00075027665554078357 -6.568494123296501e-08 -4.3493554084362863e-08 -0.00050024544080534683 -5.7170625380168371e-08 -9.5808382509314124e-08 -0.00075027800275267065 -1.6514482476448035e-08 -5.5256771276673061e-08 -0.00075027529800880297 -1.7765106161628363e-08 -5.5700452425439762e-08 -0.00050024072853128662 -6.568494123296501e-08 -4.3493554084362863e-08 -0.00050024544080534683 -1.6514482476448035e-08 -5.5256771276673055e-08 -0.00075027529800880297 -5.7170625380168377e-08 -9.5808382509314124e-08 -0.00075027800275267065 -6.6852162402190739e-08 -4.0015026301348786e-08 -0.00075027665554078346 -6.568494123296501e-08 -4.3493554084362863e-08 -0.00050024544080534683 -5.7170625380168371e-08 -9.5808382509314124e-08 -0.00075027800275267065 -9.777036124303258e-08 -5.4077178418736149e-08 -0.00075027636077558055 -6.6852162402190739e-08 -4.0015026301348792e-08 -0.00075027665554078357 -6.568494123296501e-08 -4.3493554084362863e-08 -0.00050024544080534683 -9.777036124303258e-08 -5.4077178418736149e-08 -0.00075027636077558055 -1.1167807400772395e-07 1.9376738627754898e-09 -0.00075027950081702703 -6.6852162402190739e-08 -4.0015026301348792e-08 -0.00075027665554078357 -6.568494123296501e-08 -4.3493554084362863e-08 -0.00050024544080534683 -8.7987132582126392e-08 -6.6310467109914346e-08 -0.00050024670278531799 -5.7170625380168364e-08 -9.5808382509314138e-08 -0.00075027800275267065 -6.568494123296501e-08 -4.3493554084362863e-08 -0.00050024544080534683 -9.777036124303258e-08 -5.4077178418736149e-08 -0.00075027636077558055 -9.777036124303258e-08 -5.4077178418736149e-08 -0.00075027636077558055 -5.5763241743082518e-08 -9.669459293022971e-08 -0.0010003090631392957 -6.6852162402190739e-08 -4.0015026301348792e-08 -0.00075027665554078357 -9.6578201909008132e-08 -5.5901835496752852e-08 -0.0010003085674506933 -1.1167807400772395e-07 1.9376738627754894e-09 -0.00075027950081702703 -9.777036124303258e-08 -5.4077178418736149e-08 -0.00075027636077558055 -6.6852162402190739e-08 -4.0015026301348792e-08 -0.00075027665554078357 -9.6578201909008132e-08 -5.5901835496752852e-08 -0.0010003085674506933 -9.6578201909008132e-08 -5.5901835496752852e-08 -0.0010003085674506933 -1.116051788677667e-07 -1.0815869263475541e-10 -0.0010003099880741368 -6.6118997416992864e-08 -4.0521264622021749e-08 -0.001000308485554262 -6.6852162402190739e-08 -4.0015026301348792e-08 -0.00075027665554078357 -5.5763241743082525e-08 -9.6694592930229684e-08 -0.0010003090631392959 -9.6578201909008132e-08 -5.5901835496752852e-08 -0.0010003085674506933 -6.6118997416992864e-08 -4.0521264622021749e-08 -0.001000308485554262 -6.6852162402190739e-08 -4.0015026301348792e-08 -0.00075027665554078357 -1.5313441739121748e-08 -5.556515107470055e-08 -0.0010003084107090762 -5.5763241743082531e-08 -9.6694592930229684e-08 -0.0010003090631392959 -6.6118997416992864e-08 -4.0521264622021743e-08 -0.0010003084855542618 -6.6852162402190739e-08 -4.0015026301348792e-08 -0.00075027665554078357 -5.0640904292000413e-08 5.2446758564006649e-09 -0.0010003091045474469 -1.5313441739121748e-08 -5.556515107470055e-08 -0.0010003084107090762 -6.6118997416992864e-08 -4.0521264622021749e-08 -0.001000308485554262 -6.6852162402190739e-08 -4.0015026301348792e-08 -0.00075027665554078357 -5.5763241743082525e-08 -9.6694592930229684e-08 -0.0010003090631392959 -1.5313441739121748e-08 -5.5565151074700557e-08 -0.0010003084107090764 -1.6514482476448035e-08 -5.5256771276673055e-08 -0.00075027529800880297 -6.6852162402190739e-08 -4.0015026301348792e-08 -0.00075027665554078357 -1.6514482476448035e-08 -5.5256771276673055e-08 -0.00075027529800880297 -5.0640904292000413e-08 5.2446758564006864e-09 -0.0010003091045474469 -6.6852162402190739e-08 -4.0015026301348792e-08 -0.00075027665554078357 -1.5313441739121748e-08 -5.556515107470055e-08 -0.0010003084107090762 -5.7170625380168371e-08 -9.5808382509314124e-08 -0.00075027800275267065 -1.6514482476448035e-08 -5.5256771276673055e-08 -0.00075027529800880297 -6.6852162402190739e-08 -4.0015026301348792e-08 -0.00075027665554078357 -5.5763241743082525e-08 -9.6694592930229684e-08 -0.0010003090631392959 -9.777036124303258e-08 -5.4077178418736149e-08 -0.00075027636077558055 -5.7170625380168371e-08 -9.5808382509314124e-08 -0.00075027800275267065 -6.6852162402190739e-08 -4.0015026301348792e-08 -0.00075027665554078357 -5.5763241743082525e-08 -9.6694592930229684e-08 -0.0010003090631392959 -5.7170625380168371e-08 -9.5808382509314124e-08 -0.00075027800275267065 9.1322764427713866e-11 -1.11609883349149e-07 -0.001000308101445924 -1.6514482476448035e-08 -5.5256771276673055e-08 -0.00075027529800880297 -5.5763241743082525e-08 -9.6694592930229684e-08 -0.0010003090631392959 -4.495843769911004e-08 -1.0091909442673957e-07 -0.00050025143958123248 -1.9359718665079526e-09 -1.1165202289938842e-07 -0.00075027482618204877 -1.7765106161628363e-08 -5.5700452425439762e-08 -0.00050024072853128662 -5.7170625380168371e-08 -9.5808382509314124e-08 -0.00075027800275267065 -1.7765106161628363e-08 -5.5700452425439762e-08 -0.00050024072853128662 -1.9359718665079732e-09 -1.1165202289938845e-07 -0.00075027482618204877 2.1584306961999424e-08 -7.3844905159322566e-08 -0.00050023705291616966 -1.6514482476448035e-08 -5.5256771276673055e-08 -0.00075027529800880297 -1.9359718665079621e-09 -1.1165202289938842e-07 -0.00075027482618204866 -5.7170625380168371e-08 -9.5808382509314111e-08 -0.00075027800275267065 -1.6514482476448035e-08 -5.5256771276673055e-08 -0.00075027529800880297 -1.776510616162836e-08 -5.5700452425439762e-08 -0.00050024072853128651 -1.9359718665079621e-09 -1.1165202289938842e-07 -0.00075027482618204866 -1.6514482476448035e-08 -5.5256771276673055e-08 -0.00075027529800880297 1.9442731951217101e-08 -7.5924905277427165e-08 -0.00075027448358014055 2.158430696199942e-08 -7.3844905159322579e-08 -0.00050023705291616966 2.1896277509829348e-08 -3.3947339908759605e-08 -0.00050023618606350525 -1.6514482476448012e-08 -5.5256771276673048e-08 -0.00075027529800880297 2.1584306961999424e-08 -7.3844905159322579e-08 -0.00050023705291616966 1.9442731951217101e-08 -7.5924905277427165e-08 -0.00075027448358014055 -1.6514482476448035e-08 -5.5256771276673055e-08 -0.00075027529800880297 4.9011080886375494e-09 1.8464299789983047e-09 -0.00075027576101200288 2.0979606703794938e-08 -3.6313414312472501e-08 -0.00075027482276316922 2.1896277509829348e-08 -3.3947339908759605e-08 -0.00050023618606350525 -1.6514482476448035e-08 -5.5256771276673055e-08 -0.00075027529800880297 2.0979606703794938e-08 -3.6313414312472501e-08 -0.00075027482276316922 1.9442731951217101e-08 -7.5924905277427165e-08 -0.00075027448358014055 2.1896277509829348e-08 -3.3947339908759605e-08 -0.00050023618606350525 2.0979606703794938e-08 -3.6313414312472501e-08 -0.00075027482276316922 5.3657350029319372e-08 -1.9714371937881982e-08 -0.00075027713438146812 4.912969184672443e-08 -5.6862900002167027e-08 -0.00075027503192186392 5.1805934153494718e-08 -5.3007706776265342e-08 -0.00050023741773647839 5.3657350029319365e-08 -1.9714371937881978e-08 -0.00075027713438146812 2.0979606703794941e-08 -3.6313414312472501e-08 -0.00075027482276316911 2.1896277509829348e-08 -3.3947339908759605e-08 -0.00050023618606350525 5.1805934153494718e-08 -5.3007706776265342e-08 -0.00050023741773647839 1.9442731951217101e-08 -7.5924905277427165e-08 -0.00075027448358014055 2.0979606703794938e-08 -3.6313414312472501e-08 -0.00075027482276316922 4.912969184672443e-08 -5.6862900002167027e-08 -0.00075027503192186392 5.1805934153494718e-08 -5.3007706776265342e-08 -0.00050023741773647839 2.1896277509829348e-08 -3.3947339908759605e-08 -0.00050023618606350525 1.9442731951217101e-08 -7.5924905277427165e-08 -0.00075027448358014055 5.1805934153494718e-08 -5.3007706776265342e-08 -0.00050023741773647839 2.0979606703794938e-08 -3.6313414312472501e-08 -0.00075027482276316922 1.3426711729347752e-08 -1.0928212300917339e-07 -0.00050024182634963662 5.407022897361189e-08 -9.7714605223153578e-08 -0.00075027448065849119 2.158430696199942e-08 -7.3844905159322579e-08 -0.00050023705291616966 -1.9359718665079621e-09 -1.1165202289938842e-07 -0.00075027482618204866 5.4070228973611877e-08 -9.7714605223153578e-08 -0.00075027448065849108 -1.935971866507965e-09 -1.1165202289938842e-07 -0.00075027482618204866 1.9442731951217101e-08 -7.5924905277427165e-08 -0.00075027448358014055 2.158430696199942e-08 -7.3844905159322579e-08 -0.00050023705291616966 5.4070228973611877e-08 -9.7714605223153578e-08 -0.00075027448065849108 1.9442731951217101e-08 -7.5924905277427165e-08 -0.00075027448358014055 4.912969184672443e-08 -5.6862900002167027e-08 -0.00075027503192186392 5.1805934153494718e-08 -5.3007706776265342e-08 -0.00050023741773647839 2.158430696199942e-08 -7.3844905159322579e-08 -0.00050023705291616966 5.4070228973611877e-08 -9.7714605223153578e-08 -0.00075027448065849108 5.1805934153494718e-08 -5.3007706776265342e-08 -0.00050023741773647839 1.9442731951217101e-08 -7.5924905277427165e-08 -0.00075027448358014055 5.5907939072620665e-08 -9.6593883351501875e-08 -0.0010003083732922115 9.1322764427697891e-11 -1.11609883349149e-07 -0.0010003081014459238 2.0278997437874981e-08 -7.6063704806856689e-08 -0.0010003081372121692 1.9442731951217101e-08 -7.5924905277427165e-08 -0.00075027448358014055 1.9442731951217101e-08 -7.5924905277427165e-08 -0.00075027448358014055 5.407022897361187e-08 -9.7714605223153591e-08 -0.00075027448065849108 4.912969184672443e-08 -5.6862900002167027e-08 -0.00075027503192186392 5.5907939072620665e-08 -9.6593883351501875e-08 -0.0010003083732922115 1.9442731951217101e-08 -7.5924905277427165e-08 -0.00075027448358014055 5.5907939072620665e-08 -9.6593883351501875e-08 -0.0010003083732922115 4.912969184672443e-08 -5.6862900002167027e-08 -0.00075027503192186403 2.0278997437874981e-08 -7.6063704806856689e-08 -0.0010003081372121692 5.5907939072620665e-08 -9.6593883351501875e-08 -0.0010003083732922115 2.0278997437874981e-08 -7.6063704806856689e-08 -0.0010003081372121692 4.9590370836242675e-08 -5.7065573537965788e-08 -0.0010003085485966532 4.912969184672443e-08 -5.6862900002167027e-08 -0.00075027503192186392 -1.9359718665079621e-09 -1.1165202289938842e-07 -0.00075027482618204866 5.4070228973611884e-08 -9.7714605223153578e-08 -0.00075027448065849108 1.9442731951217101e-08 -7.5924905277427165e-08 -0.00075027448358014055 5.5907939072620665e-08 -9.6593883351501875e-08 -0.0010003083732922115 -1.9359718665079621e-09 -1.1165202289938842e-07 -0.00075027482618204866 5.5907939072620678e-08 -9.6593883351501875e-08 -0.0010003083732922115 1.9442731951217101e-08 -7.5924905277427165e-08 -0.00075027448358014055 9.1322764427701148e-11 -1.11609883349149e-07 -0.001000308101445924 2.0979606703794938e-08 -3.6313414312472501e-08 -0.00075027482276316922 2.0278997437874981e-08 -7.6063704806856689e-08 -0.0010003081372121692 4.912969184672443e-08 -5.6862900002167027e-08 -0.00075027503192186392 2.1358590800440866e-08 -3.6555104097003052e-08 -0.0010003085802309706 5.360582241052404e-08 -2.050314677758082e-08 -0.0010003100323126633 2.1358590800440869e-08 -3.6555104097003052e-08 -0.0010003085802309708 2.0979606703794938e-08 -3.6313414312472501e-08 -0.00075027482276316922 4.912969184672443e-08 -5.6862900002167027e-08 -0.00075027503192186392 5.3657350029319365e-08 -1.9714371937881978e-08 -0.00075027713438146812 2.0979606703794938e-08 -3.6313414312472508e-08 -0.00075027482276316922 4.912969184672443e-08 -5.6862900002167027e-08 -0.00075027503192186392 5.360582241052404e-08 -2.050314677758082e-08 -0.0010003100323126633 2.1358590800440866e-08 -3.6555104097003052e-08 -0.0010003085802309706 5.3605822410524047e-08 -2.0503146777580823e-08 -0.0010003100323126633 4.9590370836242675e-08 -5.7065573537965788e-08 -0.0010003085485966532 4.912969184672443e-08 -5.6862900002167027e-08 -0.00075027503192186392 2.0278997437874981e-08 -7.6063704806856689e-08 -0.0010003081372121692 2.1358590800440866e-08 -3.6555104097003052e-08 -0.0010003085802309706 4.9590370836242675e-08 -5.7065573537965788e-08 -0.0010003085485966532 4.912969184672443e-08 -5.6862900002167027e-08 -0.00075027503192186392 2.0979606703794938e-08 -3.6313414312472501e-08 -0.00075027482276316922 1.9442731951217101e-08 -7.5924905277427165e-08 -0.00075027448358014055 4.912969184672443e-08 -5.6862900002167027e-08 -0.00075027503192186392 2.0278997437874981e-08 -7.6063704806856689e-08 -0.0010003081372121692 -1.5313441739121748e-08 -5.556515107470055e-08 -0.0010003084107090762 4.8243636123191802e-09 1.3972275275718993e-09 -0.0010003091416090615 2.1358590800440866e-08 -3.6555104097003052e-08 -0.0010003085802309706 2.0979606703794938e-08 -3.6313414312472501e-08 -0.00075027482276316922 4.9011080886375494e-09 1.8464299789983047e-09 -0.00075027576101200288 -1.6514482476448035e-08 -5.5256771276673055e-08 -0.00075027529800880297 2.0979606703794938e-08 -3.6313414312472501e-08 -0.00075027482276316922 -1.5313441739121748e-08 -5.556515107470055e-08 -0.0010003084107090762 -1.5313441739121748e-08 -5.556515107470055e-08 -0.0010003084107090762 2.1358590800440866e-08 -3.6555104097003052e-08 -0.0010003085802309706 2.0278997437874981e-08 -7.6063704806856689e-08 -0.0010003081372121692 2.0979606703794938e-08 -3.6313414312472501e-08 -0.00075027482276316922 2.0979606703794938e-08 -3.6313414312472501e-08 -0.00075027482276316922 -1.6514482476448035e-08 -5.5256771276673055e-08 -0.00075027529800880297 1.9442731951217101e-08 -7.5924905277427165e-08 -0.00075027448358014055 -1.5313441739121748e-08 -5.556515107470055e-08 -0.0010003084107090762 2.0979606703794938e-08 -3.6313414312472501e-08 -0.00075027482276316922 -1.5313441739121722e-08 -5.5565151074700544e-08 -0.0010003084107090764 1.9442731951217104e-08 -7.5924905277427165e-08 -0.00075027448358014044 2.0278997437874981e-08 -7.6063704806856689e-08 -0.0010003081372121692 9.1322764427701148e-11 -1.11609883349149e-07 -0.001000308101445924 -1.5313441739121748e-08 -5.556515107470055e-08 -0.0010003084107090762 2.0278997437874981e-08 -7.6063704806856689e-08 -0.0010003081372121692 1.9442731951217101e-08 -7.5924905277427165e-08 -0.00075027448358014055 -1.6514482476448035e-08 -5.5256771276673055e-08 -0.00075027529800880297 -1.9359718665079621e-09 -1.1165202289938842e-07 -0.00075027482618204866 1.9442731951217101e-08 -7.5924905277427165e-08 -0.00075027448358014055 9.1322764427701691e-11 -1.11609883349149e-07 -0.001000308101445924 -1.6514482476448035e-08 -5.5256771276673055e-08 -0.00075027529800880297 9.1322764427692269e-11 -1.1160988334914902e-07 -0.001000308101445924 1.9442731951217101e-08 -7.5924905277427152e-08 -0.00075027448358014055 -1.5313441739121748e-08 -5.556515107470055e-08 -0.0010003084107090762 -5.7170625380168371e-08 -9.5808382509314124e-08 -0.00075027800275267065 -1.9359718665079588e-09 -1.1165202289938841e-07 -0.00075027482618204866 -1.6514482476448035e-08 -5.5256771276673055e-08 -0.00075027529800880297 9.1322764427701691e-11 -1.11609883349149e-07 -0.001000308101445924 9.1322764427701148e-11 -1.11609883349149e-07 -0.001000308101445924 -5.5763241743082525e-08 -9.669459293022967e-08 -0.0010003090631392959 -1.5313441739121748e-08 -5.556515107470055e-08 -0.0010003084107090762 -1.6514482476448032e-08 -5.5256771276673055e-08 -0.00075027529800880297 -1.5313441739121748e-08 -5.556515107470055e-08 -0.0010003084107090762 9.1322764427701148e-11 -1.11609883349149e-07 -0.001000308101445924 2.0278997437874981e-08 -7.6063704806856689e-08 -0.0010003081372121692 3.6230632466366669e-11 -1.1152039187923094e-07 -0.0012503411252352929 -5.5763241743082525e-08 -9.6694592930229684e-08 -0.0010003090631392959 9.1322764427704018e-11 -1.1160988334914898e-07 -0.001000308101445924 -1.5313441739121748e-08 -5.556515107470055e-08 -0.0010003084107090762 3.6230632466366669e-11 -1.1152039187923094e-07 -0.0012503411252352929 2.1358590800440866e-08 -3.6555104097003052e-08 -0.0010003085802309706 -1.5313441739121748e-08 -5.556515107470055e-08 -0.0010003084107090762 2.0278997437874981e-08 -7.6063704806856689e-08 -0.0010003081372121692 -1.4913665634137476e-08 -5.5367950078690533e-08 -0.0012503418554291224 4.8243636123191802e-09 1.3972275275718993e-09 -0.0010003091416090615 -1.5313441739121748e-08 -5.556515107470055e-08 -0.0010003084107090762 2.1358590800440866e-08 -3.6555104097003052e-08 -0.0010003085802309706 -1.4913665634137476e-08 -5.5367950078690533e-08 -0.0012503418554291224 5.360582241052404e-08 -2.050314677758082e-08 -0.0010003100323126633 2.1358590800440866e-08 -3.6555104097003059e-08 -0.0010003085802309706 4.9590370836242675e-08 -5.7065573537965788e-08 -0.0010003085485966532 5.3694057699115272e-08 -2.0355104453914672e-08 -0.0012503433725539713 2.1358590800440866e-08 -3.6555104097003052e-08 -0.0010003085802309706 2.0278997437874981e-08 -7.6063704806856689e-08 -0.0010003081372121692 4.9590370836242675e-08 -5.7065573537965788e-08 -0.0010003085485966532 2.0501982676030701e-08 -7.5845160911320683e-08 -0.0012503420984372523 2.0278997437874981e-08 -7.6063704806856689e-08 -0.0010003081372121692 5.5907939072620658e-08 -9.6593883351501875e-08 -0.0010003083732922115 4.9590370836242675e-08 -5.7065573537965788e-08 -0.0010003085485966532 5.5796837193262483e-08 -9.6563937209230902e-08 -0.001250341787320084 9.1322764427701148e-11 -1.11609883349149e-07 -0.001000308101445924 5.5907939072620671e-08 -9.6593883351501875e-08 -0.0010003083732922115 2.0278997437874981e-08 -7.6063704806856689e-08 -0.0010003081372121692 5.5796837193262483e-08 -9.6563937209230902e-08 -0.001250341787320084 5.5796837193262483e-08 -9.6563937209230902e-08 -0.001250341787320084 2.0501982676030701e-08 -7.5845160911320683e-08 -0.0012503420984372523 4.9655269957003506e-08 -5.6816417590783089e-08 -0.0012503432386826523 4.9590370836242675e-08 -5.7065573537965788e-08 -0.0010003085485966532 2.0278997437874981e-08 -7.6063704806856689e-08 -0.0010003081372121692 5.5796837193262483e-08 -9.6563937209230902e-08 -0.001250341787320084 4.9590370836242675e-08 -5.7065573537965788e-08 -0.0010003085485966532 2.0501982676030701e-08 -7.5845160911320683e-08 -0.0012503420984372523 5.5796837193262483e-08 -9.6563937209230902e-08 -0.001250341787320084 3.6230632466363515e-11 -1.1152039187923094e-07 -0.0012503411252352929 2.0501982676030701e-08 -7.5845160911320683e-08 -0.0012503420984372523 2.0278997437874981e-08 -7.6063704806856689e-08 -0.0010003081372121692 9.1322764427701148e-11 -1.11609883349149e-07 -0.001000308101445924 5.5796837193262496e-08 -9.6563937209230902e-08 -0.001250341787320084 2.0278997437874981e-08 -7.6063704806856689e-08 -0.0010003081372121692 3.6230632466366688e-11 -1.1152039187923094e-07 -0.0012503411252352929 2.0501982676030701e-08 -7.5845160911320683e-08 -0.0012503420984372523 2.1590360182133967e-08 -3.6352207099423652e-08 -0.0012503428874360376 4.9655269957003506e-08 -5.6816417590783089e-08 -0.0012503432386826523 4.9590370836242675e-08 -5.7065573537965788e-08 -0.0010003085485966532 2.1358590800440866e-08 -3.6555104097003052e-08 -0.0010003085802309706 2.0501982676030701e-08 -7.5845160911320683e-08 -0.0012503420984372523 4.9590370836242675e-08 -5.7065573537965788e-08 -0.0010003085485966532 2.1590360182133967e-08 -3.6352207099423652e-08 -0.0012503428874360376 2.1590360182133967e-08 -3.6352207099423652e-08 -0.0012503428874360376 5.3694057699115278e-08 -2.0355104453914676e-08 -0.0012503433725539713 4.9655269957003506e-08 -5.6816417590783089e-08 -0.0012503432386826523 4.9590370836242675e-08 -5.7065573537965788e-08 -0.0010003085485966532 5.3694057699115272e-08 -2.0355104453914672e-08 -0.0012503433725539713 2.159036018213397e-08 -3.6352207099423652e-08 -0.0012503428874360376 2.1358590800440866e-08 -3.6555104097003052e-08 -0.0010003085802309706 4.9590370836242675e-08 -5.7065573537965788e-08 -0.0010003085485966532 2.1358590800440866e-08 -3.6555104097003052e-08 -0.0010003085802309706 -1.4913665634137452e-08 -5.5367950078690526e-08 -0.0012503418554291224 2.0278997437874984e-08 -7.6063704806856689e-08 -0.0010003081372121692 2.0501982676030701e-08 -7.5845160911320683e-08 -0.0012503420984372523 -1.4913665634137476e-08 -5.5367950078690533e-08 -0.0012503418554291224 2.1590360182133967e-08 -3.6352207099423652e-08 -0.0012503428874360376 2.0501982676030701e-08 -7.5845160911320683e-08 -0.0012503420984372523 2.1358590800440866e-08 -3.6555104097003052e-08 -0.0010003085802309706 -1.4913665634137476e-08 -5.5367950078690533e-08 -0.0012503418554291224 4.9910992993627707e-09 1.5338074700969125e-09 -0.0012503426991213632 2.1590360182133967e-08 -3.6352207099423652e-08 -0.0012503428874360376 2.1358590800440866e-08 -3.6555104097003052e-08 -0.0010003085802309706 3.6230632466366688e-11 -1.1152039187923094e-07 -0.0012503411252352929 -5.5722794866103321e-08 -9.6604921455071722e-08 -0.0012503414717970722 -1.4913665634137476e-08 -5.5367950078690533e-08 -0.0012503418554291224 -1.5313441739121745e-08 -5.556515107470055e-08 -0.0010003084107090762 -1.5313441739121748e-08 -5.556515107470055e-08 -0.0010003084107090762 3.6230632466357744e-11 -1.1152039187923097e-07 -0.0012503411252352931 2.0278997437874981e-08 -7.6063704806856676e-08 -0.0010003081372121692 -1.4913665634137476e-08 -5.5367950078690533e-08 -0.0012503418554291224 3.6230632466366688e-11 -1.1152039187923094e-07 -0.0012503411252352929 -1.4913665634137476e-08 -5.5367950078690533e-08 -0.0012503418554291224 2.0501982676030701e-08 -7.5845160911320683e-08 -0.0012503420984372523 2.0278997437874981e-08 -7.6063704806856689e-08 -0.0010003081372121692 -5.5763241743082525e-08 -9.6694592930229684e-08 -0.0010003090631392959 3.6230632466379076e-11 -1.1152039187923094e-07 -0.0012503411252352929 -1.5313441739121748e-08 -5.556515107470055e-08 -0.0010003084107090762 -5.5722794866103321e-08 -9.6604921455071735e-08 -0.0012503414717970722 -5.5763241743082525e-08 -9.6694592930229684e-08 -0.0010003090631392959 -1.5313441739121748e-08 -5.556515107470055e-08 -0.0010003084107090762 -6.6118997416992864e-08 -4.0521264622021749e-08 -0.001000308485554262 -5.5722794866103321e-08 -9.6604921455071735e-08 -0.0012503414717970722 -9.6578201909008132e-08 -5.5901835496752852e-08 -0.0010003085674506933 -5.5763241743082525e-08 -9.6694592930229684e-08 -0.0010003090631392959 -6.6118997416992864e-08 -4.0521264622021749e-08 -0.001000308485554262 -5.5722794866103321e-08 -9.6604921455071735e-08 -0.0012503414717970722 -5.5722794866103321e-08 -9.6604921455071735e-08 -0.0012503414717970722 -1.4913665634137476e-08 -5.5367950078690539e-08 -0.0012503418554291226 -1.5313441739121748e-08 -5.556515107470055e-08 -0.0010003084107090762 -6.6118997416992864e-08 -4.0521264622021749e-08 -0.001000308485554262 -1.4913665634137476e-08 -5.5367950078690533e-08 -0.0012503418554291224 -5.5722794866103328e-08 -9.6604921455071735e-08 -0.0012503414717970722 -6.5861345239174646e-08 -4.0328862122349984e-08 -0.0012503429875137559 -6.6118997416992864e-08 -4.0521264622021749e-08 -0.001000308485554262 -1.5313441739121748e-08 -5.556515107470055e-08 -0.0010003084107090762 -5.0386895960428328e-08 5.4567616861833233e-09 -0.0012503424187937716 -6.6118997416992864e-08 -4.0521264622021749e-08 -0.001000308485554262 -1.4913665634137476e-08 -5.5367950078690533e-08 -0.0012503418554291224 -5.0386895960428328e-08 5.4567616861833018e-09 -0.0012503424187937716 -1.4913665634137476e-08 -5.5367950078690533e-08 -0.0012503418554291224 -6.5861345239174646e-08 -4.0328862122349991e-08 -0.0012503429875137561 -6.6118997416992864e-08 -4.0521264622021749e-08 -0.001000308485554262 -9.6577999071741642e-08 -5.5782379673267111e-08 -0.0012503416445532232 -1.1152109486320633e-07 -6.1299052747069787e-12 -0.0012503422485563129 -6.5861345239174646e-08 -4.0328862122349991e-08 -0.0012503429875137561 -6.6118997416992864e-08 -4.0521264622021749e-08 -0.001000308485554262 -5.5722794866103321e-08 -9.6604921455071735e-08 -0.0012503414717970722 -9.6577999071741642e-08 -5.5782379673267111e-08 -0.0012503416445532232 -6.5861345239174646e-08 -4.0328862122349991e-08 -0.0012503429875137561 -6.6118997416992864e-08 -4.0521264622021749e-08 -0.001000308485554262 -9.6578201909008132e-08 -5.5901835496752852e-08 -0.0010003085674506933 -5.5722794866103314e-08 -9.6604921455071761e-08 -0.001250341471797072 -6.6118997416992864e-08 -4.0521264622021749e-08 -0.001000308485554262 -9.6577999071741642e-08 -5.5782379673267111e-08 -0.0012503416445532232 -1.116051788677667e-07 -1.0815869263475616e-10 -0.0010003099880741368 -9.6578201909008132e-08 -5.5901835496752852e-08 -0.0010003085674506933 -6.6118997416992864e-08 -4.0521264622021749e-08 -0.001000308485554262 -9.6577999071741642e-08 -5.5782379673267111e-08 -0.0012503416445532232 
</DataArray>
</PointData>
<CellData Scalars="" Vectors="" Tensors="stress,">
<DataArray type="Float64" Name="stress" NumberOfComponents="9" format="ascii">
-3329.125993097955 -0.15910995129454397 -1.2979935308694621 -0.15910995129454397 -3329.6552050518508 -0.79595257451842372 -1.2979935308694621 -0.79595257451842372 -9999.0516268760948 -3329.2605431705265 -0.077266691934462117 -1.5429463261607452 -0.077266691934462117 -3329.8321712008301 -0.29995473227245384 -1.5429463261607452 -0.29995473227245384 -9999.1295059314816 -3327.5279278268158 1.5865405082168635 -2.750049451904033 1.5865405082168635 -3327.1118084206564 -1.1688087862380598 -2.750049451904033 -1.1688087862380598 -10000.769074749249 -3327.9975512588303 1.6883312324143906 -2.1791741936145312 1.6883312324143906 -3330.4369379471132 -2.324757612896919 -2.1791741936145312 -2.324757612896919 -10001.717762988867 -3334.0571053912731 -0.35684347861601234 -1.081504936239071 -0.35684347861601234 -3330.5678754117448 -1.1839626658074849 -1.081504936239071 -1.1839626658074849 -9999.1330334786217 -3332.7168465408781 1.4997886869077777 -0.72017807396011246 1.4997886869077777 -3331.2664124444977 0.031443848307767475 -0.72017807396011246 0.031443848307767475 -9998.9726030242109 -3330.3546046557517 0.047844413603341351 -1.1544195024607689 0.047844413603341351 -3330.4630311434207 -0.36239776111551691 -1.1544195024607689 -0.36239776111551691 -9999.5607362884366 -3330.0723542381347 0.22851121323301643 -1.1126770274918272 0.22851121323301643 -3329.9294261035034 -0.22198728714283789 -1.1126770274918272 -0.22198728714283789 -9999.3567724240529 -3329.6537026347773 -0.48519330441673314 -0.60070672269148417 -0.48519330441673314 -3328.064619175746 -0.51470319502413986 -0.60070672269148417 -0.51470319502413986 -9997.7271989493074 -3333.0482333743089 0.96187566728272622 -1.2826775531279053 0.96187566728272622 -3330.4583643212218 0.16726763602265393 -1.2826775531279053 0.16726763602265393 -9999.1742679205599 -3326.88052228778 2.0303741573886764 -3.5401934231399061 2.0303741573886764 -3328.0624416381856 -0.24180813412739832 -3.5401934231399061 -0.24180813412739832 -9997.0333594781696 -3331.1862919981304 0.19322429408921327 0.0058075767019649671 0.19322429408921327 -3329.9883249857958 -1.3278490709486142 0.0058075767019649671 -1.3278490709486142 -9999.5195537160107 -3332.8886951713603 0.69275691103161274 2.3645828834207365 0.69275691103161274 -3330.0787992811374 -0.6958171277596662 2.3645828834207365 -0.6958171277596662 -9999.9677730831518 -3331.5192772426458 1.1949208483428202 3.0332903134139997 1.1949208483428202 -3328.6693309235338 0.17723598339853197 3.0332903134139997 0.17723598339853197 -9998.0239403194118 -3332.5910427686163 -0.48947437701002511 3.4766628894983378 -0.48947437701002511 -3332.8796622322798 -1.7514299961536779 3.4766628894983378 -1.7514299961536779 -9999.3444645280906 -3333.52784998273 0.035270840115433744 2.7401049903553374 0.035270840115433744 -3334.8531618423276 -0.33057589380451358 2.7401049903553374 -0.33057589380451358 -10000.072041234131 -3332.0260573566793 -0.94356893791521879 0.79431118961110769 -0.94356893791521879 -3335.1667677101136 -0.78829720193940034 0.79431118961110769 -0.78829720193940034 -10003.043686867722 -3333.6245366582821 1.9423759980493547 -0.49785928388827871 1.9423759980493547 -3334.8255753991548 -0.12103472249845559 -0.49785928388827871 -0.12103472249845559 -10004.032327600988 -3335.4128980768405 0.55486177153070071 -1.1829798299434577 0.55486177153070071 -3334.7583002081742 -2.1335901583248273 -1.1829798299434577 -2.1335901583248273 -10001.490044938959 -3334.7263719546509 1.7138985052787352 -0.64079347548522492 1.7138985052787352 -3332.3182712604521 -0.31904864809712308 -0.64079347548522492 -0.31904864809712308 -10003.680960390402 -3336.2966597870436 0.47300819634315122 -0.40597037955225312 0.47300819634315122 -3336.6733482467571 -0.76130433248172902 -0.40597037955225312 -0.76130433248172902 -10004.487982609477 -3331.9685815117341 -1.792822401852687 -0.67883775496543386 -1.792822401852687 -3330.3807201285772 -0.39877552664463423 -0.67883775496543386 -0.39877552664463423 -10000.904195829869 -3327.2427231715315 -1.784575738782646 -1.2307672153538078 -1.784575738782646 -3325.7879332645584 1.3799592193254284 -1.2307672153538078 1.3799592193254284 -9997.4835635790514 -3330.5374339452278 -0.9665489704279504 0.019021883334097822 -0.9665489704279504 -3327.6411855692554 0.80995283405792229 0.019021883334097822 0.80995283405792229 -9999.8615252984127 -3332.9301091702187 -1.4612164285440603 -0.18053262368857759 -1.4612164285440603 -3331.510966033979 -1.1086300718770872 -0.18053262368857759 -1.1086300718770872 -10002.355749402075 -3330.1935448024801 0.1187397551171786 0.010427608814552514 0.1187397551171786 -3329.3935555478906 -0.77787724405334302 0.010427608814552514 -0.77787724405334302 -10001.142255688619 -3330.3489939100741 0.048864259041532021 0.43996050943815135 0.048864259041532021 -3329.4045845396495 -0.91987907346174325 0.43996050943815135 -0.91987907346174325 -10001.26992821263 -3330.4946780582864 0.21851784232827298 0.2956414479713203 0.21851784232827298 -3330.2897337500972 -1.2215123554015008 0.2956414479713203 -1.2215123554015008 -10001.527636552295 -3330.4918834946216 0.18361701322803681 0.47471786953883566 0.18361701322803681 -3330.6599157367473 -0.97342878056775817 0.47471786953883566 -0.97342878056775817 -10001.619483408042 -3330.5172822158288 0.083250092643225138 0.62412377361124527 0.083250092643225138 -3330.8193272596372 -0.34749509521316213 0.62412377361124527 -0.34749509521316213 -10002.253951955492 -3330.4903402725413 0.058578932262497441 0.73559542788098042 0.058578932262497441 -3330.9675566405772 -0.5625290490252155 0.73559542788098042 -0.5625290490252155 -10002.284273814907 -3329.7936165298165 0.34533137211377873 0.60285226901123679 0.34533137211377873 -3329.7860237409936 -1.1199137810472166 0.60285226901123679 -1.1199137810472166 -10001.14039066873 -3329.3761399604405 0.076469491884636337 -0.041959499682434398 0.076469491884636337 -3328.913842246609 -0.64677472657785984 -0.041959499682434398 -0.64677472657785984 -9997.5492838296286 -3329.0829958454847 0.34533137211377873 1.4774683803852895 0.34533137211377873 -3329.0754030566618 0.46223003148270436 1.4774683803852895 0.46223003148270436 -9999.0085286157337 -3330.6554536534718 -0.23178653247203918 0.47765350714325905 -0.23178653247203918 -3330.5852784872736 0.18756597996025448 0.47765350714325905 0.18756597996025448 -10000.376151578514 -3330.958214360166 -0.71674710170325029 0.87525868128705042 -0.71674710170325029 -3330.8726870957853 0.10825880575976043 0.87525868128705042 0.10825880575976043 -10000.015765853061 -3330.3511699377632 -0.16467820162060859 0.46935333621649988 -0.16467820162060859 -3330.3058875463839 -0.00050320445188845042 0.46935333621649988 -0.00050320445188845042 -9999.7223048601081 -3329.9729962053734 0.076469491884636698 1.329960758008383 0.076469491884636698 -3329.5106984915419 0.42270548290071019 1.329960758008383 0.42270548290071019 -9999.3398525644261 -3329.5456366335188 0.058578932262497219 0.94493947201681294 0.058578932262497219 -3330.0228530015547 -0.17915904722985942 0.94493947201681294 -0.17915904722985942 -9999.4501628978414 -3329.4627641114221 0.45681309763635292 0.51117239544146287 0.45681309763635292 -3329.9960133885083 0.24562239768846439 0.51117239544146287 0.24562239768846439 -9999.9306629183084 -3330.2928419254331 0.097740370574782576 0.25700760067957162 0.097740370574782576 -3330.3880553184545 0.081268804695355357 0.25700760067957162 0.081268804695355357 -10000.370908302233 -3329.5725785768059 0.083250092643224916 0.83346781774571355 0.083250092643224916 -3329.8746236206143 0.035874906582648691 0.83346781774571355 0.035874906582648691 -9999.4198410384251 -3330.2203119436645 0.05055385163946513 0.2294036494795364 0.05055385163946513 -3330.3756179838247 0.13451809758953459 0.2294036494795364 0.13451809758953459 -10000.349666473132 -3330.2856960854851 0.030254637761633174 0.094204181226814399 0.030254637761633174 -3330.316785706872 0.13165797692272463 0.094204181226814399 0.13165797692272463 -10000.11488598846 -3329.9161192944111 0.21851784232827243 -0.33849731612008327 0.21851784232827243 -3329.711174986222 0.013956071708889795 -0.33849731612008327 0.013956071708889795 -9999.7919602606689 -3330.3861035410459 0.072788568524705277 -0.076164513456660643 0.072788568524705277 -3329.8185149266233 0.20143403035581287 -0.076164513456660643 0.20143403035581287 -10000.251838608183 -3330.9079637757882 -0.22626703188527497 -0.11881432900099753 -0.22626703188527497 -3330.5879223038328 0.14234909547667485 -0.11881432900099753 0.14234909547667485 -10000.574655511167 -3329.9856574718729 0.18361701322803636 0.17586733319149062 0.18361701322803636 -3330.1536897139986 0.25316299983288104 0.17586733319149062 0.25316299983288104 -10000.100805339795 -3330.2672186515606 0.037157156747492204 0.18096733887432492 0.037157156747492204 -3330.32734148593 0.25185534364032947 0.18096733887432492 0.25185534364032947 -10000.112905574744 -3329.5699605776626 0.1187397551171786 0.64009785234293304 0.1187397551171786 -3328.7699713230732 1.1982591392315953 0.64009785234293304 1.1982591392315953 -9999.271503014168 -3330.3884329154243 -0.21455068344733619 0.38912216234939478 -0.21455068344733619 -3330.6151318534639 0.23867957570291765 0.38912216234939478 0.23867957570291765 -10000.316859735549 -3330.8490330968252 0.8788189805893909 0.76148543564522697 0.8788189805893909 -3329.9994306997719 0.87560297731033643 0.76148543564522697 0.87560297731033643 -9999.6810448393462 -3329.7949715153659 0.12808442056811764 0.29315547354872251 0.12808442056811764 -3330.9244216026564 0.072460393404981005 0.29315547354872251 0.072460393404981005 -10000.245816822831 -3329.6909884855877 0.048864259041531799 0.41181689656878007 0.048864259041531799 -3328.7465791151631 0.80286492195773462 0.41181689656878007 0.80286492195773462 -9999.2959119391726 -3330.0671979613003 -0.052572897106475835 0.18668206491929595 -0.052572897106475835 -3330.5163359922649 0.24305082267164835 0.18668206491929595 0.24305082267164835 -10000.110149028762 -3330.1810606822319 -0.21455068344733641 -0.13147051939404264 -0.21455068344733641 -3330.4077596202715 -0.029420739041597699 -0.13147051939404264 -0.029420739041597699 -9999.6947430359724 -3329.9005069292898 -0.052572897106476058 -0.18332916238887265 -0.052572897106476058 -3330.3496449602544 -0.11924254430778092 -0.18332916238887265 -0.11924254430778092 -9999.610075932731 -3330.1139212883572 0.037157156747492204 -0.052921206646715291 0.037157156747492204 -3330.1740441227266 -0.007452373532942147 -0.052921206646715291 -0.007452373532942147 -9999.6530134851346 -3330.1024448583075 0.030254637761633063 -0.12555189043996506 0.030254637761633063 -3330.1335344796944 -0.1537893404802162 -0.12555189043996506 -0.1537893404802162 -9999.5651323069251 -3329.9342980473784 0.050553851639465019 0.11949651848499343 0.050553851639465019 -3330.0896040875386 0.023336397733146441 0.11949651848499343 0.023336397733146441 -9999.4916247842702 -3330.006828029148 0.097740370574782798 0.14710046968684765 0.097740370574782798 -3330.1020414221693 -0.029912895160123298 0.14710046968684765 -0.029912895160123298 -9999.5128666133714 -3330.3012848409617 -0.16467820162060842 -0.034056093570598023 -0.16467820162060842 -3330.2560024495824 0.031726708135465742 -0.034056093570598023 0.031726708135465742 -9999.5726495697054 -3330.4023973349676 -0.2317865324720394 -0.083097940612788079 -0.2317865324720394 -3330.3322221687695 0.018585984728360927 -0.083097940612788079 0.018585984728360927 -9999.6169826230034 -3330.412333008866 -0.1267680945820594 -0.045589998971081513 -0.1267680945820594 -3330.1249504167645 0.18500871655032824 -0.045589998971081513 0.18500871655032824 -9999.3530932376816 -3330.5017120394905 -0.0012408462194982706 -0.17248716219182825 -0.0012408462194982706 -3330.0907777524681 0.16201416955118475 -0.17248716219182825 0.16201416955118475 -9999.3668948292616 -3329.8080687225197 0.36601625963841622 1.0008358193117601 0.36601625963841622 -3330.4079766910208 0.19065423870597442 1.0008358193117601 0.19065423870597442 -9998.9906447982175 -3329.904476680611 0.22851121323301649 1.0826238637669121 0.22851121323301649 -3329.7615485459796 0.10886619417806287 1.0826238637669121 0.10886619417806287 -9998.8531397514798 -3329.0926656130018 -0.077266691934461895 0.65235456509799405 -0.077266691934461895 -3329.6642936433054 0.030898749047992169 0.65235456509799405 0.030898749047992169 -9998.6258732589085 -3330.2806210811 0.059735939428329665 0.33858804235387652 0.059735939428329665 -3330.1795048603303 -0.24547788531981496 0.33858804235387652 -0.24547788531981496 -9999.3567506522159 -3330.421511723101 -0.1267680945820594 0.36591845046859817 -0.1267680945820594 -3330.1341291309996 -0.15354573323838849 0.36591845046859817 -0.15354573323838849 -9999.3806293803827 -3330.4904511916793 -0.2853544374971777 0.54387374105272102 -0.2853544374971777 -3329.683901347601 -0.075023609352228959 0.54387374105272102 -0.075023609352228959 -9999.6016286238937 -3330.8386955582073 -0.31569269507604303 0.58982241493595211 -0.31569269507604303 -3330.9655112494579 0.079535388007570873 0.58982241493595211 0.079535388007570873 -10000.009092190989 -3330.5108907537251 -0.0012408462194983816 0.23902128724694194 -0.0012408462194983816 -3330.0999564667027 -0.17654028023753199 0.23902128724694194 -0.17654028023753199 -9999.3944309719627 -3329.469969976436 0.0042718638589144264 0.58476740400146809 0.0042718638589144264 -3331.1346169431895 -0.5415663829571713 0.58476740400146809 -0.5415663829571713 -9999.4126040652009 -3330.6279691961677 0.069883355811493297 0.33093096316224546 0.069883355811493297 -3330.2552908738676 -0.36264552913326042 0.33093096316224546 -0.36264552913326042 -9999.4625341843675 -3329.0880450966151 -0.15910995129454386 0.75930910374063387 -0.15910995129454386 -3329.6172570505109 -0.89499083091754983 0.75930910374063387 -0.89499083091754983 -9998.9377828720753 -3330.6600547329244 0.069883355811493297 -0.048191366009632475 0.069883355811493297 -3330.2873764106243 0.07087661097284581 -0.048191366009632475 0.07087661097284581 -9999.5587907946392 -3330.1380231409057 0.12670060663732802 0.042807625299246865 0.12670060663732802 -3330.1502158077319 0.024801115802802087 0.042807625299246865 0.024801115802802087 -9999.5292019609224 -3330.3667903038622 0.059735939428329776 0.093075231776310829 0.059735939428329776 -3330.2656740830926 0.054369030324778578 0.093075231776310829 0.054369030324778578 -9999.6152583205039 -3330.1547041154899 0.082160578417595248 0.048975401191682977 0.082160578417595248 -3330.1728466609557 0.10407746829878306 0.048975401191682977 0.10407746829878306 -9999.5390299178762 -3330.2601922331623 0.1719195448181467 0.13098250451264448 0.1719195448181467 -3330.261775167658 0.20247910691614379 0.13098250451264448 0.20247910691614379 -9999.3190237891395 -3330.2814671243318 0.17191954481814672 0.41315038560230732 0.17191954481814672 -3330.2830500588275 -0.27028642072400544 0.41315038560230732 -0.27028642072400544 -9999.3828484626465 -3329.4613790818021 -0.37583756941197133 0.729689637457966 -0.37583756941197133 -3329.7102646160743 -0.74181668756682484 0.729689637457966 -0.74181668756682484 -9998.6420780260451 -3330.6865001645701 0.48711513928203698 0.19682446923070529 0.48711513928203698 -3331.0174837592708 0.067784952483634697 0.19682446923070529 0.067784952483634697 -10000.019862135652 -3330.782853568187 -1.0327929643595848 0.63047942797311407 -1.0327929643595848 -3330.9890598907255 -0.85326196680944122 0.63047942797311407 -0.85326196680944122 -9999.2921454663046 -3330.4496201821717 0.047844413603341407 0.34691294751610258 0.047844413603341407 -3330.5580466698407 0.017847206898295553 0.34691294751610258 0.017847206898295553 -9999.8457828676965 -3329.9177573736388 0.25923017923607172 0.21679824410932724 0.25923017923607172 -3330.0022407589513 0.42162417057534185 0.21679824410932724 0.42162417057534185 -9999.5738656878402 -3330.0203351834903 0.20703117581960481 0.17763740196278377 0.20703117581960481 -3330.2819433373779 -0.081722380994051491 0.17763740196278377 -0.081722380994051491 -9999.6694357849101 -3330.278827955055 0.048569586258723652 -0.20003907174032065 0.048569586258723652 -3330.5045926753346 -0.26608186801581724 -0.20003907174032065 -0.26608186801581724 -10000.063957675231 -3329.632310824411 0.1404951371385128 0.58724707012061117 0.1404951371385128 -3329.8127471388584 0.051175346360651019 0.58724707012061117 0.051175346360651019 -9999.4551306455105 -3329.9933896911471 0.093413309849325721 0.1135695624507207 0.093413309849325721 -3330.1414701885005 -0.29075847173658076 0.1135695624507207 -0.29075847173658076 -10000.321121045316 -3330.2404299958275 0.071692354381607037 -0.13898412197704602 0.071692354381607037 -3330.3740161184464 -0.16373001114334329 -0.13898412197704602 -0.16373001114334329 -10000.021714046203 -3330.3426778587245 -0.097154830498646483 0.13759094710621866 -0.097154830498646483 -3329.93182236753 -0.2504892825272691 0.13759094710621866 -0.2504892825272691 -10000.356031131967 -3330.225109443385 0.158348460995834 -0.043873102666111663 0.158348460995834 -3330.3741275904113 -0.1658745975310012 -0.043873102666111663 -0.1658745975310012 -10000.017911776084 -3328.8524452834604 0.61801958895401221 0.37878978899789217 0.61801958895401221 -3329.5818622310776 0.055875691817163897 0.37878978899789217 0.055875691817163897 -9999.2024430333277 -3330.8742910107403 -0.64383450926703845 0.17300757045632054 -0.64383450926703845 -3329.8664011683295 -0.85561465462433262 0.17300757045632054 -0.85561465462433262 -9999.2720114460662 -3329.3617441719366 -0.21598068296614922 0.73177929529492758 -0.21598068296614922 -3329.2972983072741 -0.76697920052004065 0.73177929529492758 -0.76697920052004065 -9998.5139277213802 -3330.3905852243415 0.061646559246528614 0.21045836694338504 0.061646559246528614 -3330.4017086047934 -0.096386962071619564 0.21045836694338504 -0.096386962071619564 -9999.7919396119778 -3329.7616900491148 -0.36700173809430181 0.40175446996545361 -0.36700173809430181 -3329.6899957198225 -0.64870373114808899 0.40175446996545361 -0.64870373114808899 -9998.9497598435337 -3330.2284515380397 0.061646559246528655 0.12698676149648236 0.061646559246528655 -3330.2395749184916 0.25059365162655922 0.12698676149648236 0.25059365162655922 -9999.3055385530679 -3330.012258125038 0.15834846099583377 0.237363716634718 0.15834846099583377 -3330.1612762720642 0.24121805715367373 0.237363716634718 0.24121805715367373 -9999.3793578210425 -3330.1643930331602 0.048569586258723429 0.014117168688244419 0.048569586258723429 -3330.3901577534398 -0.050331604312077616 0.014117168688244419 -0.050331604312077616 -9999.7206529095492 -3330.0760458782806 0.071692354381607037 0.070999875400957535 0.071692354381607037 -3330.2096320008995 0.082052994193873019 0.070999875400957535 0.082052994193873019 -9999.528561693558 -3330.0257115701652 0.066124355860304407 -0.17338954691877007 0.066124355860304407 -3330.269521786413 -0.10004661200719056 -0.17338954691877007 -0.10004661200719056 -9999.5938677971499 -3329.8649819346019 0.016828491490686881 -0.20198169628201867 0.016828491490686881 -3330.2644770828765 -0.070871776353669702 -0.20198169628201867 -0.070871776353669702 -9999.4674493965613 -3330.2181466817383 0.046291443646751196 -0.14970706183657967 0.046291443646751196 -3330.3288730723998 -0.28301219411696366 -0.14970706183657967 -0.28301219411696366 -9999.6428924109568 -3330.1638431932033 0.070620800726147459 -0.10783046784945327 0.070620800726147459 -3330.1662273168959 -0.18942944487753266 -0.10783046784945327 -0.18942944487753266 -9999.5886550999494 -3330.3137194525862 0.095792421163843344 -0.23396590154516161 0.095792421163843344 -3330.369806490361 -0.095818128310838802 -0.23396590154516161 -0.095818128310838802 -9999.690940943743 -3330.9726967005049 -0.11976571520884827 -0.98963344626736216 -0.11976571520884827 -3330.571027226245 -0.010036279845735407 -0.98963344626736216 -0.010036279845735407 -9999.9976839428818 -3330.3675401538021 -0.11426156127691406 -0.42733398705695436 -0.11426156127691406 -3330.0576692869518 0.069704979121524957 -0.42733398705695436 0.069704979121524957 -9998.9248125971553 -3330.0330997641709 0.095792421163843566 -0.39691942631543498 0.095792421163843566 -3330.0891868019457 0.12591604109752552 -0.39691942631543498 0.12591604109752552 -9998.8490818784958 -3330.3991780091442 0.27006805345039891 -0.696750832892576 0.27006805345039891 -3330.380456282443 -0.067444843521627718 -0.696750832892576 -0.067444843521627718 -9999.9594221695224 -3329.9466716685365 0.22188633772593452 -0.16304937523727858 0.22188633772593452 -3329.9849250612979 -0.3388927415062426 -0.16304937523727858 -0.3388927415062426 -9999.8680358729671 -3329.7637348511357 0.39982036793635345 -0.25724265832559468 0.39982036793635345 -3329.6908436866411 -0.4744491735154952 -0.25724265832559468 -0.4744491735154952 -9999.6281582310676 -3329.9430957875561 0.04629144364675114 -0.3033624132699515 0.04629144364675114 -3330.0538221782176 -0.028080113715986954 -0.3033624132699515 -0.028080113715986954 -9998.8177397284107 -3330.1629410801347 0.11948354466214781 -0.28913144839657434 0.11948354466214781 -3330.5832906311566 -0.62065173650444194 -0.28913144839657434 -0.62065173650444194 -10000.071694618331 -3330.215678503665 0.18244591718390221 -0.33878180150804837 0.18244591718390221 -3330.9109522750491 -0.65666688663259265 -0.33878180150804837 -0.65666688663259265 -10000.046171291304 -3330.4416618007385 0.07062080072614757 0.033173505234117329 0.07062080072614757 -3330.4440459244311 -0.018459061237081187 0.033173505234117329 -0.018459061237081187 -10000.422110922555 -3329.9660668796732 0.46821793182581462 0.088230134150308004 0.46821793182581462 -3329.5903996717452 0.55070492582217412 0.088230134150308004 0.55070492582217412 -9999.6536302344794 -3329.1581413949143 0.20157530748813254 0.4431499964912291 0.20157530748813254 -3330.0724163467376 -0.0067388119196039042 0.4431499964912291 -0.0067388119196039042 -9999.3656799244836 -3330.8567437744127 0.032130489249160385 0.53154052015997877 0.032130489249160385 -3330.3164631716022 -0.12301181578459364 0.53154052015997877 -0.12301181578459364 -10000.05781533313 -3330.2609716900497 0.1267006066373278 0.048721641938755056 0.1267006066373278 -3330.2731643568759 0.042889919216577255 0.048721641938755056 0.042889919216577255 -9999.8980476083561 -3330.4868096561463 0.082160578417595581 -0.12496809876734005 0.082160578417595581 -3330.504952201612 0.01206976207322441 -0.12496809876734005 0.01206976207322441 -10000.535346539844 -3330.3326502171253 0.066124355860304629 -0.33904289081692696 0.066124355860304629 -3330.5764604333731 -0.14194400267092533 -0.33904289081692696 -0.14194400267092533 -10000.514683738027 -3329.9071104834338 0.2079411112769014 -0.76441540850282763 0.2079411112769014 -3330.206985091449 -0.062721572262489644 -0.76441540850282763 -0.062721572262489644 -9999.7930374903463 -3328.9345175800759 -0.19756061976565253 -1.1525232991152734 -0.19756061976565253 -3329.8859717017572 0.0013341152766770392 -1.1525232991152734 0.0013341152766770392 -9999.3168752816528 -3330.6568110920334 0.17325543603009108 -0.20089095128787449 0.17325543603009108 -3330.3283964872635 -0.32850136251227013 -0.20089095128787449 -0.32850136251227013 -10000.533707970226 -3329.4436043727919 0.00485110535740918 -0.92886468380038423 0.00485110535740918 -3329.8101132836068 -0.30068959080290369 -0.92886468380038423 -0.30068959080290369 -9999.4251823752929 -3330.8876627941768 0.25923017923607217 0.15563981337447785 0.25923017923607217 -3330.9721461794893 0.99273704347524472 0.15563981337447785 0.99273704347524472 -10002.483581949453 -3330.8087569271993 0.20794111127690162 -0.78467132093828695 0.20794111127690162 -3331.1086315352145 0.31624049552135602 -0.78467132093828695 0.31624049552135602 -10002.49797682164 -3329.6592330445105 0.20703117581960456 0.13851521460946969 0.20703117581960456 -3329.9208411983982 0.027299826720991405 0.13851521460946969 0.027299826720991405 -9998.58612936797 -3329.3728611699894 0.11948354466214767 0.88571327312524772 0.11948354466214767 -3329.7932107210113 -0.33122514251408575 0.88571327312524772 -0.33122514251408575 -9997.7014548878942 -3330.7605368269847 0.22188633772593458 -0.094447209599366033 0.22188633772593458 -3330.798790219746 -0.93234929782920517 -0.094447209599366033 -0.93234929782920517 -10002.309631348309 -3329.6799140663124 0.25395426017877443 0.43677940802172088 0.25395426017877443 -3329.5674933628666 0.22301909459338276 0.43677940802172088 0.22301909459338276 -9997.7217887724382 -3329.6573473365515 0.27006805345039886 0.48964084094859572 0.27006805345039886 -3329.6386256098504 0.32071563237366263 0.48964084094859572 0.32071563237366263 -9997.7339301517422 -3333.0466848963988 0.98549274901940009 -0.85336773030849145 0.98549274901940009 -3331.2026325972929 0.83502152794244466 -0.85336773030849145 0.83502152794244466 -10000.147900786216 -3334.8940200301822 -0.16848370841324189 -1.2469489316776663 -0.16848370841324189 -3334.6042964433409 0.076772759721442707 -1.2469489316776663 0.076772759721442707 -10001.065689925625 -3334.9268114525412 -0.20352253724893132 0.47285274527220134 -0.20352253724893132 -3334.8277406785264 -1.7113200170872029 0.47285274527220134 -1.7113200170872029 -10001.38588340047 -3330.1476581612665 -0.012469242741301248 -1.4527910492588889 -0.012469242741301248 -3332.1644726130703 -3.3811498464548495 -1.4527910492588889 -3.3811498464548495 -9999.2691435008255 -3332.2734567545381 -1.6324576875720855 -0.47443620895410277 -1.6324576875720855 -3332.5461612648278 -1.1947940097597893 -0.47443620895410277 -1.1947940097597893 -9999.8960153120843 -3334.409625096911 -0.017029825662433051 -0.41091835137186394 -0.017029825662433051 -3332.8732693673132 -3.6863070216465177 -0.41091835137186394 -3.6863070216465177 -10000.767968983759 -3331.9157485917272 -1.1842847089003918 -0.0096594603655302258 -1.1842847089003918 -3332.0656055379577 -0.55349231660562559 -0.0096594603655302258 -0.55349231660562559 -9998.9721268102876 -3330.4928878602177 0.23072024677165223 0.38984561007519686 0.23072024677165223 -3332.477938034503 3.2577280026850781 0.38984561007519686 3.2577280026850781 -9999.4338172809239 -3330.0449476827266 1.043950386581127 3.5592061357156126 1.043950386581127 -3330.8055560642556 -1.1480861913396438 3.5592061357156126 -1.1480861913396438 -9998.9037367439887 -3333.3331978499505 -0.87580547615176996 -3.1458329955128348 -0.87580547615176996 -3330.9498598222185 0.99504522133200568 -3.1458329955128348 0.99504522133200568 -10000.156335830836 -3334.3975558978982 0.073111830010573808 -2.462867083381175 0.073111830010573808 -3335.6187897603149 0.07278297976182424 -2.462867083381175 0.07278297976182424 -10001.589657827344 -3332.1567769144804 1.2252222488944706 -0.4728959787344138 1.2252222488944706 -3335.3274110205994 -0.10477411276053772 -0.4728959787344138 -0.10477411276053772 -10003.889676689805 -3332.9824758106192 -0.6181038014050948 -3.7853062123008718 -0.6181038014050948 -3333.8915773549529 0.25396074741007324 -3.7853062123008718 0.25396074741007324 -10000.409624098636 -3334.2346689066203 1.9291047817737039 0.99073436018620731 1.9291047817737039 -3334.3046384773365 0.15764250071474617 0.99073436018620731 0.15764250071474617 -10004.153456552027 -3334.6794503347824 0.64052410890081057 1.6721121747754322 0.64052410890081057 -3333.7701596983975 2.5640459435071681 1.6721121747754322 2.5640459435071681 -9999.5127366073993 -3331.02436246975 -1.7792883667647916 2.0667712979202228 -1.7792883667647916 -3332.407924491024 2.5551470736465172 2.0667712979202228 2.5551470736465172 -9998.2584058392968 -3336.7628390562681 0.48959718761412424 0.9349984187756446 0.48959718761412424 -3337.0400827110157 0.064207371865241447 0.9349984187756446 0.064207371865241447 -10005.469360147858 -3330.2782252236352 0.1404951371385128 -0.11675445095443138 0.1404951371385128 -3330.4586615380827 1.2266178478430447 -0.11675445095443138 1.2266178478430447 -10001.392873843182 -3330.6104155496973 -0.36700173809430137 -0.036555356949975248 -0.36700173809430137 -3330.538721220405 1.2248094991737162 -0.036555356949975248 1.2248094991737162 -10001.495936345278 -3330.3618881220868 0.093413309849325721 -0.3696719237286743 0.093413309849325721 -3330.5099686194403 0.80262973426874851 -0.3696719237286743 0.80262973426874851 -10001.426616338134 -3334.8829674953909 -0.32433048312393581 -1.5265873553727651 -0.32433048312393581 -3334.628311051561 -0.38381485666766046 -1.5265873553727651 -0.38381485666766046 -9999.7781537358424 -3333.019417094461 -0.16603779270249658 0.1880660058024726 -0.16603779270249658 -3332.2039453313955 4.0480921052800962 0.1880660058024726 4.0480921052800962 -9998.7061747055686 -3333.3874902926796 0.26717569340377306 -0.091045438721997218 0.26717569340377306 -3333.6009403493154 0.46058541730477609 -0.091045438721997218 0.46058541730477609 -9999.1474417596019 -3325.3941468569064 2.4771181268250353 0.11707477619802376 2.4771181268250353 -3326.3576250960705 0.71206854471529368 0.11707477619802376 0.71206854471529368 -9996.0382719066365 -3329.8671063880265 -1.1756152278758665 -0.2721718676339151 -1.1756152278758665 -3332.684597570938 -0.80118654436432735 -0.2721718676339151 -0.80118654436432735 -9998.0382600888443 -3330.8243578056699 -0.61427259658406408 -0.73903563619167012 -0.61427259658406408 -3333.6382883580577 -0.24962143121392844 -0.73903563619167012 -0.24962143121392844 -9999.2159904593227 -3329.664243176629 -0.37583756941197144 -0.96742374817296195 -0.37583756941197144 -3329.9131287109012 -0.42461537108829361 -0.96742374817296195 -0.42461537108829361 -9999.2506703105264 -3328.7822109709473 -0.21598068296614933 -0.36800568854732774 -0.21598068296614933 -3328.7177651062848 0.35279173762990013 -0.36800568854732774 0.35279173762990013 -9996.7753281184123 -3329.9862086000485 -0.23231259876934862 -0.81561688447026137 -0.23231259876934862 -3330.8174951590722 0.67252793608255379 -0.81561688447026137 0.67252793608255379 -9998.3012548581719 -3327.9883578532731 0.58048934080055925 -0.15128367161196365 0.58048934080055925 -3329.1673236434308 1.1838523071505733 -0.15128367161196365 1.1838523071505733 -9996.9597764096561 -3329.712862458839 -0.65376369603410023 2.2512589611396945 -0.65376369603410023 -3332.1112264725089 3.3570503522509938 2.2512589611396945 3.3570503522509938 -9998.1268782683164 -3328.7551068176172 -1.3556653264713923 2.0796657372717293 -1.3556653264713923 -3328.8463651749544 0.6509743263149208 2.0796657372717293 0.6509743263149208 -9997.0712240336234 -3334.898501990097 -0.72728964190328238 0.7216803527961857 -0.72728964190328238 -3332.3702204349179 1.1285451196301004 0.7216803527961857 1.1285451196301004 -10003.549994243383 -3326.9257643400451 -1.0301441832184772 1.2754082831561391 -1.0301441832184772 -3328.8394727337618 0.58227155390056851 1.2754082831561391 0.58227155390056851 -9999.1447273944377 -3332.0817181794209 -1.7537641228969321 1.2795486606367747 -1.7537641228969321 -3330.7395556420583 0.58285072653527581 1.2795486606367747 0.58285072653527581 -10000.908736581356 -3333.4736179744405 -1.3682911808043201 0.43759251215669792 -1.3682911808043201 -3331.9195789217324 1.5135078684843393 0.43759251215669792 1.5135078684843393 -10003.081112861173 -3330.6680616031927 -0.87833759197470962 -0.13015253237305424 -0.87833759197470962 -3328.3239308728375 -1.1402513792266915 -0.13015253237305424 -1.1402513792266915 -9999.9514162449941 -3330.377021986124 -0.0050952870083285084 -0.43261992396674032 -0.0050952870083285084 -3329.533697799789 0.88792953151278198 -0.43261992396674032 0.88792953151278198 -10001.186332099231 -3330.2668062825951 -0.21168432294095019 -0.054563638204854215 -0.21168432294095019 -3329.57645746038 0.94081356348851841 -0.054563638204854215 0.94081356348851841 -10001.169468088498 -3329.418080782013 -0.21168432294095041 0.38374618871148414 -0.21168432294095041 -3328.7277319597979 -0.93269966683237726 0.38374618871148414 -0.93269966683237726 -9998.6232915867531 -3329.5409985859596 0.068159715775683694 -0.79759685824910775 0.068159715775683694 -3328.8941361352122 -1.2577124399604145 -0.79759685824910775 -1.2577124399604145 -9999.2346760379896 -3329.4311005594291 -0.06347014767184822 -0.19037002710865636 -0.06347014767184822 -3330.305882040986 -0.18964372338723479 -0.19037002710865636 -0.18964372338723479 -9999.9381931584285 -3331.354935007867 0.0082274915219235911 -0.33509770115961146 0.0082274915219235911 -3329.4043922069955 -0.76597320372025024 -0.33509770115961146 -0.76597320372025024 -9999.8157241614117 -3330.3303429930515 0.0063398396540861324 -0.047296915803599404 0.0063398396540861324 -3330.6152017365853 -0.21986914602166507 -0.047296915803599404 -0.21986914602166507 -10000.104488700044 -3330.0239134674798 -0.053553320236350399 -0.21665918899452663 -0.053553320236350399 -3330.5409116637334 -0.24356022115716769 -0.21665918899452663 -0.24356022115716769 -10000.009308800438 -3329.7439180681004 -0.0050952870083287305 -0.40307553573165933 -0.0050952870083287305 -3328.9005938817654 -0.77548221630058833 -0.40307553573165933 -0.77548221630058833 -9999.2870203451621 -3329.6558792182991 0.075775365818765872 -0.26430213781532075 0.075775365818765872 -3330.7321276168409 -0.089459539152812795 -0.26430213781532075 -0.089459539152812795 -10000.100949217111 -3330.2088936346508 -0.17983847012994375 0.054167675962617068 -0.17983847012994375 -3330.4466915381272 -0.018749566574115306 0.054167675962617068 -0.018749566574115306 -9999.6648062385466 -3329.8770364385682 -0.053553320236350399 0.15382490880620026 -0.053553320236350399 -3330.3940346348218 0.10306318964649108 0.15382490880620026 0.10306318964649108 -9999.568677713698 -3330.1174916747059 0.0063398396540863544 0.23393990349723026 0.0063398396540863544 -3330.4023504182396 0.18722350866664783 0.23393990349723026 0.18722350866664783 -9999.4659347450033 -3330.7986067738639 0.8513244764611565 -0.81759361280637677 0.8513244764611565 -3330.1290468081274 -1.0046099573046376 -0.81759361280637677 -1.0046099573046376 -9999.4594888914853 -3330.2994373739111 -0.20125741437773975 -0.067247920032968977 -0.20125741437773975 -3330.2746325172529 -0.082858660392957972 -0.067247920032968977 -0.082858660392957972 -9999.4556555967392 -3330.4421193964436 -0.11426156127691406 -0.094842449057068734 -0.11426156127691406 -3330.1322485295932 -0.19954171990957548 -0.094842449057068734 -0.19954171990957548 -9999.1485503250806 -3330.1491724192301 -0.24637856782484446 0.018892328727815766 -0.24637856782484446 -3330.2462198425574 -0.069694827156581596 0.018892328727815766 -0.069694827156581596 -9999.4109861893958 -3330.0925270810544 0.016828491490686881 -0.50528994133674132 0.016828491490686881 -3330.492022229329 -0.22744175336629269 -0.50528994133674132 -0.22744175336629269 -10000.150084835921 -3330.3921064062529 -0.66221379879980868 -0.84917401070060805 -0.66221379879980868 -3330.5753090782832 -0.11888175971398596 -0.84917401070060805 -0.11888175971398596 -9999.8536068323283 -3328.9325015596628 0.21555264154894394 -1.4885192626488788 0.21555264154894394 -3329.0313985964567 -0.59368519402892161 -1.4885192626488788 -0.59368519402892161 -9998.7185505350171 -3330.4101086598403 -0.17983847012994331 -0.44065528252895092 -0.17983847012994331 -3330.6479065633166 -0.30501903255208163 -0.44065528252895092 -0.30501903255208163 -10000.268451314114 -3330.425896172982 -0.24637856782484469 -0.51841765547032992 -0.24637856782484469 -3330.5229435963092 -0.25739157234102095 -0.51841765547032992 -0.25739157234102095 -10000.241157450648 -3329.958511038386 0.25395426017877454 -1.5154473284051164 0.25395426017877454 -3329.8460903349401 -0.015746304981348658 -1.5154473284051164 -0.015746304981348658 -9998.5575796886587 -3330.4192833088105 -0.20125741437773997 -0.59532821552693349 -0.20125741437773997 -3330.3944784521523 -0.080089397682968411 -0.59532821552693349 -0.080089397682968411 -9999.815193401435 -3329.8740822592517 0.025117990783551564 -1.5098587043339649 0.025117990783551564 -3329.4037735787724 -0.59694625788324629 -1.5098587043339649 -0.59694625788324629 -9999.0470394554941 -3329.7791722325123 0.29648747915087947 -1.1672174085615552 0.29648747915087947 -3330.4640537964178 -0.42916226624674891 -1.1672174085615552 -0.42916226624674891 -9998.6672358525593 -3330.9153707858327 -0.10022382187214571 -0.85849127179153584 -0.10022382187214571 -3329.990889627506 0.2323358181729418 -0.85849127179153584 0.2323358181729418 -9999.8383180645287 -3329.8172806259727 0.025117990783551564 -0.13377068540285109 0.025117990783551564 -3329.3469719454934 0.54704449476867012 -0.13377068540285109 0.54704449476867012 -9998.8766345556596 -3330.3837670977337 0.06815971577568436 -0.2528620119178413 0.06815971577568436 -3329.7369046469862 0.6695533834717935 -0.2528620119178413 0.6695533834717935 -10001.762981573311 -3330.2920286431663 0.0048511053574094021 -0.68667726600233436 0.0048511053574094021 -3330.6585375539812 0.95950803721189004 -0.68667726600233436 0.95950803721189004 -10001.970455186418 -3329.9345968161192 0.21555264154894394 -0.69505833797757077 0.21555264154894394 -3330.0334938529131 0.94038729875114768 -0.69505833797757077 0.94038729875114768 -10001.724836304387 -3332.5345223382533 0.8679792325675928 -2.4072755187812618 0.8679792325675928 -3329.8496957673947 0.1996106421947843 -2.4072755187812618 0.1996106421947843 -9999.6816259392053 -3333.0463562632067 0.50107862340289211 -2.1727137810641164 0.50107862340289211 -3330.2992529860944 0.26095682641616008 -2.1727137810641164 0.26095682641616008 -9999.8801938802753 -3327.3805778910851 -1.7354444930185653 1.1457598550450712 -1.7354444930185653 -3326.3950062546428 -1.7715232161522181 1.1457598550450712 -1.7715232161522181 -9997.4876876043818 -3329.3664807790879 -0.51958548037645502 0.21894766341847571 -0.51958548037645502 -3327.5846856012622 -0.48256585202489077 0.21894766341847571 -0.48256585202489077 -9997.0346981658367 -3332.4525794310412 1.3823657109101057 -0.66679214673775888 1.3823657109101057 -3332.102604278884 1.1798435946033639 -0.66679214673775888 1.1798435946033639 -10000.224367340274 -3332.4310272494813 1.0494669793334868 -0.42311597556702729 1.0494669793334868 -3330.7338193676133 0.27968730710709888 -0.42311597556702729 0.27968730710709888 -9998.5881182250232 -3331.1356917990947 0.20381855660555309 -0.51938561010594375 0.20381855660555309 -3329.8244276272244 0.5136161423628538 -0.51938561010594375 0.5136161423628538 -9999.2838214245294 -3328.8074512755588 0.66368590690873575 2.062070038751699 0.66368590690873575 -3328.1717750449679 0.56434309608903277 2.062070038751699 0.56434309608903277 -9999.6048500116667 -3328.6132371059921 1.1486258038561499 2.6460133059255169 1.1486258038561499 -3329.4647794991552 0.24379295706242976 2.6460133059255169 0.24379295706242976 -9997.3164107220364 -3329.4276427162313 -0.010575305864157003 -0.66911657516766354 -0.010575305864157003 -3330.9087422908929 0.50328220691244496 -0.66911657516766354 0.50328220691244496 -9998.9248483373303 -3329.1510487815535 -0.12132499741246056 -0.75732717323489851 -0.12132499741246056 -3329.5653298959746 -0.02461273833478117 -0.75732717323489851 -0.02461273833478117 -9998.2855240147092 -3330.4118561599144 -0.027816988870113968 0.098119140680864803 -0.027816988870113968 -3330.1248605710334 -0.20179846122391609 0.098119140680864803 -0.20179846122391609 -9999.1391375263083 -3326.7867576424437 -1.1872804734951981 -1.2865158321492345 -1.1872804734951981 -3328.5117262238909 -0.4962431661743949 -1.2865158321492345 -0.4962431661743949 -9999.1414913863755 -3330.4751167932545 -0.20747823551302091 0.093524651609186549 -0.20747823551302091 -3329.5543065886377 -0.97544514796663861 0.093524651609186549 -0.97544514796663861 -10001.338889445673 -3330.6603061067758 -0.41270307845276499 0.10095915355941543 -0.41270307845276499 -3330.1657677911039 -1.2010535966537645 0.10095915355941543 -1.2010535966537645 -10001.538052074669 -3328.8976912972885 -1.4864019518298608 -1.479993551930963 -1.4864019518298608 -3328.8938181007675 -0.51752331442166755 -1.479993551930963 -0.51752331442166755 -9998.307990944124 -3331.7585514888401 -1.7058533245901999 -0.97742550268073414 -1.7058533245901999 -3332.9403187771768 -2.1551914364681082 -0.97742550268073414 -2.1551914364681082 -10000.121962934209 -3330.2140188170465 -0.79848622705767403 -1.4039122622226292 -0.79848622705767403 -3332.6723288474873 -2.8262969027274063 -1.4039122622226292 -2.8262969027274063 -9999.5817005107438 -3328.2537088117847 0.39477557801588992 -0.29053325315953771 0.39477557801588992 -3329.40270692175 -1.4360079460411725 -0.29053325315953771 -1.4360079460411725 -9998.2742175279946 -3329.3344038124114 -0.40631046820040662 -0.17737220605023385 -0.40631046820040662 -3330.4372885841899 -1.5443964507324384 -0.17737220605023385 -1.5443964507324384 -9997.5637056771357 -3330.2120218342257 -0.057116634637246269 -0.017628557279152135 -0.057116634637246269 -3332.9193014048019 -1.9858812420181606 -0.017628557279152135 -1.9858812420181606 -9998.4036133877416 -3330.282917550227 -0.40490631805626698 0.47062884389515602 -0.40490631805626698 -3333.2665695782634 -1.7112468363569633 0.47062884389515602 -1.7112468363569633 -9999.8346171498251 -3329.4252713874039 1.0291128930649791 1.6112269092583427 1.0291128930649791 -3330.7933276364188 1.3354325086821475 1.6112269092583427 1.3354325086821475 -10000.414693187491 -3327.4729562793591 1.5119206397519416 0.68985251351068655 1.5119206397519416 -3327.5146340159909 -0.71433459799300181 0.68985251351068655 -0.71433459799300181 -9996.3676801518232 -3328.8724518094796 -0.12132499741246067 1.1948995631923935 -0.12132499741246067 -3329.2867329239007 0.2141526612394955 1.1948995631923935 0.2141526612394955 -9997.4497330984868 -3328.8087520020749 -0.15810934581573338 1.0404275609116667 -0.15810934581573338 -3329.1797764701628 0.47835037815889336 1.0404275609116667 0.47835037815889336 -9997.4070690332028 -3329.4960196070647 -0.33709356693875431 0.13062019848894124 -0.33709356693875431 -3329.2253316531314 -0.7715622416487804 0.13062019848894124 -0.7715622416487804 -9998.6275831827534 -3329.2115112640377 -0.39330708129430308 0.59530164064858582 -0.39330708129430308 -3329.6945688602691 -0.32166872263132973 0.59530164064858582 -0.32166872263132973 -9997.6364569462203 -3330.4657411825265 0.021301458532205886 -0.22081591410278634 0.021301458532205886 -3330.4838130069811 -0.02563637643970651 -0.22081591410278634 -0.02563637643970651 -10000.122525237884 -3329.3744713060332 -0.33709356693875453 -0.99059497835787624 -0.33709356693875453 -3329.1037833521 0.48522257457671003 -0.99059497835787624 0.48522257457671003 -9998.2629382796567 -3330.9508836195878 0.42080116947694679 -0.0021023287972639082 0.42080116947694679 -3330.871629800281 -0.63009684985021863 -0.0021023287972639082 -0.63009684985021863 -10000.340765045476 -3330.1894913759265 0.15194842657166441 -0.38983710582078857 0.15194842657166441 -3330.1449916028128 -0.025234537371943588 -0.38983710582078857 -0.025234537371943588 -9998.9021309816544 -3329.5048863440288 -0.39330708129430297 -0.84414578631913173 -0.39330708129430297 -3329.9879439402603 0.080479778987864847 -0.84414578631913173 0.080479778987864847 -9998.5165821861956 -3330.3372769172724 -0.027816988870114079 -0.23437239731629234 -0.027816988870114079 -3330.0502813283915 0.067448237806274847 -0.23437239731629234 0.067448237806274847 -9998.9153997983813 -3330.2642187244801 -0.84166885799735125 -0.46096901508553856 -0.84166885799735125 -3330.650157388488 0.7691584696949576 -0.46096901508553856 0.7691584696949576 -9998.8719686433651 -3329.1810780702358 -0.1581093458157333 -0.76690037648222642 -0.1581093458157333 -3329.5521025383237 0.67052453353130659 -0.76690037648222642 0.67052453353130659 -9998.5240472376881 -3330.4136726823212 0.015944203017567826 -0.28760856094777409 0.015944203017567826 -3330.113670389464 0.15849951364771186 -0.28760856094777409 0.15849951364771186 -9998.9503460049145 -3330.51261648543 0.015944203017567826 0.011770039553084644 0.015944203017567826 -3330.2126141925728 -0.20589958286245746 0.011770039553084644 -0.20589958286245746 -9999.2471774142396 -3330.1428434357904 0.021301458532205497 -0.20888215520062658 0.021301458532205497 -3330.160915260245 -0.37484400660650863 -0.20888215520062658 -0.37484400660650863 -9999.1538319976789 -3330.2932442106066 0.15194842657166424 -0.18919869712863147 0.15194842657166424 -3330.2487444374929 -0.42924333606424625 -0.18919869712863147 -0.42924333606424625 -9999.2133894856961 -3330.026612485095 0.13445202915208898 -0.25466764490920468 0.13445202915208898 -3330.1045984279208 -0.2870351011169987 -0.25466764490920468 -0.2870351011169987 -9999.4143564272963 -3330.0943828106792 -0.016396424805013465 -0.25724953918143001 -0.016396424805013465 -3330.3483974581623 -0.20868457206597668 -0.25724953918143001 -0.20868457206597668 -9999.4922487662552 -3329.8484406302573 -0.41270307845276477 -0.33183313093468314 -0.41270307845276477 -3329.3539023145854 0.74195170242364838 -0.33183313093468314 0.74195170242364838 -9999.1024556451139 -3330.2596972216284 0.13445202915208865 0.027173732032679254 0.13445202915208865 -3330.3376831644541 0.13870206787396455 0.027173732032679254 0.13870206787396455 -10000.11361063689 -3330.7596333598926 -0.81007835990910304 -0.31624203909723292 -0.81007835990910304 -3329.7831565453416 0.76142047507710231 -0.31624203909723292 0.76142047507710231 -9999.4375673852119 -3329.3269175007886 0.5654209014537549 -0.20070543324800383 0.5654209014537549 -3329.6181529891087 -0.00052419162238948047 -0.20070543324800383 -0.00052419162238948047 -9999.6214043129821 -3330.3274675472112 -0.016396424805013243 0.024591837762272917 -0.016396424805013243 -3330.5814821946942 0.21705259692498657 0.024591837762272917 0.21705259692498657 -10000.191502975849 -3329.6632513167369 -0.20747823551302136 -0.33926763288582151 -0.20747823551302136 -3328.7424411121201 0.9675601511125933 -0.33926763288582151 0.9675601511125933 -9998.9032930161175 -3331.4820859756801 0.011988698232208161 0.28273151454231993 0.011988698232208161 -3329.3182078749032 0.78216046024340358 0.28273151454231993 0.78216046024340358 -9999.8865935016311 -3329.8014920693977 -0.086042815983270904 -0.2516282912256429 -0.086042815983270904 -3330.3333632742597 -0.13019728353765458 -0.2516282912256429 -0.13019728353765458 -9999.5812517962586 -3330.2663048646518 -0.0035257504258681127 -0.0016913130493776407 -0.0035257504258681127 -3330.1499701242738 -0.0017834672794379003 -0.0016913130493776407 -0.0017834672794379003 -9999.5671565379052 -3330.154161946868 0.023182328031292609 -0.044713584820783581 0.023182328031292609 -3330.1288193038399 -0.057654827549413312 -0.044713584820783581 -0.057654827549413312 -9999.5006763525198 -3330.1943055859465 -0.023327199835793566 -0.049947909590628115 -0.023327199835793566 -3330.1197393229286 -0.021590406900941161 -0.049947909590628115 -0.021590406900941161 -9999.4752431347479 -3330.2391087912638 -0.046561912899091951 -0.035908635325540672 -0.046561912899091951 -3330.1664719128912 -0.0040594063957541948 -0.035908635325540672 -0.0040594063957541948 -9999.4981270835669 -3330.1929783722644 -0.013091145526202164 -0.050686347223745543 -0.013091145526202164 -3330.1130388154252 0.00081832603791553993 -0.050686347223745543 0.00081832603791553993 -9999.4732362044524 -3330.2691414143956 -0.01309114552620172 -0.099372413105811574 -0.01309114552620172 -3330.1892018575563 -0.074142968698652112 -0.099372413105811574 -0.074142968698652112 -9999.7017253308441 -3330.2704686280786 -0.023327199835793788 -0.098633975472694146 -0.023327199835793788 -3330.1959023650606 -0.096551701626594877 -0.098633975472694146 -0.096551701626594877 -9999.7037322611395 -3330.0141007743414 0.12210822273925465 -0.22184630676019879 0.12210822273925465 -3330.2221277631643 -0.24605072508711601 -0.22184630676019879 -0.24605072508711601 -9999.4406108334188 -3330.3208611315558 -0.05617066075367394 -0.12156700177365565 -0.05617066075367394 -3330.1798790839048 -0.15420810416981112 -0.12156700177365565 -0.15420810416981112 -9999.6313225262893 -3330.2949798320979 -0.023157022725672605 -0.037040384497231571 -0.023157022725672605 -3330.3483137993753 -0.28671965605940386 -0.037040384497231571 -0.28671965605940386 -9999.6669608802913 -3330.2530407463091 -0.035183275789189838 -0.09637139644837589 -0.035183275789189838 -3330.207486828278 -0.12274606693608803 -0.09637139644837589 -0.12274606693608803 -9999.6212693660709 -3330.1619919997893 -0.024220452136928139 -0.086379489577666391 -0.024220452136928139 -3330.1640125117747 -0.11691932092981006 -0.086379489577666391 -0.11691932092981006 -9999.2930113425755 -3330.2291356097494 0.18627216347722522 -0.083196730030977051 0.18627216347722522 -3329.9723679973631 -0.23872736173143494 -0.083196730030977051 -0.23872736173143494 -9999.1282682254496 -3330.1722497683104 -0.030565109996072093 -0.050184182846351177 -0.030565109996072093 -3330.1549874177426 -0.051865960913346498 -0.050184182846351177 -0.051865960913346498 -9999.2933195111982 -3330.1586689525475 -0.038157883640574042 -0.030657746972792665 -0.038157883640574042 -3330.1778649635462 -0.085262561606214149 -0.030657746972792665 -0.085262561606214149 -9999.2956436937093 -3330.2429091241556 -0.053363020261396298 -0.041752258497581352 -0.053363020261396298 -3330.2103123366287 0.011063970610848628 -0.041752258497581352 0.011063970610848628 -9999.4056465850081 -3330.2041372231779 -0.030565109996072093 -0.056755686508040526 -0.030565109996072093 -3330.1868748726101 0.0077197099126351532 -0.056755686508040526 0.0077197099126351532 -9999.3889818757998 -3330.1943244018385 -0.024220452136928222 -0.078296694478922291 -0.024220452136928222 -3330.1963449138239 -0.054616874927887693 -0.078296694478922291 -0.054616874927887693 -9999.3900085487294 -3330.2508184123471 0.018569873782102009 -0.014300715676654363 0.018569873782102009 -3330.2556216966877 -0.09352933155065557 -0.014300715676654363 -0.09352933155065557 -9999.556541067097 -3330.167522245265 -0.035183275789189894 -0.082650914511759765 -0.035183275789189894 -3330.1219683272338 -0.042583082434248354 -0.082650914511759765 -0.042583082434248354 -9999.3647138629385 -3330.1825704335915 -0.00055125341799647232 -0.045046186690342438 -0.00055125341799647232 -3330.1761811109136 -0.03238006904211943 -0.045046186690342438 -0.03238006904211943 -9999.4176881185886 -3330.2074522222883 -0.00055125341799652783 -0.033779785962906317 -0.00055125341799652783 -3330.2010628996104 -0.031176987489743624 -0.033779785962906317 -0.031176987489743624 -9999.4923334846753 -3330.1958705537854 -0.0078826962739542705 -0.033165426822961308 -0.0078826962739542705 -3330.1812901159792 -0.032874896725843428 -0.033165426822961308 -0.032874896725843428 -9999.4844948716418 -3330.2117610880359 -0.0078826962739539375 -0.032706418798625236 -0.0078826962739539375 -3330.1971806502297 -0.042661343589315948 -0.032706418798625236 -0.042661343589315948 -9999.5321664744079 -3330.2252204228826 -0.0097313785298124289 -0.021388943012425443 -0.0097313785298124289 -3330.2041669164792 -0.011191892032002215 -0.021388943012425443 -0.011191892032002215 -9999.5039664441792 -3330.1977726721343 -0.0097313785298123179 -0.03361920102906879 -0.0097313785298123179 -3330.1767191657309 -0.011842494441225426 -0.03361920102906879 -0.011842494441225426 -9999.4216231919308 -3330.1931020339143 -0.012349365191169803 -0.025681155722850235 -0.012349365191169803 -3330.1833570699146 -0.025419151807000162 -0.025681155722850235 -0.025419151807000162 -9999.4221150084195 -3330.2518643503699 -0.015652169407553207 0.011547123569471296 -0.015652169407553207 -3330.2479409563366 0.013838712235155981 0.011547123569471296 0.013838712235155981 -9999.5926611503237 -3330.2211647117438 -0.0088056060336251952 -0.024366190757064032 -0.0088056060336251952 -3330.2031820571774 -0.014258053695812123 -0.024366190757064032 -0.014258053695812123 -9999.4962913964264 -3330.257487527555 -0.012509164727043887 0.019827641161100473 -0.012509164727043887 -3330.2383209935851 -0.00032368489064538153 0.019827641161100473 -0.00032368489064538153 -9999.5916619539275 -3330.2269710008477 -0.010011963437058347 -0.0091430388274602592 -0.010011963437058347 -3330.2072710429311 -0.020972752316083643 -0.0091430388274602592 -0.020972752316083643 -9999.5532352212103 -3330.2451091918283 -0.0050783522284133242 -0.0030895065629010787 -0.0050783522284133242 -3330.2351318986493 -0.041512380226777168 -0.0030895065629010787 -0.041512380226777168 -9999.5877700962665 -3330.2372368312117 -0.0036064432476150543 -0.0061277815475477837 -0.0036064432476150543 -3330.225240546406 -0.02930604282130389 -0.0061277815475477837 -0.02930604282130389 -9999.5602940546742 -3330.2267380559515 -0.0055345734243961164 0.0067914385253970977 -0.0055345734243961164 -3330.2016010984571 -0.028703301861241926 0.0067914385253970977 -0.028703301861241926 -9999.5967543219085 -3330.2301326432462 -0.0024933570872793798 0.0058620204181352165 -0.0024933570872793798 -3330.2110100855025 -0.00049904838306247257 0.0058620204181352165 -0.00049904838306247257 -9999.5999552154899 -3330.2111116627511 -0.0011844086260375253 -0.018375830695731565 -0.0011844086260375253 -3330.1865477698757 -0.032501843914360506 -0.018375830695731565 -0.032501843914360506 -9999.5440895684224 -3330.2093017246607 -0.0086463920839005004 -0.023295855951801059 -0.0086463920839005004 -3330.1967443704343 -0.019514011473802384 -0.023295855951801059 -0.019514011473802384 -9999.5229915604286 -3330.2063170187048 -0.004575943769382862 -0.027413048541347962 -0.004575943769382862 -3330.1957316245807 -0.01206741870555561 -0.027413048541347962 -0.01206741870555561 -9999.5510679871295 -3330.1920375431491 0.00089109932725750518 -0.033948386353586102 0.00089109932725750518 -3330.1746847809773 -0.032815946637128945 -0.033948386353586102 -0.032815946637128945 -9999.5131606176874 -3330.2036678590102 0.00089109932725728314 -0.02663136029150337 0.00089109932725728314 -3330.1863150968384 -0.035788641060207738 -0.02663136029150337 -0.035788641060207738 -9999.5480515652744 -3330.1946867028419 -0.0045759437693835281 -0.034730074610706652 -0.0045759437693835281 -3330.1841013087178 -0.0090947242752008606 -0.034730074610706652 -0.0090947242752008606 -9999.5161770395425 -3330.2036777399953 -0.0046885398614355811 -0.020540611763863126 -0.0046885398614355811 -3330.194017331849 -0.0066407290596544044 -0.020540611763863126 -0.0066407290596544044 -9999.5465580303862 -3330.3978740444882 -0.051113281514538755 0.050270297711904277 -0.051113281514538755 -3329.8739690826533 -0.27174763400580559 0.050270297711904277 -0.27174763400580559 -9999.1338305265235 -3330.1800882129046 -0.03815788364057382 -0.041217087320546852 -0.03815788364057382 -3330.1992842239033 -0.037285261671058834 -0.041217087320546852 -0.037285261671058834 -9999.3599014747779 -3330.1953287170436 -0.035262140367643191 -0.043560508895097882 -0.035262140367643191 -3330.2433643834811 -0.014848365521174856 -0.043560508895097882 -0.014848365521174856 -9999.4009021269849 -3330.213974729164 -0.01234936519116947 -0.013629850713186897 -0.01234936519116947 -3330.2042297651642 -0.024698500357771991 -0.013629850713186897 -0.024698500357771991 -9999.4847330941775 -3330.220152627262 -0.012576844315303981 -0.017427550454158336 -0.012576844315303981 -3330.2104792075788 -0.01796717075194465 -0.017427550454158336 -0.01796717075194465 -9999.5042775680486 -3330.223651459004 -0.015097131243642703 -0.025607191001654428 -0.015097131243642703 -3330.2287632546286 0.003965731095377123 -0.025607191001654428 0.003965731095377123 -9999.5471057066679 -3330.2369280498533 -0.010108479084123489 -0.021802722791107954 -0.010108479084123489 -3330.2316046153028 -0.00055090516434574965 -0.021802722791107954 -0.00055090516434574965 -9999.5511351945461 -3330.2003432324836 -0.01529511167717823 -0.032268469973132596 -0.01529511167717823 -3330.2000505292581 -0.025361658776091645 -0.032268469973132596 -0.025361658776091645 -9999.4802804110295 -3330.1907391813402 -0.011785261241871847 -0.0066249187402718235 -0.011785261241871847 -3330.2055246412529 -0.024961689638075768 -0.0066249187402718235 -0.024961689638075768 -9999.5136948105428 -3330.2164981951701 -0.011109705471044062 -0.0016351747326552868 -0.011109705471044062 -3330.2332970753105 0.0064594154782753321 -0.0016351747326552868 0.0064594154782753321 -9999.5770151933975 -3330.2123137177532 -0.011951987441676915 -0.016862375687196618 -0.011951987441676915 -3330.2319246740572 0.015785685754963197 -0.016862375687196618 0.015785685754963197 -9999.5756259737318 -3330.1883418037069 -0.011995026684186949 -0.030621289786722627 -0.011995026684186949 -3330.216458026227 0.0031994834753277246 -0.030621289786722627 0.0031994834753277246 -9999.5352019857455 -3330.2017615052537 0.0002540766402920891 -0.0094209665148810018 0.0002540766402920891 -3330.2296838399052 -0.011303239341941662 -0.0094209665148810018 -0.011303239341941662 -9999.572427712068 -3330.1817293053555 -0.013660933547484877 -0.03295448162680259 -0.013660933547484877 -3330.2024537140533 -0.0088355072566628223 -0.03295448162680259 -0.0088355072566628223 -9999.5106746097445 -3330.2102553851764 -0.016805688456280665 -0.043380842208534887 -0.016805688456280665 -3330.2126571906574 -0.010428849207528401 -0.043380842208534887 -0.010428849207528401 -9999.5203569988516 -3330.2145370249273 -0.0097255565433902458 -0.033018061203620164 -0.0097255565433902458 -3330.2044989623082 -0.024471749655276653 -0.033018061203620164 -0.024471749655276653 -9999.4849409673989 -3330.2467825059921 0.0011334963330139058 -0.078287938526045764 0.0011334963330139058 -3330.2245496313171 0.0052578803552023601 -0.078287938526045764 0.0052578803552023601 -9999.5150601253445 -3330.2098066131548 -0.0077243542556648115 -0.10540421816403978 -0.0077243542556648115 -3330.2101359308963 -0.036534574705001432 -0.10540421816403978 -0.036534574705001432 -9999.3700440015891 -3330.1680532620394 -0.023611155107118087 -0.081814262714033248 -0.023611155107118087 -3330.2000175126832 -0.064540393719653366 -0.081814262714033248 -0.064540393719653366 -9999.3570760592556 -3330.221924018866 -0.025959093923961229 -0.13070250589680654 -0.025959093923961229 -3330.2111939419156 -0.029169585310228285 -0.13070250589680654 -0.029169585310228285 -9999.4843530765284 -3330.2032946796298 -0.016805688456280887 -0.065881624596840993 -0.016805688456280887 -3330.2056964851108 -0.0094708029246248771 -0.065881624596840993 -0.0094708029246248771 -9999.4994748822028 -3330.1669519580009 0.0023114158698758214 -0.051684999332792358 0.0023114158698758214 -3330.2044311535083 -0.014905417683621636 -0.051684999332792358 -0.014905417683621636 -9999.5218165179831 -3330.1874660594385 -0.013660933547484877 -0.049498762622533832 -0.013660933547484877 -3330.2081904681363 -0.0099176952826383058 -0.049498762622533832 -0.0099176952826383058 -9999.5278848719972 -3330.1167146944699 -0.0075202105858878099 -0.094197073623945471 -0.0075202105858878099 -3330.170752211523 -0.02359087582817665 -0.094197073623945471 -0.02359087582817665 -9999.4479403128316 -3330.136717463809 -0.016109807736170878 -0.082973233729717322 -0.016109807736170878 -3330.1846111711602 -0.01208271890936885 -0.082973233729717322 -0.01208271890936885 -9999.4775592497645 -3330.194815123401 -0.011083466589404511 -0.037715027221565833 -0.011083466589404511 -3330.2126507465455 -0.017134931171312928 -0.037715027221565833 -0.017134931171312928 -9999.5308372075961 -3330.1830855912958 -0.007520210585888254 -0.036572217188222567 -0.007520210585888254 -3330.2371231083489 0.0080268286083082785 -0.036572217188222567 0.0080268286083082785 -9999.6470530033039 -3330.2354449133782 -0.0092269741661388238 -0.020161654705589171 -0.0092269741661388238 -3330.2314362404559 -0.0020242202772351447 -0.020161654705589171 -0.0020242202772351447 -9999.6587211168517 -3329.7553195650353 0.077423763231520393 -0.18692422155436361 0.077423763231520393 -3330.0391906026125 -0.036519364513878827 -0.18692422155436361 -0.036519364513878827 -9999.3837121841061 -3330.16428936395 0.0087985557884786569 -0.039205062976179761 0.0087985557884786569 -3330.2476179701998 0.0020202037012495566 -0.039205062976179761 0.0020202037012495566 -9999.6449776619302 -3330.1826000378296 -0.24708492685675276 0.0028749464618158527 -0.24708492685675276 -3329.8658701216964 -0.3155510823980876 0.0028749464618158527 -0.3155510823980876 -9999.0170758834538 -3330.245528441209 -0.025959093923961229 -0.13074603176664823 -0.025959093923961229 -3330.2347983642585 -0.02793429153462057 -0.13074603176664823 -0.02793429153462057 -9999.5551663435617 -3330.3657642929165 0.044033141177579616 -0.19206768905041827 0.044033141177579616 -3330.4086974068423 0.044866322217785637 -0.19206768905041827 0.044866322217785637 -9999.6287000671364 -3329.8637301026383 -0.35870684082903903 0.2050549608811707 -0.35870684082903903 -3330.0501730701371 -0.18371466760618205 0.2050549608811707 -0.18371466760618205 -9999.2906139171428 -3330.196489656455 0.014231550829888473 -0.038796719563833904 0.014231550829888473 -3330.2075453597099 -0.057522172659446369 -0.038796719563833904 -0.057522172659446369 -9999.4770823403742 -3330.1992199828692 0.0090850978019223483 0.006883147261760314 0.0090850978019223483 -3330.1977511327186 0.03853619842993794 0.006883147261760314 0.03853619842993794 -9999.6423441483676 -3330.1796402128202 0.047187302732790037 0.016333037205185974 0.047187302732790037 -3330.2401912328314 0.0086861231275179307 0.016333037205185974 0.0086861231275179307 -9999.6469586898056 -3330.1662937562105 0.030305289223102161 0.0031811250591999851 0.030305289223102161 -3330.1346388755101 0.026508062426728429 0.0031811250591999851 0.026508062426728429 -9999.6172339863224 -3329.8105992126311 -0.062665808459209105 0.22831168185803108 -0.062665808459209105 -3330.3764735405666 0.11348269869176875 0.22831168185803108 0.11348269869176875 -9999.5476781336511 -3330.2352667138366 -0.0054109771927570716 0.074925992175849387 -0.0054109771927570716 -3330.2145785052162 0.048054304921606672 0.074925992175849387 0.048054304921606672 -9999.6555626742338 -3330.1345435141775 0.0055634043772938568 -0.036246921485144412 0.0055634043772938568 -3330.1929994682214 -0.013052473800144071 -0.036246921485144412 -0.013052473800144071 -9999.5108564857073 -3330.1595681182189 0.0090850978019227924 -0.050359812947135651 0.0090850978019227924 -3330.1580992680683 -0.018570004700450227 -0.050359812947135651 -0.018570004700450227 -9999.5233885544185 -3330.1962332651583 -0.0092269741661390459 -0.07432394062379899 -0.0092269741661390459 -3330.192224592236 -0.047861771687166765 -0.07432394062379899 -0.047861771687166765 -9999.5410861721939 -3330.1693370706598 0.00081365502321251171 -0.026952322114084382 0.00081365502321251171 -3330.1997132564375 -0.012604847161128419 -0.026952322114084382 -0.012604847161128419 -9999.5253101290327 -3330.1438608690332 0.0097053130338633498 -0.035359218491066713 0.0097053130338633498 -3330.1954840221078 -0.014255385489377659 -0.035359218491066713 -0.014255385489377659 -9999.513806962892 -3330.24410174287 0.0041187349044831123 -0.015002379615907557 0.0041187349044831123 -3330.1866619009361 -0.013624064887608256 -0.015002379615907557 -0.013624064887608256 -9999.5516626187964 -3330.1948858216201 -0.00058869929701765855 0.0058279539480281528 -0.00058869929701765855 -3330.2083087567371 -0.0080194104521069676 0.0058279539480281528 -0.0080194104521069676 -9999.5338461918473 -3330.1728861489337 -0.0054109771927568495 0.029306738295417745 -0.0054109771927568495 -3330.1521979403133 -0.017304616454566712 0.029306738295417745 -0.017304616454566712 -9999.4684209795269 -3330.1891432662724 -0.00058869929701754753 0.016553517172724241 -0.00058869929701754753 -3330.2025662013893 -0.0046088192357274238 0.016553517172724241 -0.0046088192357274238 -9999.5166185258058 -3330.1721018290682 0.00081365502321251171 -0.015958435164066032 0.00081365502321251171 -3330.2024780148458 -0.0095311360564664938 -0.015958435164066032 -0.0095311360564664938 -9999.5336044042633 -3330.1992106046746 -0.011083466589404956 -0.020615944093151484 -0.011083466589404956 -3330.2170462278191 -0.015224089635012206 -0.020615944093151484 -0.015224089635012206 -9999.5440236514114 -3330.2075392648894 -0.0023487258444260251 -0.017679526565189008 -0.0023487258444260251 -3330.2311418181616 0.019069220677920384 -0.017679526565189008 0.019069220677920384 -9999.5953141830905 -3330.1906476273052 0.0057260092209916458 -0.014190416499332059 0.0057260092209916458 -3330.2243623927734 -0.011875689050611982 -0.014190416499332059 -0.011875689050611982 -9999.5683188807961 -3330.1965607446145 -0.0010191790075675389 0.0045877470729465131 -0.0010191790075675389 -3330.210890950575 -0.0066570535423124966 0.0045877470729465131 -0.0066570535423124966 -9999.5418223670858 -3330.1828676934911 0.0013435481218743162 -0.026189852884272113 0.0013435481218743162 -3330.2136805342361 0.0043845493419212289 -0.026189852884272113 0.0043845493419212289 -9999.5637034327083 -3330.2030889025427 -0.0041323723077690833 -0.011891928261320572 -0.0041323723077690833 -3330.2304059902544 0.01987881317108986 -0.011891928261320572 0.01987881317108986 -9999.5940176355289 -3330.1962002784985 0.0046411388470915249 0.0010339105647290125 0.0046411388470915249 -3330.2099279838494 0.0010850488979485817 0.0010339105647290125 0.0010850488979485817 -9999.5453402764106 -3330.1921511878245 0.002063001609436288 0.01031078442974831 0.002063001609436288 -3330.1996009225913 -0.0047792764198675286 0.01031078442974831 -0.0047792764198675286 -9999.5166291864953 -3330.1859472633969 0.0045436602084147903 0.016921904090850148 0.0045436602084147903 -3330.1955094785808 0.001200751619762741 0.016921904090850148 0.001200751619762741 -9999.5140553443853 -3330.1876065407087 0.0032439415880439054 0.014172108591083088 0.0032439415880439054 -3330.19204163207 0.00029421243334581959 0.014172108591083088 0.00029421243334581959 -9999.5035947823999 -3330.188673432338 0.009365051656891249 0.015484876641266965 0.009365051656891249 -3330.1911498042646 -0.015513420054048765 0.015484876641266965 -0.015513420054048765 -9999.5036385483545 -3330.2034217246055 0.0044017348613925502 0.028413130141416332 0.0044017348613925502 -3330.1931754471443 -0.00099079352366970852 0.028413130141416332 -0.00099079352366970852 -9999.5078320321409 -3330.1955845873636 0.01017256221187568 0.0018511685484554619 0.01017256221187568 -3330.2042936602975 -0.0087559233106730971 0.0018511685484554619 -0.0087559233106730971 -9999.543777772742 -3330.2110069941118 0.010066493884859695 -8.2274906162638217e-05 0.010066493884859695 -3330.2189371754866 0.014848126684228191 -8.2274906162638217e-05 0.014848126684228191 -9999.590884692203 -3330.2104606587127 0.0081647143412018064 0.0013071624198346399 0.0081647143412018064 -3330.2058826664943 -0.0085749204772582743 0.0013071624198346399 -0.0085749204772582743 -9999.5478940421235 -3330.1887993625478 0.01710607556931458 0.0019289659430796746 0.01710607556931458 -3330.1903391466276 -0.0082091693548136391 0.0019289659430796746 -0.0082091693548136391 -9999.5385928381147 -3330.1943138892912 0.011884368223822259 0.0022702729415868816 0.011884368223822259 -3330.2038445613307 -0.0038222437324293423 0.0022702729415868816 -0.0038222437324293423 -9999.5433478234772 -3330.1825564250248 0.008311295543954822 -0.0061535413842648268 0.008311295543954822 -3330.2013097347899 0.0046015705484023783 -0.0061535413842648268 0.0046015705484023783 -9999.5397747507814 -3330.1927320910854 0.0066241081744768948 -0.014115869875240605 0.0066241081744768948 -3330.2203864538023 -0.0094807154473528499 -0.014115869875240605 -0.0094807154473528499 -9999.5656579777424 -3330.1946008496197 0.0056276691533285739 -0.013033498318691272 0.0056276691533285739 -3330.217629261344 -0.0076662394749291707 -0.013033498318691272 -0.0076662394749291707 -9999.5654358692627 -3330.2171003664189 0.002676703480432252 0.0089999643678311259 0.002676703480432252 -3330.2395494483389 -0.0084314460627865628 0.0089999643678311259 -0.0084314460627865628 -9999.5998063660154 -3330.1874186515197 0.0085131464093342046 0.004652178889955394 0.0085131464093342046 -3330.2029404182649 0.0043579205412243027 0.004652178889955394 0.0043579205412243027 -9999.5413979782679 -3330.2090559828921 0.0072910976446780573 0.0015280438274203334 0.0072910976446780573 -3330.2284402987152 -0.020957292777893599 0.0015280438274203334 -0.020957292777893599 -9999.5950179827269 -3330.2046983706241 0.0062174391536851115 -0.020186574343824759 0.0062174391536851115 -3330.2269251623948 -0.020467666287004249 -0.020186574343824759 -0.020467666287004249 -9999.5935497955797 -3330.2038607794184 0.0011479808661738478 -0.0093499660506495275 0.0011479808661738478 -3330.2257139962276 -0.008908691364013066 -0.0093499660506495275 -0.008908691364013066 -9999.5697720354365 -3330.2127188751092 0.0054665067582753135 -0.003156014732667245 0.0054665067582753135 -3330.231708549707 -0.017272867851261253 -0.003156014732667245 -0.017272867851261253 -9999.5734851977249 -3330.2089798103279 0.010204246633787203 -0.0033135400408355054 0.010204246633787203 -3330.2215566106624 -0.017386197701853234 -0.0033135400408355054 -0.017386197701853234 -9999.5700124467694 -3330.1743807066414 0.0050936033173649697 -0.03464596679987153 0.0050936033173649697 -3330.211409696145 -0.015435378884376405 -0.03464596679987153 -0.015435378884376405 -9999.5304496289536 -3330.1975249820334 0.012733928648998104 -0.0031997433870856185 0.012733928648998104 -3330.1968061823263 -0.0096339977462776005 -0.0031997433870856185 -0.0096339977462776005 -9999.550499867808 -3330.2029710501865 0.0095162189788710327 -0.0030590768396905332 0.0095162189788710327 -3330.2113732170019 -0.0078259665897348896 -0.0030590768396905332 -0.0078259665897348896 -9999.5555031435142 -3330.2023139327684 0.0083567462772497179 0.0021653960830008145 0.0083567462772497179 -3330.1937042028003 -0.011477517096864176 0.0021653960830008145 -0.011477517096864176 -9999.5509216106075 -3330.1835732666896 0.016083106544647244 0.001818264223402366 0.016083106544647244 -3330.189542140417 -0.0077017639450787101 0.001818264223402366 -0.0077017639450787101 -9999.5414361866424 -3330.2158012043292 0.0061247939357217951 -0.0098015804942406248 0.0061247939357217951 -3330.209565084253 0.0014138043188722804 -0.0098015804942406248 0.0014138043188722804 -9999.5832484077109 -3330.2012687071619 0.00892165901219788 -0.020575587444909615 0.00892165901219788 -3330.1928345546257 -0.021609618521324592 -0.020575587444909615 -0.021609618521324592 -9999.5504428921631 -3330.210856974476 0.0043982396890137714 -0.025439609566092258 0.0043982396890137714 -3330.2195117406918 -0.032479379373398842 -0.025439609566092258 -0.032479379373398842 -9999.5595092555086 -3330.2212803866732 0.0014044767793411073 -0.031295106913603377 0.0014044767793411073 -3330.2277809849347 -0.040584233654954005 -0.031295106913603377 -0.040584233654954005 -9999.5799751665472 -3330.2488612380257 -0.010297089082395572 -0.032632659402224817 -0.010297089082395572 -3330.2471073028573 0.014355407511175144 -0.032632659402224817 0.014355407511175144 -9999.5917019588669 -3330.2160047275211 0.002782625202742417 -0.030030698280825163 0.002782625202742417 -3330.2246729178223 -0.015757543988001999 -0.030030698280825163 -0.015757543988001999 -9999.5441714395929 -3330.225618273269 0.0039583677515563354 -0.04772577366020414 0.0039583677515563354 -3330.2371021798372 -0.013539125891838921 -0.04772577366020414 -0.013539125891838921 -9999.5833899369245 -3330.2158097088068 0.007223108788601551 -0.03124118111009011 0.007223108788601551 -3330.2260307631313 -0.022929911299570449 -0.03124118111009011 -0.022929911299570449 -9999.5623771946994 -3330.205281629107 0.0029169862614697728 -0.028774058971976046 0.0029169862614697728 -3330.2151922223584 -0.028560833910887595 -0.028774058971976046 -0.028560833910887595 -9999.549793173137 -3330.1931098506739 0.0094586653873290905 -0.02658445194538217 0.0094586653873290905 -3330.1884946705377 -0.023667660272622015 -0.02658445194538217 -0.023667660272622015 -9999.5400758405667 -3330.1689644732596 0.0023114158698758214 -0.037248779157380341 0.0023114158698758214 -3330.206443668767 -0.011920597960852319 -0.037248779157380341 -0.011920597960852319 -9999.5278540637664 -3330.1893109808952 0.0081887199621377693 -0.024688877219887218 0.0081887199621377693 -3330.2174928480836 -0.023387289602396777 -0.024688877219887218 -0.023387289602396777 -9999.5536180339623 -3330.0804567053819 -0.0046629077413893327 -0.095663870190037414 -0.0046629077413893327 -3330.1646052766482 -0.022119522098591915 -0.095663870190037414 -0.022119522098591915 -9999.4584925865311 -3330.1644707845408 0.026485169643158724 -0.057018600393348606 0.026485169643158724 -3330.2250544902981 -0.052523155927246989 -0.057018600393348606 -0.052523155927246989 -9999.5434012206679 -3330.1063798690011 0.0087985557884786569 -0.090455468776781345 0.0087985557884786569 -3330.1897084752509 -0.029152833536500111 -0.090455468776781345 -0.029152833536500111 -9999.4712491770842 -3330.1949908534953 0.011884368223822703 -0.01081926996130278 0.011884368223822703 -3330.2045215255348 -0.011289903741271701 -0.01081926996130278 -0.011289903741271701 -9999.5453787160804 -3330.1996457114765 0.015239630475737842 -0.037515596915909555 0.015239630475737842 -3330.2306469283285 -0.028631767531805963 -0.037515596915909555 -0.028631767531805963 -9999.5530737812769 -3330.1867443987358 0.0081887199621377693 -0.036614784861740191 0.0081887199621377693 -3330.2149262659241 -0.029848204444078874 -0.036614784861740191 -0.029848204444078874 -9999.5459182874911 -3330.2242549652165 0.010120778508639301 0.012466418080293806 0.010120778508639301 -3330.1923078009931 -0.022162463863423909 0.012466418080293806 -0.022162463863423909 -9999.5501605935096 -3330.1197683263235 0.03222462104762383 0.019094476663667592 0.03222462104762383 -3330.1617952258421 -0.0124791712323713 0.019094476663667592 -0.0124791712323713 -9999.5074808971549 -3330.1896840390036 0.017106075569314424 -0.0024810714930936228 0.017106075569314424 -3330.1912238230834 -0.017026346436978201 -0.0024810714930936228 -0.017026346436978201 -9999.5412468674767 -3330.1938128958063 0.029452558021025498 -0.0021728749125031754 0.029452558021025498 -3330.2116406958139 -0.01306499936254113 -0.0021728749125031754 -0.01306499936254113 -9999.5473832998614 -3330.1694530514524 0.025658994218597742 -0.03376437876613636 0.025658994218597742 -3330.1646262908343 -0.042760303080285667 -0.03376437876613636 -0.042760303080285667 -9999.5295397375266 -3330.1612898996082 0.033157796769142267 -0.044451627012676909 0.033157796769142267 -3330.1484005579587 -0.052199373629264301 -0.044451627012676909 -0.052199373629264301 -9999.5073536542332 -3330.1986728705851 0.0094586653873292015 -0.022707801170327002 0.0094586653873292015 -3330.194057690449 -0.028864088380942121 -0.022707801170327002 -0.028864088380942121 -9999.5567649003024 -3330.1917168080709 0.014936751888252248 -0.057494072787449113 0.014936751888252248 -3330.224607038037 -0.095789687602518825 -0.057494072787449113 -0.095789687602518825 -9999.5501008634856 -3330.1919632599711 0.018949369943430106 -0.062240128216217272 0.018949369943430106 -3330.236093295327 -0.091951815007632831 -0.062240128216217272 -0.091951815007632831 -9999.5369451786646 -3330.1586118379892 0.0029169862614696895 -0.042362973154013162 0.0029169862614696895 -3330.1685224312405 -0.032468364108353853 -0.042362973154013162 -0.032468364108353853 -9999.4097837997724 -3330.1936643296776 -0.0097255565433901348 -0.045069366213283502 -0.0097255565433901348 -3330.1836262670586 -0.025192401106323814 -0.045069366213283502 -0.025192401106323814 -9999.4223228816445 -3330.2315178721401 0.010471661148858558 -0.093194511136971414 0.010471661148858558 -3330.2171254551795 -0.022291893717920175 -0.093194511136971414 -0.022291893717920175 -9999.5093879228516 -3330.2194969532011 0.030400090873250463 -0.08496485812793253 0.030400090873250463 -3330.2438877548811 -0.050572389887634017 -0.08496485812793253 -0.050572389887634017 -9999.5618660789805 -3330.1662429711014 0.0072231087886016621 -0.045876767268055119 0.0072231087886016621 -3330.176464025426 -0.026684609749281663 -0.045876767268055119 -0.026684609749281663 -9999.4136769815887 -3330.2977595294715 0.082847649228802445 -0.23548313761784812 0.082847649228802445 -3330.2764794191753 -0.035372497966818628 -0.23548313761784812 -0.035372497966818628 -9999.5786443793586 -3330.1883873527986 -0.0077243542556648115 -0.094844877814466599 -0.0077243542556648115 -3330.1887166705401 -0.084511874641975737 -0.094844877814466599 -0.084511874641975737 -9999.3057862205205 -3330.125693078292 0.030400090873250463 -0.092725771222831099 0.030400090873250463 -3330.150083879972 -0.080595420506142545 -0.092725771222831099 -0.080595420506142545 -9999.2804544542523 -3330.2425284064338 0.0066598317437876475 -0.088993482426303672 0.0066598317437876475 -3330.2637303127322 -0.15198157647137123 -0.088993482426303672 -0.15198157647137123 -9999.6466241377966 -3330.2378068125254 0.033157796769142323 -0.055986869510888937 0.033157796769142323 -3330.2249174708759 -0.073230034478910966 -0.055986869510888937 -0.073230034478910966 -9999.736904392983 -3330.2025906903655 0.032160988889444228 -0.13601109882347373 0.032160988889444228 -3330.212323862308 -0.2570531065666728 -0.13601109882347373 -0.2570531065666728 -9999.6237880961744 -3330.1045949299087 0.018949369943430022 -0.070337266080059635 0.018949369943430022 -3330.1487249652646 -0.11744721377908718 -0.070337266080059635 -0.11744721377908718 -9999.2748401884783 -3330.2581133834738 0.010143515599301794 0.0083631868376414786 0.010143515599301794 -3330.347563726993 0.030713401867615175 0.0083631868376414786 0.030713401867615175 -9999.6714787356213 -3330.2087550678098 0.043369497721609716 0.0035642218681459781 0.043369497721609716 -3330.2181170322256 -0.030969195780926384 0.0035642218681459781 -0.030969195780926384 -9999.6267774830158 -3330.0920280626024 0.093446329324595026 0.042851084530411754 0.093446329324595026 -3330.1170375901429 0.0059083095411551767 0.042851084530411754 0.0059083095411551767 -9999.5379156637282 -3330.1364776535738 0.043276185360478052 0.10465202246450644 0.043276185360478052 -3330.2018318087858 -0.065704046182872844 0.10465202246450644 -0.065704046182872844 -9999.6046368235948 -3330.148753570249 0.010319629324695878 -0.041356080291734543 0.010319629324695878 -3330.3974473635908 -0.056989740026438085 -0.041356080291734543 -0.056989740026438085 -9999.7185654463574 -3330.2357993279156 0.038878010169659014 0.016875157640470206 0.038878010169659014 -3330.2469495282103 1.4885314158163965e-05 0.016875157640470206 1.4885314158163965e-05 -9999.70270242693 -3329.9011980315436 0.017589480186394724 -0.22787691087978601 0.017589480186394724 -3330.1338454309725 -0.03590344450185512 -0.22787691087978601 -0.03590344450185512 -9999.4438455078234 -3330.2188689089171 0.026485169643158946 -0.048656627877790015 0.026485169643158946 -3330.2794526146745 -0.047131240122098461 -0.048656627877790015 -0.047131240122098461 -9999.7065955937978 -3330.2417952247579 -0.008943402009457424 0.074873676314382465 -0.008943402009457424 -3330.2325627868613 0.047229268206137931 0.074873676314382465 0.047229268206137931 -9999.6616908723736 -3330.206208580239 0.018484761214084378 0.02049936951516429 0.018484761214084378 -3330.2582356399107 0.02008508015796906 0.02049936951516429 0.02008508015796906 -9999.6592124245071 -3330.3597860197842 -0.068953178420389616 0.097128642752068117 -0.068953178420389616 -3330.2956255359004 0.081463836393595557 0.097128642752068117 0.081463836393595557 -9999.6209951126839 -3330.1572084933778 0.052683324390689568 0.033959006022996618 0.052683324390689568 -3330.3807616175691 -0.017068962986741099 0.033959006022996618 -0.017068962986741099 -9999.7165077406389 -3330.1902053457088 0.027926600988704697 0.037198179503320716 0.027926600988704697 -3330.217606798793 0.048078784469907987 0.037198179503320716 0.048078784469907987 -9999.6450544055951 -3330.2072422310493 -0.01038722937499563 0.048736815680967993 -0.01038722937499563 -3330.2030807195197 0.037691450191232434 0.048736815680967993 0.037691450191232434 -9999.5597229614068 -3329.9668564642625 0.14966245581980153 0.1745339763656375 0.14966245581980153 -3330.2203535940416 0.18438598813372664 0.1745339763656375 0.18438598813372664 -9999.3827767363437 -3330.1942209289846 0.0032439415880438638 0.013793833257295773 0.0032439415880438638 -3330.1986560203459 -0.00098721099539034185 0.013793833257295773 -0.00098721099539034185 -9999.5234379472131 -3330.179414659855 -0.0089434020094576461 0.029254422432131832 -0.0089434020094576461 -3330.1701822219584 -0.018129653171854443 0.029254422432131832 -0.018129653171854443 -9999.4745491776666 -3330.1642154363417 -0.010387229374995574 0.046542281101210392 -0.010387229374995574 -3330.160053924812 -0.019021608634830045 0.046542281101210392 -0.019021608634830045 -9999.4306425772847 -3330.2174414637484 -0.018817797392577384 0.017469473803430446 -0.018817797392577384 -3330.1775803257697 -0.028789621064788662 0.017469473803430446 -0.028789621064788662 -9999.4859054045955 -3330.1809997733799 0.0066241081744768948 -0.026120050417375751 0.0066241081744768948 -3330.2086541360968 -0.013732644800256821 -0.026120050417375751 -0.013732644800256821 -9999.5304610246276 -3330.1916898187446 0.0045436602084150124 0.006196340862516081 0.0045436602084150124 -3330.2012520339285 -0.0022098395929788239 0.006196340862516081 -0.0022098395929788239 -9999.5312830104267 -3330.1671682809829 0.018484761214084378 -0.022104308991401922 0.018484761214084378 -3330.2191953406546 -0.026782039084991993 -0.022104308991401922 -0.026782039084991993 -9999.542091526735 -3330.1782521596033 0.008311295543954822 -0.018908788297267165 0.008311295543954822 -3330.1970054693684 -0.0016437630401924253 -0.018908788297267165 -0.0016437630401924253 -9999.5268619545059 -3330.1430522818755 0.027926600988704697 0.0050401108728692634 0.027926600988704697 -3330.1704537349597 0.0059304745664121583 0.0050401108728692634 0.0059304745664121583 -9999.5035952140861 -3330.1835480928075 0.0095848479301636758 -0.012099346104150754 0.0095848479301636758 -3330.2067662049176 -0.010009827605244936 -0.012099346104150754 -0.010009827605244936 -9999.5430791957551 -3330.1379100591294 0.023659725683959465 0.021042655705969082 0.023659725683959465 -3330.1684853801053 0.0055696452927804785 0.021042655705969082 0.0055696452927804785 -9999.501817569686 -3330.1708187685617 0.043369497721609841 0.0094307528725039447 0.043369497721609841 -3330.1801807329775 -0.01021521123675484 0.0094307528725039447 -0.01021521123675484 -9999.5129685852626 -3330.1730807267104 0.038878010169658792 0.010279289539766978 0.038878010169658792 -3330.184230927005 0.00069129592884564772 0.010279289539766978 0.00069129592884564772 -9999.5145466233043 -3330.2227006613048 0.016830834342310586 0.023995236466362257 0.016830834342310586 -3330.2264926917705 -0.0016482346854900243 0.023995236466362257 -0.0016482346854900243 -9999.5375170481457 -3330.2455891074023 -0.041120935023995435 0.047475606963416794 -0.041120935023995435 -3330.2187469236778 -0.037547121195530053 0.047475606963416794 -0.037547121195530053 -9999.4656592447645 -3330.1829338497046 0.009365051656891249 0.024139289716686108 0.009365051656891249 -3330.1854102216312 -0.023623648161446908 0.024139289716686108 -0.023623648161446908 -9999.4864198004507 -3330.1676357101478 -0.0072106838624015693 0.048029123006017471 -0.0072106838624015693 -3330.1683524481541 -0.036925342945323791 0.048029123006017471 -0.036925342945323791 -9999.4335722765682 -3330.2089709698848 0.023832780216485876 0.013560399891503039 0.023832780216485876 -3330.2297695163434 0.0018236654896099935 0.013560399891503039 0.0018236654896099935 -9999.5349038314343 -3330.1368004514179 0.27772851353546862 0.12362203349766787 0.27772851353546862 -3329.9124678723711 0.19421090799005469 0.12362203349766787 0.19421090799005469 -9999.2008490198823 -3330.17809237254 -0.037558363833007424 0.046052498011704301 -0.037558363833007424 -3330.1324219765211 0.070014530513162754 0.046052498011704301 0.070014530513162754 -9999.5347708110276 -3330.1773354211728 -0.0072106838624015762 0.031494238882260106 -0.0072106838624015762 -3330.1780521591791 0.036732794900672161 0.031494238882260106 0.036732794900672161 -9999.4626714096485 -3330.3628951022629 0.051046055520704015 0.11110434287502358 0.051046055520704015 -3330.1883396930079 0.046055566392169567 0.11110434287502358 0.046055566392169567 -9999.6234579493612 -3330.202142983173 0.016830834342310586 0.0076894428184459684 0.016830834342310586 -3330.2059350136387 0.044653175355051644 0.0076894428184459684 0.044653175355051644 -9999.475844013763 -3330.3954211913415 0.076674535732484395 0.093813361858337885 0.076674535732484395 -3330.400157627736 -0.012106649474844744 0.093813361858337885 -0.012106649474844744 -9999.6845439553108 -3330.2118515060592 0.0030914781440872785 0.016303810009048902 0.0030914781440872785 -3330.1999352938401 0.073629592812721967 0.016303810009048902 0.073629592812721967 -9999.4767712145367 -3330.1794063361513 -0.01986901528486873 -0.033165608396302559 -0.01986901528486873 -3330.2012953697167 0.064665429725209833 -0.033165608396302559 0.064665429725209833 -9999.4689999410257 -3330.1878331677763 -0.013465757420626501 -0.0012213952322781552 -0.013465757420626501 -3330.1935684823547 -1.7485122953075916e-05 -0.0012213952322781552 -1.7485122953075916e-05 -9999.4691749270933 -3330.4914188194489 -0.017167784505398076 -0.11773922368502099 -0.017167784505398076 -3329.8369647571062 0.21170205980160972 -0.11773922368502099 0.21170205980160972 -9999.404028902889 -3330.2016971093562 -0.016237119267427047 0.0065753816461437964 -0.016237119267427047 -3330.2541569042078 -0.022814865589680267 0.0065753816461437964 -0.022814865589680267 -9999.5208526738134 -3330.2010590301252 -0.013465757420626279 0.030237011476856424 -0.013465757420626279 -3330.2067943447037 -0.070726616604588344 0.030237011476856424 -0.070726616604588344 -9999.5088525141291 -3330.2020230150465 0.0029651961581715902 0.021792467461636988 0.0029651961581715902 -3330.1879063480628 -0.02625989158241282 0.021792467461636988 -0.02625989158241282 -9999.4918161233945 -3330.1978150751165 0.00049402788400654263 0.0077882499317638576 0.00049402788400654263 -3330.1810700394381 0.0020968441240256652 0.0077882499317638576 0.0020968441240256652 -9999.4890550612545 -3330.1971489378247 -0.0011346171614952105 0.014053350090762251 -0.0011346171614952105 -3330.1816633486578 0.0032321188355126651 0.014053350090762251 0.0032321188355126651 -9999.4890368542328 -3330.1906708874321 0.0081647143412018064 0.0076959178004472051 0.0081647143412018064 -3330.1860928952137 -0.018152575818021432 0.0076959178004472051 -0.018152575818021432 -9999.4885247282728 -3330.2305230532329 0.0025092151387867689 0.037601313193590613 0.0025092151387867689 -3330.1970695436103 -0.011439387288191938 0.037601313193590613 -0.011439387288191938 -9999.5439881583225 -3330.2400231534157 -0.0018722808089962073 0.041148799754409993 -0.0018722808089962073 -3330.2205300161004 0.00049340465920977294 0.041148799754409993 0.00049340465920977294 -9999.5522283014907 -3330.2097935219081 0.0030914781440875005 0.050631874095415697 0.0030914781440875005 -3330.1978773096889 0.015433083426614758 0.050631874095415697 0.015433083426614758 -9999.4705972620759 -3330.1773483519974 -0.019869015284868619 0.0011624556882452453 -0.019869015284868619 -3330.1992373855628 0.006468920339102624 0.0011624556882452453 0.006468920339102624 -9999.4628259885649 -3330.1824449630549 -0.0049164232585601209 0.043393210293288575 -0.0049164232585601209 -3330.193194262969 0.022671747236017836 0.043393210293288575 0.022671747236017836 -9999.4625893606826 -3330.2403327880165 -0.21931907720910204 -0.073272432538942667 -0.21931907720910204 -3329.9267467070604 0.21269115014183626 -0.073272432538942667 0.21269115014183626 -9999.2605422550441 -3329.8254091091385 0.11342090958932616 0.12125942247985222 0.11342090958932616 -3330.0118290711025 0.026389837030365015 0.12125942247985222 0.026389837030365015 -9999.4449587956005 -3330.2409857795019 -0.0088085536733811809 0.069252175349447498 -0.0088085536733811809 -3330.2126606818883 0.012454537056328263 0.069252175349447498 0.012454537056328263 -9999.5990608658904 -3330.1875843005455 0.010935266391715714 -0.0093946390079509001 0.010935266391715714 -3330.2118254373454 -0.03014873827851261 -0.0093946390079509001 -0.03014873827851261 -9999.680874566835 -3330.2245741643019 -0.010420841497911004 0.0029832550935680047 -0.010420841497911004 -3330.2080249245819 -0.008709596735627656 0.0029832550935680047 -0.008709596735627656 -9999.6891719045852 -3330.2164005768145 0.024325927640851175 0.0066262843174627051 0.024325927640851175 -3330.2330637170589 -0.045333139692957047 0.0066262843174627051 -0.045333139692957047 -9999.7335893956006 -3330.1994064930614 0.013393787462261164 0.0036678321612271247 0.013393787462261164 -3330.2274992381399 -0.039626149264222477 0.0036678321612271247 -0.039626149264222477 -9999.7279497549316 -3330.2108414288959 0.025294995999733838 -0.076571192059418536 0.025294995999733838 -3330.190290079001 -0.098870233799971174 -0.076571192059418536 -0.098870233799971174 -9999.6874223898303 -3330.1949731289842 -0.0011804203380567646 -0.06631835583539214 -0.0011804203380567646 -3330.2972493449652 -0.052452060845098458 -0.06631835583539214 -0.052452060845098458 -9999.7442789406232 -3330.2268186069314 0.014796578435046559 -0.047685762627224904 0.014796578435046559 -3330.2276132780635 -0.058853795383470242 -0.047685762627224904 -0.058853795383470242 -9999.7007474841012 -3330.0769919541317 0.059969732783248353 -0.05609004508369253 0.059969732783248353 -3330.1895430669892 -0.03828226744371932 -0.05609004508369253 -0.03828226744371932 -9999.6878570774134 -3329.8831060832345 -0.38817813655534161 -0.23648310923636018 -0.38817813655534161 -3330.0613439646122 0.10714295310935995 -0.23648310923636018 0.10714295310935995 -9999.4194402590292 -3330.250835080783 0.0042374574904046058 -0.024755008648753574 0.0042374574904046058 -3330.2002244920359 -0.021280424731230596 -0.024755008648753574 -0.021280424731230596 -9999.6937870255679 -3330.2341241687473 0.015298255543475858 -0.043571302418058622 0.015298255543475858 -3330.1660894979423 -0.065192830876185326 -0.043571302418058622 -0.065192830876185326 -9999.6871929295266 -3330.1640392642448 0.054349045407749763 -0.033789330098443315 0.054349045407749763 -3330.0225639775826 -0.036928328629073803 -0.033789330098443315 -0.036928328629073803 -9999.6276729428209 -3330.1998445963345 -0.0073874364683100824 0.0062907746787459473 -0.0073874364683100824 -3330.1954918000083 5.2279527153586969e-05 0.0062907746787459473 5.2279527153586969e-05 -9999.5539551667134 -3330.1845034798771 0.015298255543475414 0.016614729656794225 0.015298255543475414 -3330.1164688090721 0.0011527037604537327 0.016614729656794225 0.0011527037604537327 -9999.5383308629134 -3330.1671076039183 0.011513275055673899 6.9858719143667258e-05 0.011513275055673899 -3330.1776625957937 -0.0107226630752848 6.9858719143667258e-05 -0.0107226630752848 -9999.5413136175521 -3330.1831698568767 0.0011854315925128311 -0.0029580406189779751 0.0011854315925128311 -3330.1860642556294 -0.0081449933459225576 -0.0029580406189779751 -0.0081449933459225576 -9999.5428643544365 -3330.2036613441087 0.0042374574904043838 0.028302126148446405 0.0042374574904043838 -3330.1530507553616 0.021395868465333479 0.028302126148446405 0.021395868465333479 -9999.5522658155423 -3330.2179821966292 0.026724901161547798 0.019144218014844228 0.026724901161547798 -3330.1837685523969 0.013761513986537466 0.019144218014844228 0.013761513986537466 -9999.5429464830995 -3330.1998824001112 0.0028896593101237489 -0.0086283745349646779 0.0028896593101237489 -3330.1904986705867 -0.012999702717934269 -0.0086283745349646779 -0.012999702717934269 -9999.5561775277201 -3330.1932737296356 0.0064053247375839284 -0.02163594124976953 0.0064053247375839284 -3330.1835389434909 -0.031019739213661524 -0.02163594124976953 -0.031019739213661524 -9999.5527854283282 -3330.1479580396917 0.025294995999733505 -0.041574996224881033 0.025294995999733505 -3330.1274066897968 -0.057984655319160083 -0.041574996224881033 -0.057984655319160083 -9999.4987722222177 -3330.1879109039819 0.0047870088368621166 -0.017436281981645152 0.0047870088368621166 -3330.1823138288401 -0.036754932774783811 -0.017436281981645152 -0.036754932774783811 -9999.5431120095163 -3330.1890614471886 0.0040482920922964016 -3.5129865864291787e-05 0.0040482920922964016 -3330.1848242208034 -0.012648241414808581 -3.5129865864291787e-05 -0.012648241414808581 -9999.5440272433043 -3330.1740112288389 0.014796578435046337 -0.00085232538185664453 0.014796578435046337 -3330.174805899971 -0.0093018794312911268 -0.00085232538185664453 -0.0093018794312911268 -9999.5423253498266 -3330.1904548242364 0.011646343138056681 0.0072516192376497202 0.011646343138056681 -3330.1900877964545 -0.015515858049184317 0.0072516192376497202 -0.015515858049184317 -9999.5537179152197 -3330.1427472516043 0.024325927640851175 0.034862438231357373 0.024325927640851175 -3330.1594103918487 -0.017897211618219444 0.034862438231357373 -0.017897211618219444 -9999.5126294199763 -3330.1818201427122 0.006212079095511247 0.0061191939585114596 0.006212079095511247 -3330.1846853187872 -0.013331357553397538 0.0061191939585114596 -0.013331357553397538 -9999.5502086254237 -3330.1257531678511 0.013393787462260942 0.031903986069664825 0.013393787462260942 -3330.1538459129297 -0.012190221186756389 0.031903986069664825 -0.012190221186756389 -9999.5069897793037 -3330.1603247700168 0.017823110185572366 0.013563476495619398 0.017823110185572366 -3330.1704314327981 -0.009626073245385669 0.013563476495619398 -0.009626073245385669 -9999.5378101183269 -3330.2022629796666 -0.0063899265053461995 0.015936150717607234 -0.0063899265053461995 -3330.1972195379458 -0.0055164809282359784 0.015936150717607234 -0.0055164809282359784 -9999.5549916970303 -3330.1321789659378 0.010935266391715714 0.046190289551304886 0.010935266391715714 -3330.1564201027377 -0.0018535427007009275 0.046190289551304886 -0.0018535427007009275 -9999.51465856301 -3330.1637345640429 -0.0085347819003664949 0.036950099049136043 -0.0085347819003664949 -3330.1831861628816 -0.0034500971123634372 0.036950099049136043 -0.0034500971123634372 -9999.5238201908433 -3330.2237295976229 -0.0088085536733812919 0.079607787960412679 -0.0088085536733812919 -3330.1954045000093 0.0071006490798026789 0.079607787960412679 0.0071006490798026789 -9999.5472923202506 -3330.2027079004747 -0.0058043951984075859 0.031162740954641777 -0.0058043951984075859 -3330.1916302550599 -0.0050008150501525961 0.031162740954641777 -0.0050008150501525961 -9999.5356745479912 -3330.1938650775373 -0.0063899265053461995 0.0040513824678782839 -0.0063899265053461995 -3330.1888216358166 -0.0024726009369260282 0.0040513824678782839 -0.0024726009369260282 -9999.5297979906391 -3330.2015224217503 -0.0058043951984076969 0.014414302698241954 -0.0058043951984076969 -3330.1904447763354 0.00030413519198191352 0.014414302698241954 0.00030413519198191352 -9999.5321181118197 -3330.1776501726417 0.006212079095510914 0.0063964207347453339 0.006212079095510914 -3330.1805153487167 -0.0074794804786506575 0.0063964207347453339 -0.0074794804786506575 -9999.5376987152122 -3330.1862848541678 0.011646343138056459 0.0075288460138835944 0.011646343138056459 -3330.1859178263858 -0.0096639809744374361 0.0075288460138835944 -0.0096639809744374361 -9999.5412080050082 -3330.185558457566 0.0047870088368623387 -0.022402197999326745 0.0047870088368623387 -3330.1799613824242 -0.032078721320431214 -0.022402197999326745 -0.032078721320431214 -9999.536054670265 -3330.1949887844366 0.0040482920922966237 -0.0032043798855738714 0.0040482920922966237 -3330.1907515580515 -0.0070320089968163302 -0.0032043798855738714 -0.0070320089968163302 -9999.5618092550503 -3330.1818012313197 0.0011854315925123871 -0.010581785538306576 0.0011854315925123871 -3330.1846956300724 -0.0050433976393833291 -0.010581785538306576 -0.0050433976393833291 -9999.5387584777709 -3330.1966498742513 -0.0073874364683103044 -0.0063407902043763897 -0.0073874364683103044 -3330.1922970779251 0.0023022218156256713 -0.0063407902043763897 0.0023022218156256713 -9999.5443710004693 -3330.2144108328066 0.0020255016096560885 -0.011463120234111557 0.0020255016096560885 -3330.1945148220075 -0.031631215199013241 -0.011463120234111557 -0.031631215199013241 -9999.591900947009 -3330.198603083827 0.0055413358281510838 0.0011814634053735062 0.0055413358281510838 -3330.1848108260401 -0.013789156921120593 0.0011814634053735062 -0.013789156921120593 -9999.5612276468964 -3330.2092964205276 -0.00063246504360348066 -0.0017733232270984445 -0.00063246504360348066 -3330.189366528235 -0.01890699754585512 -0.0017733232270984445 -0.01890699754585512 -9999.5650399066217 -3330.1939764624076 -0.0079024366290090242 -0.012980507275642594 -0.0079024366290090242 -3330.1862018914344 0.00736076519388007 -0.012980507275642594 0.00736076519388007 -9999.5291709007579 -3330.2202645805992 0.0055506021806341899 -0.022838441451312974 0.0055506021806341899 -3330.2066766939533 -0.014105571204140688 -0.022838441451312974 -0.014105571204140688 -9999.5964048519454 -3330.1995262427663 0.0039920583827888212 -0.0086815527320140973 0.0039920583827888212 -3330.19627407599 -0.01499069225974381 -0.0086815527320140973 -0.01499069225974381 -9999.5758569152531 -3330.2195932276682 0.0055286388861806035 -0.011685617704642937 0.0055286388861806035 -3330.2098571343322 0.0013449965335894376 -0.011685617704642937 0.0013449965335894376 -9999.5970321238055 -3330.2068198799716 0.00059608089826046484 -0.0045148954905016581 0.00059608089826046484 -3330.1989913466205 -0.0092184123896004166 -0.0045148954905016581 -0.0092184123896004166 -9999.5783596422189 -3330.1977626321404 0.0068428725326097339 -0.0088290601524931844 0.0068428725326097339 -3330.1918425462336 -0.0069055167955411889 -0.0088290601524931844 -0.0069055167955411889 -9999.5627754640227 -3330.2023854136478 0.0068372635444834406 -0.013200789242546307 0.0068372635444834406 -3330.1973965033485 -0.014889060137647903 -0.013200789242546307 -0.014889060137647903 -9999.5768523148145 -3330.2071472533189 0.0096741263317972059 -0.019428546547715086 0.0096741263317972059 -3330.2037998160467 -0.0028754295326507417 -0.019428546547715086 -0.0028754295326507417 -9999.579643602905 -3330.2039167597195 0.0020895538320535034 0.0079316220489999978 0.0020895538320535034 -3330.1900356342576 -0.0083567453912110068 0.0079316220489999978 -0.0083567453912110068 -9999.5466454333655 -3330.1825260611968 0.0033969835199489928 0.0055162763183034258 0.0033969835199489928 -3330.1833469089215 -0.0090039353308384307 0.0055162763183034258 -0.0090039353308384307 -9999.5396255773958 -3330.2050770717178 0.0026198788601519141 -0.01226191951718647 0.0026198788601519141 -3330.1949997531156 -0.012851403649619897 -0.01226191951718647 -0.012851403649619897 -9999.5653933756403 -3330.1969351592797 -0.0046010787989263502 0.0079259323010774096 -0.0046010787989263502 -3330.1834417952668 0.0080687591162131866 0.0079259323010774096 0.0080687591162131866 -9999.5087161645133 -3330.2048641951278 -0.0011346171614949885 0.0048171086473303149 -0.0011346171614949885 -3330.1893786059609 0.011177582780874218 0.0048171086473303149 0.011177582780874218 -9999.5121826261457 -3330.2055303324214 0.00049402788400676467 -0.0014479915080300998 0.00049402788400676467 -3330.1887852967429 0.010042308069387218 -0.0014479915080300998 0.010042308069387218 -9999.5122008331673 -3330.2114674638378 0.0054578517110177582 0.0044188909832882928 0.0054578517110177582 -3330.1959581216634 -0.004844014321861323 0.0044188909832882928 -0.004844014321861323 -9999.5500137312411 -3330.2198749367271 0.0036046705597775341 0.016791155012469972 0.0036046705597775341 -3330.208330976111 -0.019175244011421455 0.016791155012469972 -0.019175244011421455 -9999.5904501280093 -3330.2142472103769 0.0056515703419602881 0.0039404098197337589 0.0056515703419602881 -3330.2075988572215 -0.0064534964403719641 0.0039404098197337589 -0.0064534964403719641 -9999.5536188517653 -3330.2192375967643 0.0075270786690340152 0.024476686281559523 0.0075270786690340152 -3330.218500310013 0.0066768188735295553 0.024476686281559523 0.0066768188735295553 -9999.592833126495 -3330.2193126118764 0.0079173277803437081 -0.026841700797376689 0.0079173277803437081 -3330.2167381419895 -0.015211397494567791 -0.026841700797376689 -0.015211397494567791 -9999.5924113382716 -3330.2156768219811 0.0061221157347663979 -0.021460933479829691 0.0061221157347663979 -3330.2058255592729 -0.02610675787582295 -0.021460933479829691 -0.02610675787582295 -9999.5887742451159 -3330.2131348011717 -0.00030998501526618982 0.0028453130962589057 -0.00030998501526618982 -3330.1960997973511 0.00065952425575233065 0.0028453130962589057 0.00065952425575233065 -9999.5382120672948 -3330.2186508690666 0.0029651961581715902 0.012019638819765532 0.0029651961581715902 -3330.2045342020829 -0.017917302992827899 0.012019638819765532 -0.017917302992827899 -9999.5416996854547 
</DataArray>
</CellData>
</Piece>
</UnstructuredGrid>
</VTKFile>
