<?xml version="1.0"?>
<VTKFile type="UnstructuredGrid" version="0.1" byte_order="LittleEndian">
<UnstructuredGrid>
<Piece NumberOfPoints="2160" NumberOfCells="540">
<Points>
<DataArray type="Float64" NumberOfComponents="3" format="ascii">
-4.3301270160527148 -2.500000004970083 -12 -5 -1.397247784140632e-08 -12 -2.9547160992544761 -1.820741508163664 -12 -2.9547160992544761 -1.820741508163664 -15 -2.5000000000000022 -4.3301270189221919 -12 -4.3301270160527148 -2.500000004970083 -12 -2.9547160992544761 -1.820741508163664 -12 -2.9547160992544761 -1.820741508163664 -15 -4.3301270160527148 -2.500000004970083 -15 -2.5000000000000022 -4.3301270189221919 -12 -2.9547160992544761 -1.820741508163664 -15 -4.3301270160527148 -2.500000004970083 -12 -5 -1.397247784140632e-08 -15 -4.3301270160527148 -2.500000004970083 -15 -2.9547160992544761 -1.820741508163664 -15 -4.3301270160527148 -2.500000004970083 -12 -0.66987297914647026 -2.499999999706382 -15 -2.2735805010731909 0.22641949675281539 -12 -2.9547160992544761 -1.820741508163664 -15 -0.66987297914647026 -2.499999999706382 -12 -2.5000000000000022 -4.3301270189221919 -12 -0.66987297914647026 -2.499999999706382 -12 -0.66987297914647026 -2.499999999706382 -15 -2.9547160992544761 -1.820741508163664 -15 -2.2735805010731909 0.22641949675281539 -12 -0.66987297914647026 -2.499999999706382 -12 -2.9547160992544761 -1.820741508163664 -12 -2.9547160992544761 -1.820741508163664 -15 -0.66987297914647026 -2.499999999706382 -12 -2.5000000000000022 -4.3301270189221919 -12 -2.9547160992544761 -1.820741508163664 -12 -2.9547160992544761 -1.820741508163664 -15 -2.5000000000000022 -4.3301270189221919 -15 6.9142305214597846e-09 -5 -12 -0.66987297914647026 -2.499999999706382 -15 -2.5000000000000022 -4.3301270189221919 -12 -2.5000000000000022 -4.3301270189221919 -15 -0.66987297914647026 -2.499999999706382 -15 -2.9547160992544761 -1.820741508163664 -15 -2.5000000000000022 -4.3301270189221919 -12 -4.3301270160527148 -2.500000004970083 -15 -2.5000000000000022 -4.3301270189221919 -15 -2.9547160992544761 -1.820741508163664 -15 -2.5000000000000022 -4.3301270189221919 -12 -2.5000000000000022 -4.3301270189221919 -15 6.9142305214597846e-09 -5 -15 -0.66987297914647026 -2.499999999706382 -15 6.9142305214597846e-09 -5 -12 -0.66987297914647026 -2.499999999706382 -15 6.9142305214597846e-09 -5 -15 0.91506351643986317 -3.4150635091400758 -15 6.9142305214597846e-09 -5 -12 -0.66987297914647026 -2.499999999706382 -15 6.9142305214597846e-09 -5 -12 0.91506351643986317 -3.4150635091400758 -15 -0.66987297914647026 -2.499999999706382 -12 0.20080558631870429 0.033909897404034287 -15 -0.66987297914647026 -2.499999999706382 -15 0.95458002071209891 -1.657898275923388 -15 -0.66987297914647026 -2.499999999706382 -12 0.95458002071209891 -1.657898275923388 -15 -0.66987297914647026 -2.499999999706382 -15 0.91506351643986317 -3.4150635091400758 -15 -0.66987297914647026 -2.499999999706382 -12 0.95458002071209891 -1.657898275923388 -15 -0.66987297914647026 -2.499999999706382 -12 0.91506351643986317 -3.4150635091400758 -15 0.91506351643986317 -3.4150635091400758 -12 2.3883545080289421 -0.94497882694672608 -12 0.95458002071209891 -1.657898275923388 -12 0.95458002071209891 -1.657898275923388 -15 2.217625015551433 -2.5696135239339939 -15 2.3883545080289421 -0.94497882694672608 -15 0.95458002071209891 -1.657898275923388 -15 2.217625015551433 -2.5696135239339939 -15 2.3883545080289421 -0.94497882694672608 -12 0.95458002071209891 -1.657898275923388 -15 0.91506351643986317 -3.4150635091400758 -12 2.217625015551433 -2.5696135239339939 -15 0.95458002071209891 -1.657898275923388 -12 0.95458002071209891 -1.657898275923388 -15 0.91506351643986317 -3.4150635091400758 -15 2.217625015551433 -2.5696135239339939 -15 0.91506351643986317 -3.4150635091400758 -12 0.91506351643986317 -3.4150635091400758 -15 2.500000010727558 -4.3301270127286351 -15 2.217625015551433 -2.5696135239339939 -15 2.500000010727558 -4.3301270127286351 -12 6.9142305214597846e-09 -5 -15 2.500000010727558 -4.3301270127286351 -12 0.91506351643986317 -3.4150635091400758 -15 6.9142305214597846e-09 -5 -12 6.9142305214597846e-09 -5 -15 2.500000010727558 -4.3301270127286351 -15 0.91506351643986317 -3.4150635091400758 -15 2.500000010727558 -4.3301270127286351 -12 0.91506351643986317 -3.4150635091400758 -15 2.500000010727558 -4.3301270127286351 -12 2.217625015551433 -2.5696135239339939 -15 0.91506351643986317 -3.4150635091400758 -12 2.500000010727558 -4.3301270127286351 -12 6.9142305214597846e-09 -5 -12 0.91506351643986317 -3.4150635091400758 -12 0.91506351643986317 -3.4150635091400758 -15 2.500000010727558 -4.3301270127286351 -12 0.91506351643986317 -3.4150635091400758 -12 2.217625015551433 -2.5696135239339939 -12 2.217625015551433 -2.5696135239339939 -15 0.95458002071209891 -1.657898275923388 -12 2.3883545080289421 -0.94497882694672608 -12 2.217625015551433 -2.5696135239339939 -12 2.217625015551433 -2.5696135239339939 -15 0.91506351643986317 -3.4150635091400758 -12 0.95458002071209891 -1.657898275923388 -12 2.217625015551433 -2.5696135239339939 -12 2.217625015551433 -2.5696135239339939 -15 -0.66987297914647026 -2.499999999706382 -12 0.95458002071209891 -1.657898275923388 -12 0.91506351643986317 -3.4150635091400758 -12 0.95458002071209891 -1.657898275923388 -15 -0.66987297914647026 -2.499999999706382 -12 0.20080558631870429 0.033909897404034287 -12 0.95458002071209891 -1.657898275923388 -12 0.95458002071209891 -1.657898275923388 -15 6.9142305214597846e-09 -5 -12 -0.66987297914647026 -2.499999999706382 -12 0.91506351643986317 -3.4150635091400758 -12 0.91506351643986317 -3.4150635091400758 -15 6.9142305214597846e-09 -5 -12 -2.5000000000000022 -4.3301270189221919 -12 -0.66987297914647026 -2.499999999706382 -12 -0.66987297914647026 -2.499999999706382 -15 -0.66987297914647026 -2.499999999706382 -12 6.9142305214597846e-09 -5 -12 0.91506351643986317 -3.4150635091400758 -12 6.9142305214597846e-09 -5 -9 6.9142305214597846e-09 -5 -9 -0.66987297914647026 -2.499999999706382 -9 0.91506351643986317 -3.4150635091400758 -9 0.91506351643986317 -3.4150635091400758 -12 -0.66987297914647026 -2.499999999706382 -12 6.9142305214597846e-09 -5 -9 0.91506351643986317 -3.4150635091400758 -12 -0.66987297914647026 -2.499999999706382 -9 6.9142305214597846e-09 -5 -9 -2.5000000000000022 -4.3301270189221919 -9 -0.66987297914647026 -2.499999999706382 -9 -0.66987297914647026 -2.499999999706382 -12 -2.5000000000000022 -4.3301270189221919 -12 6.9142305214597846e-09 -5 -12 -0.66987297914647026 -2.499999999706382 -12 6.9142305214597846e-09 -5 -9 0.20080558631870429 0.033909897404034287 -12 -0.66987297914647026 -2.499999999706382 -12 0.95458002071209891 -1.657898275923388 -12 -0.66987297914647026 -2.499999999706382 -9 0.95458002071209891 -1.657898275923388 -12 -0.66987297914647026 -2.499999999706382 -9 0.91506351643986317 -3.4150635091400758 -12 0.91506351643986317 -3.4150635091400758 -9 -0.66987297914647026 -2.499999999706382 -9 0.20080558631870429 0.033909897404034287 -9 0.95458002071209891 -1.657898275923388 -9 0.95458002071209891 -1.657898275923388 -12 0.95458002071209891 -1.657898275923388 -12 -0.66987297914647026 -2.499999999706382 -12 0.91506351643986317 -3.4150635091400758 -12 -0.66987297914647026 -2.499999999706382 -9 -0.66987297914647026 -2.499999999706382 -9 0.95458002071209891 -1.657898275923388 -9 0.91506351643986317 -3.4150635091400758 -9 0.95458002071209891 -1.657898275923388 -12 0.95458002071209891 -1.657898275923388 -9 2.3883545080289421 -0.94497882694672608 -9 2.217625015551433 -2.5696135239339939 -9 2.217625015551433 -2.5696135239339939 -12 2.3883545080289421 -0.94497882694672608 -12 0.95458002071209891 -1.657898275923388 -12 2.217625015551433 -2.5696135239339939 -12 2.3883545080289421 -0.94497882694672608 -9 2.3883545080289421 -0.94497882694672608 -9 0.95458002071209891 -1.657898275923388 -9 0.95458002071209891 -1.657898275923388 -12 2.217625015551433 -2.5696135239339939 -12 0.95458002071209891 -1.657898275923388 -12 0.91506351643986317 -3.4150635091400758 -9 2.217625015551433 -2.5696135239339939 -12 0.95458002071209891 -1.657898275923388 -9 0.95458002071209891 -1.657898275923388 -12 0.91506351643986317 -3.4150635091400758 -12 2.217625015551433 -2.5696135239339939 -12 0.91506351643986317 -3.4150635091400758 -9 0.91506351643986317 -3.4150635091400758 -9 0.95458002071209891 -1.657898275923388 -9 2.217625015551433 -2.5696135239339939 -9 2.217625015551433 -2.5696135239339939 -12 6.9142305214597846e-09 -5 -12 2.500000010727558 -4.3301270127286351 -12 0.91506351643986317 -3.4150635091400758 -12 2.500000010727558 -4.3301270127286351 -9 2.500000010727558 -4.3301270127286351 -9 6.9142305214597846e-09 -5 -9 0.91506351643986317 -3.4150635091400758 -9 0.91506351643986317 -3.4150635091400758 -12 6.9142305214597846e-09 -5 -12 2.500000010727558 -4.3301270127286351 -9 0.91506351643986317 -3.4150635091400758 -12 6.9142305214597846e-09 -5 -9 0.91506351643986317 -3.4150635091400758 -12 2.500000010727558 -4.3301270127286351 -9 2.217625015551433 -2.5696135239339939 -12 0.91506351643986317 -3.4150635091400758 -9 0.91506351643986317 -3.4150635091400758 -12 2.500000010727558 -4.3301270127286351 -12 2.217625015551433 -2.5696135239339939 -12 2.500000010727558 -4.3301270127286351 -9 2.500000010727558 -4.3301270127286351 -9 0.91506351643986317 -3.4150635091400758 -9 2.217625015551433 -2.5696135239339939 -9 2.217625015551433 -2.5696135239339939 -12 6.9142305214597846e-09 -5 -9 2.500000010727558 -4.3301270127286351 -9 0.91506351643986317 -3.4150635091400758 -9 2.500000010727558 -4.3301270127286351 -6 0.91506351643986317 -3.4150635091400758 -9 2.500000010727558 -4.3301270127286351 -9 2.217625015551433 -2.5696135239339939 -9 2.500000010727558 -4.3301270127286351 -6 0.95458002071209891 -1.657898275923388 -9 0.91506351643986317 -3.4150635091400758 -9 2.217625015551433 -2.5696135239339939 -9 0.91506351643986317 -3.4150635091400758 -6 2.3883545080289421 -0.94497882694672608 -9 0.95458002071209891 -1.657898275923388 -9 2.217625015551433 -2.5696135239339939 -9 2.3883545080289421 -0.94497882694672608 -6 0.95458002071209891 -1.657898275923388 -9 -0.66987297914647026 -2.499999999706382 -9 0.91506351643986317 -3.4150635091400758 -9 -0.66987297914647026 -2.499999999706382 -6 0.20080558631870429 0.033909897404034287 -9 -0.66987297914647026 -2.499999999706382 -9 0.95458002071209891 -1.657898275923388 -9 -0.66987297914647026 -2.499999999706382 -6 -2.5000000000000022 -4.3301270189221919 -9 6.9142305214597846e-09 -5 -9 -0.66987297914647026 -2.499999999706382 -9 6.9142305214597846e-09 -5 -6 -0.66987297914647026 -2.499999999706382 -9 6.9142305214597846e-09 -5 -9 0.91506351643986317 -3.4150635091400758 -9 6.9142305214597846e-09 -5 -6 -2.5000000000000022 -4.3301270189221919 -9 -0.66987297914647026 -2.499999999706382 -9 -2.9547160992544761 -1.820741508163664 -9 -2.5000000000000022 -4.3301270189221919 -6 -4.3301270160527148 -2.500000004970083 -9 -2.5000000000000022 -4.3301270189221919 -9 -2.9547160992544761 -1.820741508163664 -9 -2.5000000000000022 -4.3301270189221919 -6 -2.5000000000000022 -4.3301270189221919 -12 6.9142305214597846e-09 -5 -9 -0.66987297914647026 -2.499999999706382 -12 -2.5000000000000022 -4.3301270189221919 -9 -2.5000000000000022 -4.3301270189221919 -12 -0.66987297914647026 -2.499999999706382 -12 -2.9547160992544761 -1.820741508163664 -12 -2.5000000000000022 -4.3301270189221919 -9 -4.3301270160527148 -2.500000004970083 -12 -2.5000000000000022 -4.3301270189221919 -12 -2.9547160992544761 -1.820741508163664 -12 -2.5000000000000022 -4.3301270189221919 -9 -2.2735805010731909 0.22641949675281539 -9 -0.66987297914647026 -2.499999999706382 -9 -2.9547160992544761 -1.820741508163664 -9 -2.9547160992544761 -1.820741508163664 -12 -0.66987297914647026 -2.499999999706382 -9 -2.5000000000000022 -4.3301270189221919 -9 -2.9547160992544761 -1.820741508163664 -9 -2.9547160992544761 -1.820741508163664 -12 -2.5000000000000022 -4.3301270189221919 -9 -0.66987297914647026 -2.499999999706382 -9 -0.66987297914647026 -2.499999999706382 -12 -2.9547160992544761 -1.820741508163664 -12 -0.66987297914647026 -2.499999999706382 -12 -2.2735805010731909 0.22641949675281539 -9 -2.9547160992544761 -1.820741508163664 -12 -0.66987297914647026 -2.499999999706382 -9 -2.5000000000000022 -4.3301270189221919 -9 -4.3301270160527148 -2.500000004970083 -9 -2.9547160992544761 -1.820741508163664 -9 -2.9547160992544761 -1.820741508163664 -12 -4.3301270160527148 -2.500000004970083 -12 -2.5000000000000022 -4.3301270189221919 -9 -2.9547160992544761 -1.820741508163664 -12 -4.3301270160527148 -2.500000004970083 -9 -4.3301270160527148 -2.500000004970083 -9 -5 -1.397247784140632e-08 -9 -2.9547160992544761 -1.820741508163664 -9 -2.9547160992544761 -1.820741508163664 -12 -5 -1.397247784140632e-08 -12 -4.3301270160527148 -2.500000004970083 -12 -2.9547160992544761 -1.820741508163664 -12 -4.3301270160527148 -2.500000004970083 -9 -5 -1.397247784140632e-08 -9 -4.3301270160527148 -2.500000004970083 -9 -2.9547160992544761 -1.820741508163664 -9 -4.3301270160527148 -2.500000004970083 -6 -2.2735805010731909 0.22641949675281539 -9 -0.66987297914647026 -2.499999999706382 -9 0.20080558631870429 0.033909897404034287 -9 -2.2735805010731909 0.22641949675281539 -6 -0.66987297914647026 -2.499999999706382 -9 -2.2735805010731909 0.22641949675281539 -9 -2.9547160992544761 -1.820741508163664 -9 -2.2735805010731909 0.22641949675281539 -6 -2.2735805010731909 0.22641949675281539 -9 0.20080558631870429 0.033909897404034287 -9 -0.91506351183037493 1.5849364925866429 -9 -2.2735805010731909 0.22641949675281539 -6 -2.2735805010731909 0.22641949675281539 -9 -5 -1.397247784140632e-08 -9 -2.9547160992544761 -1.820741508163664 -9 -5 -1.397247784140632e-08 -6 -5 -1.397247784140632e-08 -9 -2.2735805010731909 0.22641949675281539 -9 -2.9547160992544761 -1.820741508163664 -9 -2.9547160992544761 -1.820741508163664 -12 -2.2735805010731909 0.22641949675281539 -12 -5 -1.397247784140632e-08 -12 -2.9547160992544761 -1.820741508163664 -12 -5 -1.397247784140632e-08 -9 -2.2735805010731909 0.22641949675281539 -12 -5 -1.397247784140632e-08 -9 -2.9547160992544761 -1.820741508163664 -12 -2.2735805010731909 0.22641949675281539 -9 -5 -1.397247784140632e-08 -12 -4.3301270160527148 -2.500000004970083 -9 -2.9547160992544761 -1.820741508163664 -12 -5 -1.397247784140632e-08 -9 -0.66987297914647026 -2.499999999706382 -12 -2.2735805010731909 0.22641949675281539 -12 -2.9547160992544761 -1.820741508163664 -12 -2.2735805010731909 0.22641949675281539 -9 -2.2735805010731909 0.22641949675281539 -12 0.20080558631870429 0.033909897404034287 -12 -0.91506351183037493 1.5849364925866429 -12 -2.2735805010731909 0.22641949675281539 -9 -2.2735805010731909 0.22641949675281539 -12 -0.66987297914647026 -2.499999999706382 -12 0.20080558631870429 0.033909897404034287 -12 -2.2735805010731909 0.22641949675281539 -9 -1.107852388446384 3.1911857209629071 -9 -0.91506351183037493 1.5849364925866429 -9 -2.2253246846922492 2.366533744740174 -9 -2.2253246846922492 2.366533744740174 -12 -2.2735805010731909 0.22641949675281539 -12 -0.91506351183037493 1.5849364925866429 -12 -2.2253246846922492 2.366533744740174 -12 -2.2735805010731909 0.22641949675281539 -9 -0.91506351183037493 1.5849364925866429 -12 -1.107852388446384 3.1911857209629071 -12 -2.2253246846922492 2.366533744740174 -12 -0.91506351183037493 1.5849364925866429 -9 -0.91506351183037493 1.5849364925866429 -9 -2.2735805010731909 0.22641949675281539 -9 -2.2253246846922492 2.366533744740174 -9 -2.2253246846922492 2.366533744740174 -12 -2.2735805010731909 0.22641949675281539 -9 -0.91506351183037493 1.5849364925866429 -9 -0.91506351183037493 1.5849364925866429 -12 -2.2253246846922492 2.366533744740174 -12 -2.2735805010731909 0.22641949675281539 -9 -4.3301270221112951 2.4999999944763132 -9 -2.2253246846922492 2.366533744740174 -9 -2.2253246846922492 2.366533744740174 -12 -4.3301270221112951 2.4999999944763132 -9 -2.2735805010731909 0.22641949675281539 -9 -2.2735805010731909 0.22641949675281539 -12 -2.2253246846922492 2.366533744740174 -12 -4.3301270221112951 2.4999999944763132 -12 -5 -1.397247784140632e-08 -9 -2.2735805010731909 0.22641949675281539 -12 -4.3301270221112951 2.4999999944763132 -9 -4.3301270221112951 2.4999999944763132 -12 -5 -1.397247784140632e-08 -12 -2.2735805010731909 0.22641949675281539 -12 -5 -1.397247784140632e-08 -9 -5 -1.397247784140632e-08 -9 -4.3301270221112951 2.4999999944763132 -9 -2.2735805010731909 0.22641949675281539 -9 -2.2735805010731909 0.22641949675281539 -12 -4.3301270221112951 2.4999999944763132 -12 -2.2735805010731909 0.22641949675281539 -12 -2.2253246846922492 2.366533744740174 -12 -4.3301270221112951 2.4999999944763132 -9 -4.3301270221112951 2.4999999944763132 -9 -5 -1.397247784140632e-08 -9 -2.2735805010731909 0.22641949675281539 -9 -5 -1.397247784140632e-08 -6 -4.3301270221112951 2.4999999944763132 -9 -2.2735805010731909 0.22641949675281539 -9 -2.2253246846922492 2.366533744740174 -9 -4.3301270221112951 2.4999999944763132 -6 -0.91506351183037493 1.5849364925866429 -9 -1.107852388446384 3.1911857209629071 -9 -2.2253246846922492 2.366533744740174 -9 -0.91506351183037493 1.5849364925866429 -6 -2.2735805010731909 0.22641949675281539 -9 -0.91506351183037493 1.5849364925866429 -9 -2.2253246846922492 2.366533744740174 -9 -2.2735805010731909 0.22641949675281539 -6 0.20080558631870429 0.033909897404034287 -9 0.37580157663508379 2.5408650916807378 -9 -0.91506351183037493 1.5849364925866429 -9 0.20080558631870429 0.033909897404034287 -6 -0.91506351183037493 1.5849364925866429 -9 0.37580157663508379 2.5408650916807378 -9 -1.107852388446384 3.1911857209629071 -9 0.37580157663508379 2.5408650916807378 -6 0.20080558631870429 0.033909897404034287 -9 2.3883545080289421 -0.94497882694672608 -9 2.465848112410058 1.4099871989758821 -9 2.3883545080289421 -0.94497882694672608 -6 2.3883545080289421 -0.94497882694672608 -9 0.20080558631870429 0.033909897404034287 -9 0.95458002071209891 -1.657898275923388 -9 2.3883545080289421 -0.94497882694672608 -6 0.37580157663508379 2.5408650916807378 -9 0.20080558631870429 0.033909897404034287 -9 2.465848112410058 1.4099871989758821 -9 0.20080558631870429 0.033909897404034287 -6 0.37580157663508379 2.5408650916807378 -12 0.20080558631870429 0.033909897404034287 -9 2.465848112410058 1.4099871989758821 -12 0.37580157663508379 2.5408650916807378 -9 0.37580157663508379 2.5408650916807378 -9 2.4999999879139869 4.3301270259000564 -9 2.465848112410058 1.4099871989758821 -9 2.465848112410058 1.4099871989758821 -12 0.20080558631870429 0.033909897404034287 -9 0.37580157663508379 2.5408650916807378 -9 2.465848112410058 1.4099871989758821 -9 2.465848112410058 1.4099871989758821 -12 0.37580157663508379 2.5408650916807378 -12 0.20080558631870429 0.033909897404034287 -12 2.465848112410058 1.4099871989758821 -12 0.20080558631870429 0.033909897404034287 -9 2.3883545080289421 -0.94497882694672608 -12 0.20080558631870429 0.033909897404034287 -12 0.95458002071209891 -1.657898275923388 -12 2.3883545080289421 -0.94497882694672608 -9 2.3883545080289421 -0.94497882694672608 -9 0.20080558631870429 0.033909897404034287 -9 0.20080558631870429 0.033909897404034287 -12 0.95458002071209891 -1.657898275923388 -12 2.3883545080289421 -0.94497882694672608 -9 0.20080558631870429 0.033909897404034287 -9 2.465848112410058 1.4099871989758821 -9 2.465848112410058 1.4099871989758821 -12 0.20080558631870429 0.033909897404034287 -12 2.3883545080289421 -0.94497882694672608 -12 2.465848112410058 1.4099871989758821 -12 2.3883545080289421 -0.94497882694672608 -9 0.20080558631870429 0.033909897404034287 -12 2.3883545080289421 -0.94497882694672608 -9 2.465848112410058 1.4099871989758821 -12 0.20080558631870429 0.033909897404034287 -9 0.20080558631870429 0.033909897404034287 -9 2.3883545080289421 -0.94497882694672608 -9 0.95458002071209891 -1.657898275923388 -9 0.95458002071209891 -1.657898275923388 -12 -2.2735805010731909 0.22641949675281539 -9 0.20080558631870429 0.033909897404034287 -9 0.20080558631870429 0.033909897404034287 -12 -0.91506351183037493 1.5849364925866429 -12 -2.2735805010731909 0.22641949675281539 -9 -0.66987297914647026 -2.499999999706382 -9 -0.66987297914647026 -2.499999999706382 -12 0.20080558631870429 0.033909897404034287 -12 0.20080558631870429 0.033909897404034287 -12 -0.66987297914647026 -2.499999999706382 -9 0.95458002071209891 -1.657898275923388 -12 0.20080558631870429 0.033909897404034287 -9 -0.66987297914647026 -2.499999999706382 -9 -2.2735805010731909 0.22641949675281539 -9 0.20080558631870429 0.033909897404034287 -9 0.20080558631870429 0.033909897404034287 -12 0.20080558631870429 0.033909897404034287 -9 -2.2735805010731909 0.22641949675281539 -9 -0.91506351183037493 1.5849364925866429 -9 -0.91506351183037493 1.5849364925866429 -12 0.37580157663508379 2.5408650916807378 -9 0.20080558631870429 0.033909897404034287 -9 -0.91506351183037493 1.5849364925866429 -9 -0.91506351183037493 1.5849364925866429 -12 0.20080558631870429 0.033909897404034287 -12 0.37580157663508379 2.5408650916807378 -12 -0.91506351183037493 1.5849364925866429 -12 0.20080558631870429 0.033909897404034287 -9 0.20080558631870429 0.033909897404034287 -9 0.37580157663508379 2.5408650916807378 -9 0.37580157663508379 2.5408650916807378 -12 -0.91506351183037493 1.5849364925866429 -12 -0.91506351183037493 1.5849364925866429 -12 0.37580157663508379 2.5408650916807378 -9 -1.107852388446384 3.1911857209629071 -12 -0.91506351183037493 1.5849364925866429 -9 -0.91506351183037493 1.5849364925866429 -12 0.37580157663508379 2.5408650916807378 -12 -1.107852388446384 3.1911857209629071 -12 0.37580157663508379 2.5408650916807378 -9 0.20080558631870429 0.033909897404034287 -12 -2.2735805010731909 0.22641949675281539 -12 -0.91506351183037493 1.5849364925866429 -12 -0.91506351183037493 1.5849364925866429 -15 0.37580157663508379 2.5408650916807378 -12 0.20080558631870429 0.033909897404034287 -12 -0.91506351183037493 1.5849364925866429 -12 -0.91506351183037493 1.5849364925866429 -15 -0.66987297914647026 -2.499999999706382 -12 -2.2735805010731909 0.22641949675281539 -12 0.20080558631870429 0.033909897404034287 -12 0.20080558631870429 0.033909897404034287 -15 2.3883545080289421 -0.94497882694672608 -12 0.20080558631870429 0.033909897404034287 -12 2.465848112410058 1.4099871989758821 -12 2.465848112410058 1.4099871989758821 -15 0.20080558631870429 0.033909897404034287 -12 2.3883545080289421 -0.94497882694672608 -12 0.95458002071209891 -1.657898275923388 -12 0.95458002071209891 -1.657898275923388 -15 0.37580157663508379 2.5408650916807378 -12 2.4999999879139869 4.3301270259000564 -12 2.465848112410058 1.4099871989758821 -12 2.465848112410058 1.4099871989758821 -15 0.20080558631870429 0.033909897404034287 -12 0.37580157663508379 2.5408650916807378 -12 2.465848112410058 1.4099871989758821 -12 2.465848112410058 1.4099871989758821 -15 0.37580157663508379 2.5408650916807378 -15 0.20080558631870429 0.033909897404034287 -12 2.465848112410058 1.4099871989758821 -15 0.37580157663508379 2.5408650916807378 -12 0.37580157663508379 2.5408650916807378 -15 0.20080558631870429 0.033909897404034287 -15 2.465848112410058 1.4099871989758821 -15 0.20080558631870429 0.033909897404034287 -12 0.20080558631870429 0.033909897404034287 -15 2.3883545080289421 -0.94497882694672608 -15 2.465848112410058 1.4099871989758821 -15 2.3883545080289421 -0.94497882694672608 -12 2.3883545080289421 -0.94497882694672608 -12 0.20080558631870429 0.033909897404034287 -12 0.20080558631870429 0.033909897404034287 -15 0.95458002071209891 -1.657898275923388 -15 0.20080558631870429 0.033909897404034287 -15 2.3883545080289421 -0.94497882694672608 -12 2.465848112410058 1.4099871989758821 -15 0.20080558631870429 0.033909897404034287 -12 2.3883545080289421 -0.94497882694672608 -15 0.20080558631870429 0.033909897404034287 -15 0.95458002071209891 -1.657898275923388 -15 2.3883545080289421 -0.94497882694672608 -12 -2.2735805010731909 0.22641949675281539 -12 -0.66987297914647026 -2.499999999706382 -12 -0.66987297914647026 -2.499999999706382 -15 0.20080558631870429 0.033909897404034287 -15 -2.2735805010731909 0.22641949675281539 -12 0.20080558631870429 0.033909897404034287 -12 0.20080558631870429 0.033909897404034287 -15 -0.91506351183037493 1.5849364925866429 -15 0.20080558631870429 0.033909897404034287 -15 -0.66987297914647026 -2.499999999706382 -12 0.95458002071209891 -1.657898275923388 -15 0.20080558631870429 0.033909897404034287 -12 0.20080558631870429 0.033909897404034287 -12 0.37580157663508379 2.5408650916807378 -12 0.37580157663508379 2.5408650916807378 -15 -0.91506351183037493 1.5849364925866429 -15 -0.91506351183037493 1.5849364925866429 -15 0.37580157663508379 2.5408650916807378 -15 -1.107852388446384 3.1911857209629071 -15 0.37580157663508379 2.5408650916807378 -12 -0.91506351183037493 1.5849364925866429 -15 0.37580157663508379 2.5408650916807378 -12 -1.107852388446384 3.1911857209629071 -15 -0.91506351183037493 1.5849364925866429 -12 0.20080558631870429 0.033909897404034287 -15 0.37580157663508379 2.5408650916807378 -15 -0.91506351183037493 1.5849364925866429 -15 0.20080558631870429 0.033909897404034287 -12 -2.2735805010731909 0.22641949675281539 -12 -0.91506351183037493 1.5849364925866429 -12 -0.91506351183037493 1.5849364925866429 -15 -2.2253246846922492 2.366533744740174 -15 -2.2735805010731909 0.22641949675281539 -15 -0.91506351183037493 1.5849364925866429 -15 -2.2253246846922492 2.366533744740174 -15 -2.2735805010731909 0.22641949675281539 -12 -4.3301270221112951 2.4999999944763132 -12 -2.2735805010731909 0.22641949675281539 -12 -2.2735805010731909 0.22641949675281539 -15 -2.2253246846922492 2.366533744740174 -15 -0.91506351183037493 1.5849364925866429 -15 -1.107852388446384 3.1911857209629071 -15 -2.2253246846922492 2.366533744740174 -15 -0.91506351183037493 1.5849364925866429 -12 -0.91506351183037493 1.5849364925866429 -12 -2.2735805010731909 0.22641949675281539 -12 -2.2253246846922492 2.366533744740174 -12 -2.2253246846922492 2.366533744740174 -15 -2.2735805010731909 0.22641949675281539 -12 -4.3301270221112951 2.4999999944763132 -12 -2.2253246846922492 2.366533744740174 -12 -2.2253246846922492 2.366533744740174 -15 -1.107852388446384 3.1911857209629071 -12 -0.91506351183037493 1.5849364925866429 -12 -2.2253246846922492 2.366533744740174 -12 -2.2253246846922492 2.366533744740174 -15 -0.66987297914647026 -2.499999999706382 -15 -2.2735805010731909 0.22641949675281539 -15 -2.9547160992544761 -1.820741508163664 -15 -2.2735805010731909 0.22641949675281539 -12 -2.2735805010731909 0.22641949675281539 -15 0.20080558631870429 0.033909897404034287 -15 -0.91506351183037493 1.5849364925866429 -15 -2.2735805010731909 0.22641949675281539 -12 -2.2735805010731909 0.22641949675281539 -15 -0.66987297914647026 -2.499999999706382 -15 0.20080558631870429 0.033909897404034287 -15 -2.2735805010731909 0.22641949675281539 -12 -5 -1.397247784140632e-08 -15 -4.3301270160527148 -2.500000004970083 -12 -2.9547160992544761 -1.820741508163664 -15 -5 -1.397247784140632e-08 -12 -2.2735805010731909 0.22641949675281539 -15 -5 -1.397247784140632e-08 -12 -2.9547160992544761 -1.820741508163664 -15 -2.2735805010731909 0.22641949675281539 -12 -2.2735805010731909 0.22641949675281539 -15 -5 -1.397247784140632e-08 -15 -2.9547160992544761 -1.820741508163664 -15 -5 -1.397247784140632e-08 -12 -5 -1.397247784140632e-08 -12 -2.2735805010731909 0.22641949675281539 -12 -2.9547160992544761 -1.820741508163664 -12 -2.9547160992544761 -1.820741508163664 -15 -5 -1.397247784140632e-08 -12 -4.3301270221112951 2.4999999944763132 -12 -2.2735805010731909 0.22641949675281539 -12 -2.2735805010731909 0.22641949675281539 -15 -4.3301270221112951 2.4999999944763132 -15 -5 -1.397247784140632e-08 -15 -2.2735805010731909 0.22641949675281539 -15 -5 -1.397247784140632e-08 -12 -4.3301270221112951 2.4999999944763132 -15 -5 -1.397247784140632e-08 -12 -2.2735805010731909 0.22641949675281539 -15 -4.3301270221112951 2.4999999944763132 -12 -4.3301270221112951 2.4999999944763132 -15 -2.2735805010731909 0.22641949675281539 -15 -2.2253246846922492 2.366533744740174 -15 -4.3301270221112951 2.4999999944763132 -12 -2.4999999999999991 4.3301270189221936 -15 -4.3301270221112951 2.4999999944763132 -15 -2.2253246846922492 2.366533744740174 -15 -4.3301270221112951 2.4999999944763132 -12 -0.91506351183037493 1.5849364925866429 -12 -1.107852388446384 3.1911857209629071 -12 -1.107852388446384 3.1911857209629071 -15 -2.2253246846922492 2.366533744740174 -15 -2.4999999999999991 4.3301270189221936 -15 -4.3301270221112951 2.4999999944763132 -12 -2.2253246846922492 2.366533744740174 -15 -2.4999999999999991 4.3301270189221936 -12 -1.107852388446384 3.1911857209629071 -15 -2.4999999999999991 4.3301270189221936 -15 -2.2253246846922492 2.366533744740174 -15 -2.4999999999999991 4.3301270189221936 -12 -1.107852388446384 3.1911857209629071 -15 -2.4999999999999991 4.3301270189221936 -12 -2.2253246846922492 2.366533744740174 -15 -1.107852388446384 3.1911857209629071 -12 -6.2995949836986492e-09 5 -15 -2.4999999999999991 4.3301270189221936 -15 -1.107852388446384 3.1911857209629071 -15 -2.4999999999999991 4.3301270189221936 -12 -2.4999999999999991 4.3301270189221936 -12 -1.107852388446384 3.1911857209629071 -12 -2.2253246846922492 2.366533744740174 -12 -2.2253246846922492 2.366533744740174 -15 -4.3301270221112951 2.4999999944763132 -12 -2.4999999999999991 4.3301270189221936 -12 -2.2253246846922492 2.366533744740174 -12 -2.2253246846922492 2.366533744740174 -15 -2.4999999999999991 4.3301270189221936 -12 -4.3301270221112951 2.4999999944763132 -12 -2.2253246846922492 2.366533744740174 -12 -4.3301270221112951 2.4999999944763132 -9 -6.2995949836986492e-09 5 -12 -2.4999999999999991 4.3301270189221936 -12 -1.107852388446384 3.1911857209629071 -12 -2.4999999999999991 4.3301270189221936 -9 -0.91506351183037493 1.5849364925866429 -9 -1.107852388446384 3.1911857209629071 -9 -1.107852388446384 3.1911857209629071 -12 -2.2253246846922492 2.366533744740174 -12 -2.4999999999999991 4.3301270189221936 -12 -4.3301270221112951 2.4999999944763132 -9 -2.2253246846922492 2.366533744740174 -12 -2.4999999999999991 4.3301270189221936 -9 -4.3301270221112951 2.4999999944763132 -9 -2.4999999999999991 4.3301270189221936 -9 -2.2253246846922492 2.366533744740174 -9 -2.2253246846922492 2.366533744740174 -12 -2.4999999999999991 4.3301270189221936 -9 -1.107852388446384 3.1911857209629071 -9 -2.2253246846922492 2.366533744740174 -9 -2.2253246846922492 2.366533744740174 -12 -1.107852388446384 3.1911857209629071 -12 -2.4999999999999991 4.3301270189221936 -12 -2.2253246846922492 2.366533744740174 -12 -2.4999999999999991 4.3301270189221936 -9 -1.107852388446384 3.1911857209629071 -12 -2.4999999999999991 4.3301270189221936 -9 -2.2253246846922492 2.366533744740174 -12 -1.107852388446384 3.1911857209629071 -9 -6.2995949836986492e-09 5 -9 -2.4999999999999991 4.3301270189221936 -9 -1.107852388446384 3.1911857209629071 -9 -2.4999999999999991 4.3301270189221936 -6 -1.107852388446384 3.1911857209629071 -9 -2.4999999999999991 4.3301270189221936 -9 -2.2253246846922492 2.366533744740174 -9 -2.4999999999999991 4.3301270189221936 -6 -2.4999999999999991 4.3301270189221936 -9 -4.3301270221112951 2.4999999944763132 -9 -2.2253246846922492 2.366533744740174 -9 -4.3301270221112951 2.4999999944763132 -6 -6.2995949836986492e-09 5 -12 -2.4999999999999991 4.3301270189221936 -9 -1.107852388446384 3.1911857209629071 -12 -6.2995949836986492e-09 5 -9 2.4999999879139869 4.3301270259000564 -9 -6.2995949836986492e-09 5 -9 0.37580157663508379 2.5408650916807378 -9 -6.2995949836986492e-09 5 -6 2.4999999879139869 4.3301270259000564 -9 0.37580157663508379 2.5408650916807378 -9 2.465848112410058 1.4099871989758821 -9 2.4999999879139869 4.3301270259000564 -6 0.37580157663508379 2.5408650916807378 -9 -6.2995949836986492e-09 5 -9 -1.107852388446384 3.1911857209629071 -9 -6.2995949836986492e-09 5 -6 0.37580157663508379 2.5408650916807378 -9 -0.91506351183037493 1.5849364925866429 -9 -1.107852388446384 3.1911857209629071 -9 -1.107852388446384 3.1911857209629071 -12 0.37580157663508379 2.5408650916807378 -12 -6.2995949836986492e-09 5 -9 -1.107852388446384 3.1911857209629071 -12 0.37580157663508379 2.5408650916807378 -9 0.37580157663508379 2.5408650916807378 -12 -6.2995949836986492e-09 5 -12 -1.107852388446384 3.1911857209629071 -12 -6.2995949836986492e-09 5 -9 -2.4999999999999991 4.3301270189221936 -9 -6.2995949836986492e-09 5 -9 -1.107852388446384 3.1911857209629071 -9 -1.107852388446384 3.1911857209629071 -12 -6.2995949836986492e-09 5 -9 0.37580157663508379 2.5408650916807378 -9 -1.107852388446384 3.1911857209629071 -9 -1.107852388446384 3.1911857209629071 -12 2.4999999879139869 4.3301270259000564 -12 0.37580157663508379 2.5408650916807378 -12 2.465848112410058 1.4099871989758821 -12 2.4999999879139869 4.3301270259000564 -9 -6.2995949836986492e-09 5 -9 2.4999999879139869 4.3301270259000564 -9 0.37580157663508379 2.5408650916807378 -9 0.37580157663508379 2.5408650916807378 -12 2.4999999879139869 4.3301270259000564 -12 -6.2995949836986492e-09 5 -12 0.37580157663508379 2.5408650916807378 -12 -6.2995949836986492e-09 5 -9 2.4999999879139869 4.3301270259000564 -12 -6.2995949836986492e-09 5 -9 0.37580157663508379 2.5408650916807378 -12 2.4999999879139869 4.3301270259000564 -9 2.4999999879139869 4.3301270259000564 -9 0.37580157663508379 2.5408650916807378 -9 0.37580157663508379 2.5408650916807378 -12 2.465848112410058 1.4099871989758821 -12 -6.2995949836986492e-09 5 -12 2.4999999879139869 4.3301270259000564 -12 0.37580157663508379 2.5408650916807378 -12 0.37580157663508379 2.5408650916807378 -15 -2.4999999999999991 4.3301270189221936 -12 -6.2995949836986492e-09 5 -12 -1.107852388446384 3.1911857209629071 -12 -1.107852388446384 3.1911857209629071 -15 0.37580157663508379 2.5408650916807378 -12 -0.91506351183037493 1.5849364925866429 -12 -1.107852388446384 3.1911857209629071 -12 -1.107852388446384 3.1911857209629071 -15 -6.2995949836986492e-09 5 -12 0.37580157663508379 2.5408650916807378 -12 -1.107852388446384 3.1911857209629071 -12 -1.107852388446384 3.1911857209629071 -15 0.37580157663508379 2.5408650916807378 -15 -6.2995949836986492e-09 5 -12 -1.107852388446384 3.1911857209629071 -15 0.37580157663508379 2.5408650916807378 -12 0.37580157663508379 2.5408650916807378 -15 -6.2995949836986492e-09 5 -15 -1.107852388446384 3.1911857209629071 -15 -6.2995949836986492e-09 5 -12 -6.2995949836986492e-09 5 -15 -2.4999999999999991 4.3301270189221936 -12 -1.107852388446384 3.1911857209629071 -15 -6.2995949836986492e-09 5 -12 2.4999999879139869 4.3301270259000564 -15 -6.2995949836986492e-09 5 -12 0.37580157663508379 2.5408650916807378 -15 2.4999999879139869 4.3301270259000564 -12 2.4999999879139869 4.3301270259000564 -12 0.37580157663508379 2.5408650916807378 -12 0.37580157663508379 2.5408650916807378 -15 2.465848112410058 1.4099871989758821 -15 2.4999999879139869 4.3301270259000564 -15 0.37580157663508379 2.5408650916807378 -15 2.465848112410058 1.4099871989758821 -15 2.4999999879139869 4.3301270259000564 -12 2.4999999879139869 4.3301270259000564 -15 -6.2995949836986492e-09 5 -15 0.37580157663508379 2.5408650916807378 -15 -6.2995949836986492e-09 5 -12 4.3301270155636349 2.5000000058171929 -15 2.4999999879139869 4.3301270259000564 -12 2.465848112410058 1.4099871989758821 -15 4.3301270155636349 2.5000000058171929 -12 4.3301270155636349 2.5000000058171929 -15 2.4999999879139869 4.3301270259000564 -15 2.465848112410058 1.4099871989758821 -15 2.4999999879139869 4.3301270259000564 -12 4.3301270155636349 2.5000000058171929 -12 2.4999999879139869 4.3301270259000564 -9 2.465848112410058 1.4099871989758821 -12 4.3301270155636349 2.5000000058171929 -9 4.3301270155636349 2.5000000058171929 -12 2.4999999879139869 4.3301270259000564 -12 2.465848112410058 1.4099871989758821 -12 2.4999999879139869 4.3301270259000564 -9 4.3301270155636349 2.5000000058171929 -9 2.4999999879139869 4.3301270259000564 -9 2.465848112410058 1.4099871989758821 -9 2.4999999879139869 4.3301270259000564 -6 2.500000010727558 -4.3301270127286351 -15 4.3301270218486989 -2.4999999949311431 -12 2.217625015551433 -2.5696135239339939 -15 2.500000010727558 -4.3301270127286351 -12 4.3301270218486989 -2.4999999949311431 -12 2.500000010727558 -4.3301270127286351 -12 2.217625015551433 -2.5696135239339939 -12 2.217625015551433 -2.5696135239339939 -15 2.3883545080289421 -0.94497882694672608 -12 4.3301270218486989 -2.4999999949311431 -12 2.217625015551433 -2.5696135239339939 -12 2.217625015551433 -2.5696135239339939 -15 2.500000010727558 -4.3301270127286351 -15 4.3301270218486989 -2.4999999949311431 -15 2.217625015551433 -2.5696135239339939 -15 4.3301270218486989 -2.4999999949311431 -12 4.3301270218486989 -2.4999999949311431 -12 2.3883545080289421 -0.94497882694672608 -12 2.3883545080289421 -0.94497882694672608 -15 2.217625015551433 -2.5696135239339939 -15 4.3301270218486989 -2.4999999949311431 -15 2.3883545080289421 -0.94497882694672608 -15 2.217625015551433 -2.5696135239339939 -15 4.3301270218486989 -2.4999999949311431 -12 4.3301270218486989 -2.4999999949311431 -15 5 0 -12 2.3883545080289421 -0.94497882694672608 -15 4.3301270218486989 -2.4999999949311431 -12 4.3301270218486989 -2.4999999949311431 -15 5 0 -15 2.3883545080289421 -0.94497882694672608 -15 5 0 -12 2.3883545080289421 -0.94497882694672608 -15 5 0 -15 2.465848112410058 1.4099871989758821 -15 5 0 -12 2.3883545080289421 -0.94497882694672608 -15 5 0 -12 2.465848112410058 1.4099871989758821 -15 2.3883545080289421 -0.94497882694672608 -12 5 0 -15 4.3301270155636349 2.5000000058171929 -15 2.465848112410058 1.4099871989758821 -15 4.3301270155636349 2.5000000058171929 -12 5 0 -15 4.3301270155636349 2.5000000058171929 -12 2.465848112410058 1.4099871989758821 -15 5 0 -12 2.4999999879139869 4.3301270259000564 -12 4.3301270155636349 2.5000000058171929 -12 2.465848112410058 1.4099871989758821 -12 2.465848112410058 1.4099871989758821 -15 4.3301270155636349 2.5000000058171929 -12 5 0 -12 2.465848112410058 1.4099871989758821 -12 2.465848112410058 1.4099871989758821 -15 5 0 -12 4.3301270218486989 -2.4999999949311431 -12 2.3883545080289421 -0.94497882694672608 -12 2.3883545080289421 -0.94497882694672608 -15 5 0 -12 2.3883545080289421 -0.94497882694672608 -12 2.465848112410058 1.4099871989758821 -12 2.465848112410058 1.4099871989758821 -15 5 0 -9 4.3301270218486989 -2.4999999949311431 -9 2.3883545080289421 -0.94497882694672608 -9 2.3883545080289421 -0.94497882694672608 -12 4.3301270218486989 -2.4999999949311431 -12 5 0 -12 2.3883545080289421 -0.94497882694672608 -12 5 0 -9 2.3883545080289421 -0.94497882694672608 -12 5 0 -9 2.465848112410058 1.4099871989758821 -12 2.3883545080289421 -0.94497882694672608 -9 5 0 -9 2.3883545080289421 -0.94497882694672608 -9 2.465848112410058 1.4099871989758821 -9 2.465848112410058 1.4099871989758821 -12 2.3883545080289421 -0.94497882694672608 -12 5 0 -12 2.465848112410058 1.4099871989758821 -12 5 0 -9 2.4999999879139869 4.3301270259000564 -9 4.3301270155636349 2.5000000058171929 -9 2.465848112410058 1.4099871989758821 -9 2.465848112410058 1.4099871989758821 -12 5 0 -12 4.3301270155636349 2.5000000058171929 -9 2.465848112410058 1.4099871989758821 -12 5 0 -9 5 0 -12 4.3301270155636349 2.5000000058171929 -12 2.465848112410058 1.4099871989758821 -12 4.3301270155636349 2.5000000058171929 -9 4.3301270155636349 2.5000000058171929 -9 5 0 -9 2.465848112410058 1.4099871989758821 -9 2.465848112410058 1.4099871989758821 -12 5 0 -9 4.3301270155636349 2.5000000058171929 -9 2.465848112410058 1.4099871989758821 -9 4.3301270155636349 2.5000000058171929 -6 4.3301270218486989 -2.4999999949311431 -9 5 0 -9 2.3883545080289421 -0.94497882694672608 -9 5 0 -6 2.3883545080289421 -0.94497882694672608 -9 5 0 -9 2.465848112410058 1.4099871989758821 -9 5 0 -6 4.3301270218486989 -2.4999999949311431 -9 2.3883545080289421 -0.94497882694672608 -9 2.217625015551433 -2.5696135239339939 -9 4.3301270218486989 -2.4999999949311431 -6 2.500000010727558 -4.3301270127286351 -9 4.3301270218486989 -2.4999999949311431 -9 2.217625015551433 -2.5696135239339939 -9 4.3301270218486989 -2.4999999949311431 -6 4.3301270218486989 -2.4999999949311431 -12 2.3883545080289421 -0.94497882694672608 -12 2.217625015551433 -2.5696135239339939 -12 4.3301270218486989 -2.4999999949311431 -9 2.3883545080289421 -0.94497882694672608 -9 4.3301270218486989 -2.4999999949311431 -9 2.217625015551433 -2.5696135239339939 -9 2.217625015551433 -2.5696135239339939 -12 4.3301270218486989 -2.4999999949311431 -12 5 0 -9 2.3883545080289421 -0.94497882694672608 -12 4.3301270218486989 -2.4999999949311431 -9 4.3301270218486989 -2.4999999949311431 -9 2.3883545080289421 -0.94497882694672608 -9 2.3883545080289421 -0.94497882694672608 -12 2.217625015551433 -2.5696135239339939 -12 4.3301270218486989 -2.4999999949311431 -9 2.500000010727558 -4.3301270127286351 -9 2.217625015551433 -2.5696135239339939 -9 2.217625015551433 -2.5696135239339939 -12 2.500000010727558 -4.3301270127286351 -12 4.3301270218486989 -2.4999999949311431 -12 2.217625015551433 -2.5696135239339939 -12 4.3301270218486989 -2.4999999949311431 -9 2.500000010727558 -4.3301270127286351 -12 4.3301270218486989 -2.4999999949311431 -9 2.217625015551433 -2.5696135239339939 -12 2.500000010727558 -4.3301270127286351 -9 2.500000010727558 -4.3301270127286351 -9 4.3301270218486989 -2.4999999949311431 -6 2.217625015551433 -2.5696135239339939 -9 2.500000010727558 -4.3301270127286351 -6 2.500000010727558 -4.3301270127286351 -6 4.3301270218486989 -2.4999999949311431 -3 2.217625015551433 -2.5696135239339939 -6 2.500000010727558 -4.3301270127286351 -3 4.3301270218486989 -2.4999999949311431 -3 2.3883545080289421 -0.94497882694672608 -3 2.3883545080289421 -0.94497882694672608 -6 2.217625015551433 -2.5696135239339939 -6 4.3301270218486989 -2.4999999949311431 -6 2.3883545080289421 -0.94497882694672608 -6 2.217625015551433 -2.5696135239339939 -6 4.3301270218486989 -2.4999999949311431 -3 4.3301270218486989 -2.4999999949311431 -6 5 0 -3 2.3883545080289421 -0.94497882694672608 -6 4.3301270218486989 -2.4999999949311431 -3 2.500000010727558 -4.3301270127286351 -6 4.3301270218486989 -2.4999999949311431 -6 2.217625015551433 -2.5696135239339939 -6 4.3301270218486989 -2.4999999949311431 -3 4.3301270218486989 -2.4999999949311431 -6 2.500000010727558 -4.3301270127286351 -6 2.217625015551433 -2.5696135239339939 -6 2.217625015551433 -2.5696135239339939 -9 2.3883545080289421 -0.94497882694672608 -6 4.3301270218486989 -2.4999999949311431 -6 2.217625015551433 -2.5696135239339939 -6 2.217625015551433 -2.5696135239339939 -9 4.3301270218486989 -2.4999999949311431 -9 5 0 -6 2.3883545080289421 -0.94497882694672608 -9 4.3301270218486989 -2.4999999949311431 -6 4.3301270218486989 -2.4999999949311431 -6 2.3883545080289421 -0.94497882694672608 -6 2.3883545080289421 -0.94497882694672608 -9 2.217625015551433 -2.5696135239339939 -9 2.3883545080289421 -0.94497882694672608 -9 5 0 -6 2.465848112410058 1.4099871989758821 -9 2.3883545080289421 -0.94497882694672608 -6 5 0 -6 4.3301270218486989 -2.4999999949311431 -6 2.3883545080289421 -0.94497882694672608 -6 2.3883545080289421 -0.94497882694672608 -9 5 0 -6 2.3883545080289421 -0.94497882694672608 -6 2.465848112410058 1.4099871989758821 -6 2.465848112410058 1.4099871989758821 -9 5 0 -9 4.3301270155636349 2.5000000058171929 -6 2.465848112410058 1.4099871989758821 -9 5 0 -6 4.3301270155636349 2.5000000058171929 -6 5 0 -6 2.465848112410058 1.4099871989758821 -6 2.465848112410058 1.4099871989758821 -9 2.4999999879139869 4.3301270259000564 -6 4.3301270155636349 2.5000000058171929 -6 2.465848112410058 1.4099871989758821 -6 2.465848112410058 1.4099871989758821 -9 5 0 -6 4.3301270155636349 2.5000000058171929 -3 2.465848112410058 1.4099871989758821 -6 5 0 -3 5 0 -6 4.3301270155636349 2.5000000058171929 -6 2.465848112410058 1.4099871989758821 -6 4.3301270155636349 2.5000000058171929 -3 2.3883545080289421 -0.94497882694672608 -6 5 0 -6 2.465848112410058 1.4099871989758821 -6 5 0 -3 2.3883545080289421 -0.94497882694672608 -6 5 0 -3 2.465848112410058 1.4099871989758821 -6 2.3883545080289421 -0.94497882694672608 -3 4.3301270218486989 -2.4999999949311431 -6 5 0 -6 2.3883545080289421 -0.94497882694672608 -6 5 0 -3 5 0 -3 2.3883545080289421 -0.94497882694672608 -3 2.465848112410058 1.4099871989758821 -3 2.465848112410058 1.4099871989758821 -6 2.3883545080289421 -0.94497882694672608 -3 5 0 -3 2.465848112410058 1.4099871989758821 -3 5 0 0 4.3301270218486989 -2.4999999949311431 -3 5 0 -3 2.3883545080289421 -0.94497882694672608 -3 5 0 0 5 0 -3 4.3301270218486989 -2.4999999949311431 -3 2.3883545080289421 -0.94497882694672608 -3 2.3883545080289421 -0.94497882694672608 -6 5 0 -3 4.3301270155636349 2.5000000058171929 -3 2.465848112410058 1.4099871989758821 -3 4.3301270155636349 2.5000000058171929 0 4.3301270155636349 2.5000000058171929 -3 5 0 -3 2.465848112410058 1.4099871989758821 -3 2.465848112410058 1.4099871989758821 -6 2.4999999879139869 4.3301270259000564 -3 4.3301270155636349 2.5000000058171929 -3 2.465848112410058 1.4099871989758821 -3 2.465848112410058 1.4099871989758821 -6 2.4999999879139869 4.3301270259000564 0 4.3301270155636349 2.5000000058171929 0 2.465848112410058 1.4099871989758821 0 2.465848112410058 1.4099871989758821 -3 5 0 -3 4.3301270155636349 2.5000000058171929 0 2.465848112410058 1.4099871989758821 -3 5 0 0 4.3301270155636349 2.5000000058171929 0 5 0 0 2.465848112410058 1.4099871989758821 0 2.465848112410058 1.4099871989758821 -3 5 0 0 4.3301270218486989 -2.4999999949311431 0 2.3883545080289421 -0.94497882694672608 0 2.3883545080289421 -0.94497882694672608 -3 5 0 0 2.3883545080289421 -0.94497882694672608 0 2.465848112410058 1.4099871989758821 0 2.465848112410058 1.4099871989758821 -3 2.3883545080289421 -0.94497882694672608 -3 5 0 0 2.465848112410058 1.4099871989758821 -3 2.3883545080289421 -0.94497882694672608 0 4.3301270218486989 -2.4999999949311431 0 2.500000010727558 -4.3301270127286351 0 2.217625015551433 -2.5696135239339939 0 2.217625015551433 -2.5696135239339939 -3 2.3883545080289421 -0.94497882694672608 0 4.3301270218486989 -2.4999999949311431 0 2.217625015551433 -2.5696135239339939 0 2.217625015551433 -2.5696135239339939 -3 4.3301270218486989 -2.4999999949311431 0 2.3883545080289421 -0.94497882694672608 0 2.3883545080289421 -0.94497882694672608 -3 2.217625015551433 -2.5696135239339939 -3 4.3301270218486989 -2.4999999949311431 -3 5 0 0 2.3883545080289421 -0.94497882694672608 -3 4.3301270218486989 -2.4999999949311431 0 4.3301270218486989 -2.4999999949311431 -3 2.500000010727558 -4.3301270127286351 -3 2.217625015551433 -2.5696135239339939 -3 2.217625015551433 -2.5696135239339939 -6 4.3301270218486989 -2.4999999949311431 -3 2.3883545080289421 -0.94497882694672608 -3 2.217625015551433 -2.5696135239339939 -3 4.3301270218486989 -2.4999999949311431 0 2.3883545080289421 -0.94497882694672608 -3 4.3301270218486989 -2.4999999949311431 -3 2.217625015551433 -2.5696135239339939 -3 2.217625015551433 -2.5696135239339939 -6 2.500000010727558 -4.3301270127286351 -3 4.3301270218486989 -2.4999999949311431 -3 2.217625015551433 -2.5696135239339939 -3 4.3301270218486989 -2.4999999949311431 0 2.500000010727558 -4.3301270127286351 -3 4.3301270218486989 -2.4999999949311431 0 2.217625015551433 -2.5696135239339939 -3 2.500000010727558 -4.3301270127286351 0 4.3301270155636349 2.5000000058171929 -9 2.4999999879139869 4.3301270259000564 -6 2.465848112410058 1.4099871989758821 -9 4.3301270155636349 2.5000000058171929 -6 4.3301270155636349 2.5000000058171929 -6 2.4999999879139869 4.3301270259000564 -6 2.465848112410058 1.4099871989758821 -6 2.4999999879139869 4.3301270259000564 -3 4.3301270155636349 2.5000000058171929 -6 2.4999999879139869 4.3301270259000564 -3 2.465848112410058 1.4099871989758821 -6 4.3301270155636349 2.5000000058171929 -3 4.3301270155636349 2.5000000058171929 -3 2.4999999879139869 4.3301270259000564 -3 2.465848112410058 1.4099871989758821 -3 2.4999999879139869 4.3301270259000564 0 4.3301270155636349 2.5000000058171929 -3 2.4999999879139869 4.3301270259000564 0 2.465848112410058 1.4099871989758821 -3 4.3301270155636349 2.5000000058171929 0 -6.2995949836986492e-09 5 0 2.4999999879139869 4.3301270259000564 0 0.37580157663508379 2.5408650916807378 0 0.37580157663508379 2.5408650916807378 -3 2.4999999879139869 4.3301270259000564 0 0.37580157663508379 2.5408650916807378 0 0.37580157663508379 2.5408650916807378 -3 2.465848112410058 1.4099871989758821 -3 2.4999999879139869 4.3301270259000564 -3 -6.2995949836986492e-09 5 0 0.37580157663508379 2.5408650916807378 -3 2.4999999879139869 4.3301270259000564 0 -6.2995949836986492e-09 5 -3 -2.4999999999999991 4.3301270189221936 0 -1.107852388446384 3.1911857209629071 -3 -6.2995949836986492e-09 5 0 -6.2995949836986492e-09 5 0 0.37580157663508379 2.5408650916807378 0 -1.107852388446384 3.1911857209629071 0 -1.107852388446384 3.1911857209629071 -3 -2.4999999999999991 4.3301270189221936 0 -6.2995949836986492e-09 5 0 -1.107852388446384 3.1911857209629071 0 -1.107852388446384 3.1911857209629071 -3 0.37580157663508379 2.5408650916807378 -3 -6.2995949836986492e-09 5 0 -1.107852388446384 3.1911857209629071 -3 0.37580157663508379 2.5408650916807378 0 0.37580157663508379 2.5408650916807378 0 -0.91506351183037493 1.5849364925866429 0 -1.107852388446384 3.1911857209629071 0 -1.107852388446384 3.1911857209629071 -3 0.37580157663508379 2.5408650916807378 -3 -6.2995949836986492e-09 5 -3 -1.107852388446384 3.1911857209629071 -3 -6.2995949836986492e-09 5 0 2.4999999879139869 4.3301270259000564 -3 -6.2995949836986492e-09 5 -3 0.37580157663508379 2.5408650916807378 -3 -6.2995949836986492e-09 5 0 2.4999999879139869 4.3301270259000564 -3 0.37580157663508379 2.5408650916807378 -3 2.465848112410058 1.4099871989758821 -3 2.4999999879139869 4.3301270259000564 0 2.4999999879139869 4.3301270259000564 -3 0.37580157663508379 2.5408650916807378 -3 0.37580157663508379 2.5408650916807378 -6 2.465848112410058 1.4099871989758821 -6 2.4999999879139869 4.3301270259000564 -6 0.37580157663508379 2.5408650916807378 -6 2.465848112410058 1.4099871989758821 -6 2.4999999879139869 4.3301270259000564 -3 2.4999999879139869 4.3301270259000564 -6 -6.2995949836986492e-09 5 -3 0.37580157663508379 2.5408650916807378 -6 2.4999999879139869 4.3301270259000564 -3 2.4999999879139869 4.3301270259000564 -6 -6.2995949836986492e-09 5 -6 0.37580157663508379 2.5408650916807378 -6 -6.2995949836986492e-09 5 -3 -6.2995949836986492e-09 5 -3 2.4999999879139869 4.3301270259000564 -3 0.37580157663508379 2.5408650916807378 -3 0.37580157663508379 2.5408650916807378 -6 0.37580157663508379 2.5408650916807378 -3 -0.91506351183037493 1.5849364925866429 -3 -1.107852388446384 3.1911857209629071 -3 -1.107852388446384 3.1911857209629071 -6 -6.2995949836986492e-09 5 -3 0.37580157663508379 2.5408650916807378 -3 -1.107852388446384 3.1911857209629071 -3 -1.107852388446384 3.1911857209629071 -6 0.37580157663508379 2.5408650916807378 -6 -6.2995949836986492e-09 5 -6 -1.107852388446384 3.1911857209629071 -6 -6.2995949836986492e-09 5 -3 0.37580157663508379 2.5408650916807378 -6 -6.2995949836986492e-09 5 -3 -1.107852388446384 3.1911857209629071 -6 0.37580157663508379 2.5408650916807378 -3 -2.4999999999999991 4.3301270189221936 -3 -6.2995949836986492e-09 5 -3 -1.107852388446384 3.1911857209629071 -3 -1.107852388446384 3.1911857209629071 -6 -6.2995949836986492e-09 5 -6 0.37580157663508379 2.5408650916807378 -6 -1.107852388446384 3.1911857209629071 -6 -1.107852388446384 3.1911857209629071 -9 -2.4999999999999991 4.3301270189221936 -6 -6.2995949836986492e-09 5 -6 -1.107852388446384 3.1911857209629071 -6 -1.107852388446384 3.1911857209629071 -9 0.37580157663508379 2.5408650916807378 -9 -6.2995949836986492e-09 5 -6 -1.107852388446384 3.1911857209629071 -9 0.37580157663508379 2.5408650916807378 -6 0.37580157663508379 2.5408650916807378 -6 -0.91506351183037493 1.5849364925866429 -6 -1.107852388446384 3.1911857209629071 -6 -1.107852388446384 3.1911857209629071 -9 2.4999999879139869 4.3301270259000564 -9 -6.2995949836986492e-09 5 -6 0.37580157663508379 2.5408650916807378 -9 2.4999999879139869 4.3301270259000564 -6 -6.2995949836986492e-09 5 -6 2.4999999879139869 4.3301270259000564 -6 0.37580157663508379 2.5408650916807378 -6 0.37580157663508379 2.5408650916807378 -9 2.4999999879139869 4.3301270259000564 -6 0.37580157663508379 2.5408650916807378 -6 0.37580157663508379 2.5408650916807378 -9 2.465848112410058 1.4099871989758821 -9 -6.2995949836986492e-09 5 -9 -2.4999999999999991 4.3301270189221936 -6 -1.107852388446384 3.1911857209629071 -9 -6.2995949836986492e-09 5 -6 -6.2995949836986492e-09 5 -6 -2.4999999999999991 4.3301270189221936 -3 -1.107852388446384 3.1911857209629071 -6 -6.2995949836986492e-09 5 -3 -2.4999999999999991 4.3301270189221936 -6 -1.107852388446384 3.1911857209629071 -6 -2.2253246846922492 2.366533744740174 -6 -2.2253246846922492 2.366533744740174 -9 -0.91506351183037493 1.5849364925866429 -6 -1.107852388446384 3.1911857209629071 -6 -1.107852388446384 3.1911857209629071 -9 -2.2253246846922492 2.366533744740174 -9 -1.107852388446384 3.1911857209629071 -9 -2.4999999999999991 4.3301270189221936 -6 -2.2253246846922492 2.366533744740174 -9 -1.107852388446384 3.1911857209629071 -6 -2.4999999999999991 4.3301270189221936 -9 -4.3301270221112951 2.4999999944763132 -6 -2.2253246846922492 2.366533744740174 -9 -2.4999999999999991 4.3301270189221936 -6 -4.3301270221112951 2.4999999944763132 -6 -2.4999999999999991 4.3301270189221936 -6 -2.2253246846922492 2.366533744740174 -6 -2.2253246846922492 2.366533744740174 -9 -0.91506351183037493 1.5849364925866429 -3 -1.107852388446384 3.1911857209629071 -3 -1.107852388446384 3.1911857209629071 -6 -2.2253246846922492 2.366533744740174 -6 -1.107852388446384 3.1911857209629071 -6 -2.4999999999999991 4.3301270189221936 -6 -2.2253246846922492 2.366533744740174 -6 -2.4999999999999991 4.3301270189221936 -3 -6.2995949836986492e-09 5 -6 -2.4999999999999991 4.3301270189221936 -6 -1.107852388446384 3.1911857209629071 -6 -2.4999999999999991 4.3301270189221936 -3 -2.4999999999999991 4.3301270189221936 -3 -1.107852388446384 3.1911857209629071 -3 -2.2253246846922492 2.366533744740174 -3 -2.2253246846922492 2.366533744740174 -6 -1.107852388446384 3.1911857209629071 -6 -2.4999999999999991 4.3301270189221936 -3 -2.2253246846922492 2.366533744740174 -6 -1.107852388446384 3.1911857209629071 -3 -2.4999999999999991 4.3301270189221936 -6 -4.3301270221112951 2.4999999944763132 -3 -2.2253246846922492 2.366533744740174 -6 -2.4999999999999991 4.3301270189221936 -3 -4.3301270221112951 2.4999999944763132 -3 -2.4999999999999991 4.3301270189221936 -3 -2.2253246846922492 2.366533744740174 -3 -2.2253246846922492 2.366533744740174 -6 -2.4999999999999991 4.3301270189221936 -6 -4.3301270221112951 2.4999999944763132 -6 -2.2253246846922492 2.366533744740174 -6 -4.3301270221112951 2.4999999944763132 -3 -2.4999999999999991 4.3301270189221936 -3 -4.3301270221112951 2.4999999944763132 -3 -2.2253246846922492 2.366533744740174 -3 -4.3301270221112951 2.4999999944763132 0 -1.107852388446384 3.1911857209629071 -3 -2.4999999999999991 4.3301270189221936 -3 -2.2253246846922492 2.366533744740174 -3 -2.4999999999999991 4.3301270189221936 0 -6.2995949836986492e-09 5 -3 -2.4999999999999991 4.3301270189221936 -3 -1.107852388446384 3.1911857209629071 -3 -2.4999999999999991 4.3301270189221936 0 -4.3301270221112951 2.4999999944763132 0 -2.4999999999999991 4.3301270189221936 0 -2.2253246846922492 2.366533744740174 0 -2.2253246846922492 2.366533744740174 -3 -0.91506351183037493 1.5849364925866429 0 -1.107852388446384 3.1911857209629071 0 -1.107852388446384 3.1911857209629071 -3 -2.2253246846922492 2.366533744740174 -3 -2.4999999999999991 4.3301270189221936 -3 -4.3301270221112951 2.4999999944763132 0 -2.2253246846922492 2.366533744740174 -3 -2.4999999999999991 4.3301270189221936 0 -1.107852388446384 3.1911857209629071 -3 -2.4999999999999991 4.3301270189221936 0 -2.2253246846922492 2.366533744740174 -3 -1.107852388446384 3.1911857209629071 0 -2.4999999999999991 4.3301270189221936 0 -1.107852388446384 3.1911857209629071 0 -2.2253246846922492 2.366533744740174 0 -2.2253246846922492 2.366533744740174 -3 -5 -1.397247784140632e-08 0 -4.3301270221112951 2.4999999944763132 0 -2.2735805010731909 0.22641949675281539 0 -2.2735805010731909 0.22641949675281539 -3 -4.3301270221112951 2.4999999944763132 -3 -5 -1.397247784140632e-08 0 -2.2735805010731909 0.22641949675281539 -3 -4.3301270221112951 2.4999999944763132 0 -4.3301270221112951 2.4999999944763132 -3 -2.2735805010731909 0.22641949675281539 -3 -2.2253246846922492 2.366533744740174 -3 -4.3301270221112951 2.4999999944763132 0 -4.3301270221112951 2.4999999944763132 -3 -5 -1.397247784140632e-08 -3 -2.2735805010731909 0.22641949675281539 -3 -5 -1.397247784140632e-08 0 -2.2735805010731909 0.22641949675281539 -3 -5 -1.397247784140632e-08 -3 -2.9547160992544761 -1.820741508163664 -3 -5 -1.397247784140632e-08 0 -5 -1.397247784140632e-08 -3 -4.3301270160527148 -2.500000004970083 0 -2.9547160992544761 -1.820741508163664 -3 -5 -1.397247784140632e-08 0 -2.2735805010731909 0.22641949675281539 -3 -5 -1.397247784140632e-08 0 -2.9547160992544761 -1.820741508163664 -3 -2.2735805010731909 0.22641949675281539 0 -5 -1.397247784140632e-08 0 -2.2735805010731909 0.22641949675281539 0 -2.9547160992544761 -1.820741508163664 0 -2.9547160992544761 -1.820741508163664 -3 -0.66987297914647026 -2.499999999706382 -3 -2.2735805010731909 0.22641949675281539 -3 -2.9547160992544761 -1.820741508163664 -3 -2.2735805010731909 0.22641949675281539 0 -2.2735805010731909 0.22641949675281539 -3 -0.66987297914647026 -2.499999999706382 -3 0.20080558631870429 0.033909897404034287 -3 -2.2735805010731909 0.22641949675281539 0 -2.2735805010731909 0.22641949675281539 -3 0.20080558631870429 0.033909897404034287 -3 -0.91506351183037493 1.5849364925866429 -3 -2.2735805010731909 0.22641949675281539 0 -2.2735805010731909 0.22641949675281539 -3 -0.91506351183037493 1.5849364925866429 -3 -2.2253246846922492 2.366533744740174 -3 -2.2735805010731909 0.22641949675281539 0 -0.91506351183037493 1.5849364925866429 -3 -1.107852388446384 3.1911857209629071 -3 -2.2253246846922492 2.366533744740174 -3 -0.91506351183037493 1.5849364925866429 0 -2.2735805010731909 0.22641949675281539 0 -0.91506351183037493 1.5849364925866429 0 -0.91506351183037493 1.5849364925866429 -3 -2.2253246846922492 2.366533744740174 -3 -1.107852388446384 3.1911857209629071 0 -0.91506351183037493 1.5849364925866429 0 -2.2253246846922492 2.366533744740174 0 -2.2253246846922492 2.366533744740174 -3 -4.3301270221112951 2.4999999944763132 0 -2.2735805010731909 0.22641949675281539 0 -2.2735805010731909 0.22641949675281539 -3 -2.2253246846922492 2.366533744740174 -3 -0.91506351183037493 1.5849364925866429 0 -2.2735805010731909 0.22641949675281539 0 -2.2253246846922492 2.366533744740174 0 -2.2253246846922492 2.366533744740174 -3 -2.2735805010731909 0.22641949675281539 0 -4.3301270221112951 2.4999999944763132 0 -2.2253246846922492 2.366533744740174 0 -2.2253246846922492 2.366533744740174 -3 -0.91506351183037493 1.5849364925866429 -3 0.37580157663508379 2.5408650916807378 0 -1.107852388446384 3.1911857209629071 -3 -0.91506351183037493 1.5849364925866429 0 0.37580157663508379 2.5408650916807378 0 0.20080558631870429 0.033909897404034287 0 -0.91506351183037493 1.5849364925866429 0 -0.91506351183037493 1.5849364925866429 -3 0.20080558631870429 0.033909897404034287 0 -2.2735805010731909 0.22641949675281539 0 -0.91506351183037493 1.5849364925866429 0 -0.91506351183037493 1.5849364925866429 -3 0.20080558631870429 0.033909897404034287 0 0.37580157663508379 2.5408650916807378 0 0.37580157663508379 2.5408650916807378 -3 -0.91506351183037493 1.5849364925866429 -3 -0.66987297914647026 -2.499999999706382 0 -2.2735805010731909 0.22641949675281539 0 0.20080558631870429 0.033909897404034287 0 0.20080558631870429 0.033909897404034287 -3 -2.2735805010731909 0.22641949675281539 0 0.20080558631870429 0.033909897404034287 0 0.20080558631870429 0.033909897404034287 -3 -0.91506351183037493 1.5849364925866429 -3 0.20080558631870429 0.033909897404034287 -3 -0.66987297914647026 -2.499999999706382 0 0.95458002071209891 -1.657898275923388 -3 0.20080558631870429 0.033909897404034287 0 -2.2735805010731909 0.22641949675281539 0 -0.66987297914647026 -2.499999999706382 0 -0.66987297914647026 -2.499999999706382 -3 0.20080558631870429 0.033909897404034287 -3 0.20080558631870429 0.033909897404034287 0 2.3883545080289421 -0.94497882694672608 0 0.95458002071209891 -1.657898275923388 0 0.95458002071209891 -1.657898275923388 -3 2.3883545080289421 -0.94497882694672608 0 0.20080558631870429 0.033909897404034287 0 0.20080558631870429 0.033909897404034287 -3 0.95458002071209891 -1.657898275923388 -3 0.20080558631870429 0.033909897404034287 -3 2.3883545080289421 -0.94497882694672608 0 2.465848112410058 1.4099871989758821 -3 0.20080558631870429 0.033909897404034287 0 2.3883545080289421 -0.94497882694672608 0 0.20080558631870429 0.033909897404034287 0 2.465848112410058 1.4099871989758821 0 2.465848112410058 1.4099871989758821 -3 0.37580157663508379 2.5408650916807378 0 2.4999999879139869 4.3301270259000564 0 2.465848112410058 1.4099871989758821 0 2.465848112410058 1.4099871989758821 -3 0.37580157663508379 2.5408650916807378 -3 0.20080558631870429 0.033909897404034287 0 2.465848112410058 1.4099871989758821 -3 0.37580157663508379 2.5408650916807378 0 0.20080558631870429 0.033909897404034287 0 0.37580157663508379 2.5408650916807378 0 2.465848112410058 1.4099871989758821 0 2.465848112410058 1.4099871989758821 -3 0.37580157663508379 2.5408650916807378 -3 0.20080558631870429 0.033909897404034287 -3 2.465848112410058 1.4099871989758821 -3 0.20080558631870429 0.033909897404034287 0 0.20080558631870429 0.033909897404034287 -3 2.3883545080289421 -0.94497882694672608 -3 2.465848112410058 1.4099871989758821 -3 2.3883545080289421 -0.94497882694672608 0 2.3883545080289421 -0.94497882694672608 -3 0.20080558631870429 0.033909897404034287 -3 0.95458002071209891 -1.657898275923388 -3 2.3883545080289421 -0.94497882694672608 0 -0.91506351183037493 1.5849364925866429 -3 0.37580157663508379 2.5408650916807378 -3 -1.107852388446384 3.1911857209629071 -3 0.37580157663508379 2.5408650916807378 0 0.20080558631870429 0.033909897404034287 -3 0.37580157663508379 2.5408650916807378 -3 -0.91506351183037493 1.5849364925866429 -3 0.20080558631870429 0.033909897404034287 0 0.20080558631870429 0.033909897404034287 -3 0.37580157663508379 2.5408650916807378 -3 0.37580157663508379 2.5408650916807378 -6 -0.91506351183037493 1.5849364925866429 -6 0.20080558631870429 0.033909897404034287 -6 0.37580157663508379 2.5408650916807378 -6 -0.91506351183037493 1.5849364925866429 -6 0.20080558631870429 0.033909897404034287 -3 -0.91506351183037493 1.5849364925866429 -6 0.37580157663508379 2.5408650916807378 -6 -1.107852388446384 3.1911857209629071 -6 0.37580157663508379 2.5408650916807378 -3 0.20080558631870429 0.033909897404034287 -3 -2.2735805010731909 0.22641949675281539 -3 -0.91506351183037493 1.5849364925866429 -3 -0.91506351183037493 1.5849364925866429 -6 -0.91506351183037493 1.5849364925866429 -6 0.37580157663508379 2.5408650916807378 -3 -1.107852388446384 3.1911857209629071 -6 -0.91506351183037493 1.5849364925866429 -3 0.37580157663508379 2.5408650916807378 -3 0.20080558631870429 0.033909897404034287 -3 -0.91506351183037493 1.5849364925866429 -3 -0.91506351183037493 1.5849364925866429 -6 0.20080558631870429 0.033909897404034287 -6 -0.66987297914647026 -2.499999999706382 -3 0.95458002071209891 -1.657898275923388 -6 0.20080558631870429 0.033909897404034287 -3 -2.2735805010731909 0.22641949675281539 -3 -0.66987297914647026 -2.499999999706382 -3 -0.66987297914647026 -2.499999999706382 -6 0.20080558631870429 0.033909897404034287 -6 -0.66987297914647026 -2.499999999706382 -3 -2.2735805010731909 0.22641949675281539 -3 0.20080558631870429 0.033909897404034287 -3 0.20080558631870429 0.033909897404034287 -6 -2.2735805010731909 0.22641949675281539 -3 0.20080558631870429 0.033909897404034287 -3 0.20080558631870429 0.033909897404034287 -6 -0.91506351183037493 1.5849364925866429 -6 2.3883545080289421 -0.94497882694672608 -3 0.20080558631870429 0.033909897404034287 -3 0.20080558631870429 0.033909897404034287 -6 0.95458002071209891 -1.657898275923388 -6 2.3883545080289421 -0.94497882694672608 -6 0.20080558631870429 0.033909897404034287 -6 0.95458002071209891 -1.657898275923388 -6 2.3883545080289421 -0.94497882694672608 -3 0.20080558631870429 0.033909897404034287 -3 2.3883545080289421 -0.94497882694672608 -3 0.95458002071209891 -1.657898275923388 -3 0.95458002071209891 -1.657898275923388 -6 0.20080558631870429 0.033909897404034287 -6 2.3883545080289421 -0.94497882694672608 -3 2.465848112410058 1.4099871989758821 -6 0.20080558631870429 0.033909897404034287 -3 0.20080558631870429 0.033909897404034287 -6 2.3883545080289421 -0.94497882694672608 -6 2.465848112410058 1.4099871989758821 -6 2.3883545080289421 -0.94497882694672608 -3 2.3883545080289421 -0.94497882694672608 -3 0.20080558631870429 0.033909897404034287 -3 2.465848112410058 1.4099871989758821 -3 2.465848112410058 1.4099871989758821 -6 0.37580157663508379 2.5408650916807378 -3 2.4999999879139869 4.3301270259000564 -3 2.465848112410058 1.4099871989758821 -3 2.465848112410058 1.4099871989758821 -6 0.37580157663508379 2.5408650916807378 -6 0.20080558631870429 0.033909897404034287 -3 2.465848112410058 1.4099871989758821 -6 0.37580157663508379 2.5408650916807378 -3 0.37580157663508379 2.5408650916807378 -6 0.20080558631870429 0.033909897404034287 -6 2.465848112410058 1.4099871989758821 -6 0.20080558631870429 0.033909897404034287 -3 0.20080558631870429 0.033909897404034287 -3 0.37580157663508379 2.5408650916807378 -3 2.465848112410058 1.4099871989758821 -3 2.465848112410058 1.4099871989758821 -6 0.37580157663508379 2.5408650916807378 -9 0.20080558631870429 0.033909897404034287 -6 2.465848112410058 1.4099871989758821 -9 0.37580157663508379 2.5408650916807378 -6 0.37580157663508379 2.5408650916807378 -6 2.4999999879139869 4.3301270259000564 -6 2.465848112410058 1.4099871989758821 -6 2.465848112410058 1.4099871989758821 -9 0.20080558631870429 0.033909897404034287 -6 0.37580157663508379 2.5408650916807378 -6 2.465848112410058 1.4099871989758821 -6 2.465848112410058 1.4099871989758821 -9 2.3883545080289421 -0.94497882694672608 -6 0.20080558631870429 0.033909897404034287 -6 0.20080558631870429 0.033909897404034287 -9 0.95458002071209891 -1.657898275923388 -9 0.20080558631870429 0.033909897404034287 -6 2.3883545080289421 -0.94497882694672608 -6 0.95458002071209891 -1.657898275923388 -6 0.95458002071209891 -1.657898275923388 -9 0.20080558631870429 0.033909897404034287 -9 2.3883545080289421 -0.94497882694672608 -6 2.465848112410058 1.4099871989758821 -9 0.20080558631870429 0.033909897404034287 -6 2.3883545080289421 -0.94497882694672608 -6 0.20080558631870429 0.033909897404034287 -6 2.465848112410058 1.4099871989758821 -6 2.465848112410058 1.4099871989758821 -9 -2.2735805010731909 0.22641949675281539 -6 0.20080558631870429 0.033909897404034287 -6 0.20080558631870429 0.033909897404034287 -9 -0.91506351183037493 1.5849364925866429 -9 -0.66987297914647026 -2.499999999706382 -6 -2.2735805010731909 0.22641949675281539 -6 0.20080558631870429 0.033909897404034287 -6 0.20080558631870429 0.033909897404034287 -9 -2.2735805010731909 0.22641949675281539 -6 -0.66987297914647026 -2.499999999706382 -6 -0.66987297914647026 -2.499999999706382 -9 0.20080558631870429 0.033909897404034287 -9 0.20080558631870429 0.033909897404034287 -9 -0.66987297914647026 -2.499999999706382 -6 0.95458002071209891 -1.657898275923388 -9 0.20080558631870429 0.033909897404034287 -6 -0.91506351183037493 1.5849364925866429 -9 0.37580157663508379 2.5408650916807378 -6 -1.107852388446384 3.1911857209629071 -9 -0.91506351183037493 1.5849364925866429 -6 0.20080558631870429 0.033909897404034287 -6 -2.2735805010731909 0.22641949675281539 -6 -0.91506351183037493 1.5849364925866429 -6 -0.91506351183037493 1.5849364925866429 -9 0.20080558631870429 0.033909897404034287 -6 0.37580157663508379 2.5408650916807378 -6 0.37580157663508379 2.5408650916807378 -9 -0.91506351183037493 1.5849364925866429 -9 0.37580157663508379 2.5408650916807378 -6 0.20080558631870429 0.033909897404034287 -6 -0.91506351183037493 1.5849364925866429 -6 -0.91506351183037493 1.5849364925866429 -9 -2.2735805010731909 0.22641949675281539 -6 -4.3301270221112951 2.4999999944763132 -6 -2.2253246846922492 2.366533744740174 -6 -2.2253246846922492 2.366533744740174 -9 -1.107852388446384 3.1911857209629071 -6 -0.91506351183037493 1.5849364925866429 -6 -2.2253246846922492 2.366533744740174 -6 -2.2253246846922492 2.366533744740174 -9 -4.3301270221112951 2.4999999944763132 -6 -2.2735805010731909 0.22641949675281539 -6 -2.2735805010731909 0.22641949675281539 -9 -2.2253246846922492 2.366533744740174 -9 -2.2735805010731909 0.22641949675281539 -6 -0.91506351183037493 1.5849364925866429 -6 -0.91506351183037493 1.5849364925866429 -9 -2.2253246846922492 2.366533744740174 -9 -0.91506351183037493 1.5849364925866429 -6 -2.2735805010731909 0.22641949675281539 -6 -2.2253246846922492 2.366533744740174 -6 -2.2253246846922492 2.366533744740174 -9 -5 -1.397247784140632e-08 -6 -4.3301270221112951 2.4999999944763132 -6 -2.2735805010731909 0.22641949675281539 -6 -2.2735805010731909 0.22641949675281539 -9 -4.3301270221112951 2.4999999944763132 -9 -5 -1.397247784140632e-08 -6 -2.2735805010731909 0.22641949675281539 -9 -4.3301270221112951 2.4999999944763132 -6 -5 -1.397247784140632e-08 -3 -4.3301270221112951 2.4999999944763132 -3 -2.2735805010731909 0.22641949675281539 -3 -2.2735805010731909 0.22641949675281539 -6 -4.3301270221112951 2.4999999944763132 -6 -2.2735805010731909 0.22641949675281539 -6 -2.2253246846922492 2.366533744740174 -6 -4.3301270221112951 2.4999999944763132 -3 -4.3301270221112951 2.4999999944763132 -6 -5 -1.397247784140632e-08 -6 -2.2735805010731909 0.22641949675281539 -6 -5 -1.397247784140632e-08 -3 -4.3301270221112951 2.4999999944763132 -6 -5 -1.397247784140632e-08 -3 -2.2735805010731909 0.22641949675281539 -6 -4.3301270221112951 2.4999999944763132 -3 -1.107852388446384 3.1911857209629071 -3 -0.91506351183037493 1.5849364925866429 -3 -2.2253246846922492 2.366533744740174 -3 -2.2253246846922492 2.366533744740174 -6 -2.2735805010731909 0.22641949675281539 -3 -4.3301270221112951 2.4999999944763132 -3 -2.2253246846922492 2.366533744740174 -3 -2.2253246846922492 2.366533744740174 -6 -0.91506351183037493 1.5849364925866429 -6 -1.107852388446384 3.1911857209629071 -6 -2.2253246846922492 2.366533744740174 -6 -0.91506351183037493 1.5849364925866429 -3 -0.91506351183037493 1.5849364925866429 -3 -2.2735805010731909 0.22641949675281539 -3 -2.2253246846922492 2.366533744740174 -3 -2.2253246846922492 2.366533744740174 -6 -2.2735805010731909 0.22641949675281539 -6 -0.91506351183037493 1.5849364925866429 -6 -2.2253246846922492 2.366533744740174 -6 -2.2735805010731909 0.22641949675281539 -3 -2.2735805010731909 0.22641949675281539 -3 -0.91506351183037493 1.5849364925866429 -3 -0.91506351183037493 1.5849364925866429 -6 -2.2253246846922492 2.366533744740174 -6 -4.3301270221112951 2.4999999944763132 -3 -2.2735805010731909 0.22641949675281539 -3 -2.2735805010731909 0.22641949675281539 -6 -2.2253246846922492 2.366533744740174 -6 -2.2735805010731909 0.22641949675281539 -6 -0.66987297914647026 -2.499999999706382 -6 0.20080558631870429 0.033909897404034287 -6 -2.2735805010731909 0.22641949675281539 -3 -2.2735805010731909 0.22641949675281539 -6 0.20080558631870429 0.033909897404034287 -6 -0.91506351183037493 1.5849364925866429 -6 -2.2735805010731909 0.22641949675281539 -3 -0.66987297914647026 -2.499999999706382 -6 -2.2735805010731909 0.22641949675281539 -6 -2.9547160992544761 -1.820741508163664 -6 -2.2735805010731909 0.22641949675281539 -3 -5 -1.397247784140632e-08 -6 -4.3301270160527148 -2.500000004970083 -3 -2.9547160992544761 -1.820741508163664 -6 -5 -1.397247784140632e-08 -3 -5 -1.397247784140632e-08 -3 -2.2735805010731909 0.22641949675281539 -3 -2.9547160992544761 -1.820741508163664 -3 -2.9547160992544761 -1.820741508163664 -6 -2.2735805010731909 0.22641949675281539 -6 -5 -1.397247784140632e-08 -6 -2.9547160992544761 -1.820741508163664 -6 -5 -1.397247784140632e-08 -3 -2.2735805010731909 0.22641949675281539 -6 -5 -1.397247784140632e-08 -3 -2.9547160992544761 -1.820741508163664 -6 -2.2735805010731909 0.22641949675281539 -3 -5 -1.397247784140632e-08 -9 -4.3301270160527148 -2.500000004970083 -6 -2.9547160992544761 -1.820741508163664 -9 -5 -1.397247784140632e-08 -6 -2.2735805010731909 0.22641949675281539 -9 -5 -1.397247784140632e-08 -6 -2.9547160992544761 -1.820741508163664 -9 -2.2735805010731909 0.22641949675281539 -6 -5 -1.397247784140632e-08 -6 -2.2735805010731909 0.22641949675281539 -6 -2.9547160992544761 -1.820741508163664 -6 -2.9547160992544761 -1.820741508163664 -9 -0.66987297914647026 -2.499999999706382 -9 -2.2735805010731909 0.22641949675281539 -6 -2.9547160992544761 -1.820741508163664 -9 -0.66987297914647026 -2.499999999706382 -6 -2.2735805010731909 0.22641949675281539 -6 -0.66987297914647026 -2.499999999706382 -6 -2.9547160992544761 -1.820741508163664 -6 -2.9547160992544761 -1.820741508163664 -9 -2.5000000000000022 -4.3301270189221919 -6 -0.66987297914647026 -2.499999999706382 -6 -0.66987297914647026 -2.499999999706382 -9 -2.9547160992544761 -1.820741508163664 -9 -0.66987297914647026 -2.499999999706382 -6 -2.5000000000000022 -4.3301270189221919 -6 -2.9547160992544761 -1.820741508163664 -6 -2.9547160992544761 -1.820741508163664 -9 -2.5000000000000022 -4.3301270189221919 -6 -4.3301270160527148 -2.500000004970083 -6 -2.9547160992544761 -1.820741508163664 -6 -2.9547160992544761 -1.820741508163664 -9 -4.3301270160527148 -2.500000004970083 -6 -5 -1.397247784140632e-08 -6 -2.9547160992544761 -1.820741508163664 -6 -2.9547160992544761 -1.820741508163664 -9 -4.3301270160527148 -2.500000004970083 -9 -2.5000000000000022 -4.3301270189221919 -6 -2.9547160992544761 -1.820741508163664 -9 -4.3301270160527148 -2.500000004970083 -6 -4.3301270160527148 -2.500000004970083 -6 -2.5000000000000022 -4.3301270189221919 -3 -2.9547160992544761 -1.820741508163664 -6 -4.3301270160527148 -2.500000004970083 -3 -5 -1.397247784140632e-08 -6 -4.3301270160527148 -2.500000004970083 -6 -2.9547160992544761 -1.820741508163664 -6 -4.3301270160527148 -2.500000004970083 -3 -4.3301270160527148 -2.500000004970083 -3 -5 -1.397247784140632e-08 -3 -2.9547160992544761 -1.820741508163664 -3 -2.9547160992544761 -1.820741508163664 -6 -2.5000000000000022 -4.3301270189221919 -3 -4.3301270160527148 -2.500000004970083 -3 -2.9547160992544761 -1.820741508163664 -3 -2.9547160992544761 -1.820741508163664 -6 -0.66987297914647026 -2.499999999706382 -3 -2.5000000000000022 -4.3301270189221919 -3 -2.9547160992544761 -1.820741508163664 -3 -2.9547160992544761 -1.820741508163664 -6 -2.2735805010731909 0.22641949675281539 -3 -0.66987297914647026 -2.499999999706382 -3 -2.9547160992544761 -1.820741508163664 -3 -2.9547160992544761 -1.820741508163664 -6 -2.5000000000000022 -4.3301270189221919 -3 -0.66987297914647026 -2.499999999706382 -3 -0.66987297914647026 -2.499999999706382 -6 -2.9547160992544761 -1.820741508163664 -6 -0.66987297914647026 -2.499999999706382 -6 -2.2735805010731909 0.22641949675281539 -3 -2.9547160992544761 -1.820741508163664 -6 -0.66987297914647026 -2.499999999706382 -3 -2.5000000000000022 -4.3301270189221919 -6 -0.66987297914647026 -2.499999999706382 -6 -2.9547160992544761 -1.820741508163664 -6 -2.5000000000000022 -4.3301270189221919 -3 -4.3301270160527148 -2.500000004970083 -6 -2.5000000000000022 -4.3301270189221919 -6 -2.9547160992544761 -1.820741508163664 -6 -2.5000000000000022 -4.3301270189221919 -3 -2.5000000000000022 -4.3301270189221919 -6 6.9142305214597846e-09 -5 -3 -0.66987297914647026 -2.499999999706382 -6 -2.5000000000000022 -4.3301270189221919 -3 -2.5000000000000022 -4.3301270189221919 -9 6.9142305214597846e-09 -5 -6 -0.66987297914647026 -2.499999999706382 -9 -2.5000000000000022 -4.3301270189221919 -6 -0.66987297914647026 -2.499999999706382 -9 6.9142305214597846e-09 -5 -6 0.91506351643986317 -3.4150635091400758 -9 -0.66987297914647026 -2.499999999706382 -6 6.9142305214597846e-09 -5 -6 -2.5000000000000022 -4.3301270189221919 -6 -0.66987297914647026 -2.499999999706382 -6 -0.66987297914647026 -2.499999999706382 -9 6.9142305214597846e-09 -5 -6 -0.66987297914647026 -2.499999999706382 -6 0.91506351643986317 -3.4150635091400758 -6 0.91506351643986317 -3.4150635091400758 -9 0.95458002071209891 -1.657898275923388 -9 -0.66987297914647026 -2.499999999706382 -6 0.91506351643986317 -3.4150635091400758 -9 0.91506351643986317 -3.4150635091400758 -6 -0.66987297914647026 -2.499999999706382 -6 0.20080558631870429 0.033909897404034287 -6 0.95458002071209891 -1.657898275923388 -6 0.95458002071209891 -1.657898275923388 -9 -0.66987297914647026 -2.499999999706382 -6 0.95458002071209891 -1.657898275923388 -6 0.91506351643986317 -3.4150635091400758 -6 0.95458002071209891 -1.657898275923388 -9 0.95458002071209891 -1.657898275923388 -6 2.3883545080289421 -0.94497882694672608 -6 2.217625015551433 -2.5696135239339939 -6 2.217625015551433 -2.5696135239339939 -9 2.3883545080289421 -0.94497882694672608 -6 0.95458002071209891 -1.657898275923388 -6 0.95458002071209891 -1.657898275923388 -9 2.217625015551433 -2.5696135239339939 -9 0.91506351643986317 -3.4150635091400758 -6 0.95458002071209891 -1.657898275923388 -6 2.217625015551433 -2.5696135239339939 -6 2.217625015551433 -2.5696135239339939 -9 0.95458002071209891 -1.657898275923388 -9 0.91506351643986317 -3.4150635091400758 -6 2.217625015551433 -2.5696135239339939 -9 0.95458002071209891 -1.657898275923388 -6 6.9142305214597846e-09 -5 -9 2.500000010727558 -4.3301270127286351 -6 0.91506351643986317 -3.4150635091400758 -9 6.9142305214597846e-09 -5 -6 2.500000010727558 -4.3301270127286351 -6 6.9142305214597846e-09 -5 -6 0.91506351643986317 -3.4150635091400758 -6 0.91506351643986317 -3.4150635091400758 -9 2.500000010727558 -4.3301270127286351 -6 0.91506351643986317 -3.4150635091400758 -6 2.217625015551433 -2.5696135239339939 -6 2.217625015551433 -2.5696135239339939 -9 0.91506351643986317 -3.4150635091400758 -9 2.500000010727558 -4.3301270127286351 -6 2.217625015551433 -2.5696135239339939 -9 0.91506351643986317 -3.4150635091400758 -6 2.500000010727558 -4.3301270127286351 -3 6.9142305214597846e-09 -5 -3 0.91506351643986317 -3.4150635091400758 -3 0.91506351643986317 -3.4150635091400758 -6 0.91506351643986317 -3.4150635091400758 -6 2.500000010727558 -4.3301270127286351 -6 2.217625015551433 -2.5696135239339939 -6 2.500000010727558 -4.3301270127286351 -3 0.91506351643986317 -3.4150635091400758 -6 2.500000010727558 -4.3301270127286351 -3 2.217625015551433 -2.5696135239339939 -6 0.91506351643986317 -3.4150635091400758 -3 2.500000010727558 -4.3301270127286351 -3 0.91506351643986317 -3.4150635091400758 -3 2.217625015551433 -2.5696135239339939 -3 2.217625015551433 -2.5696135239339939 -6 6.9142305214597846e-09 -5 -6 2.500000010727558 -4.3301270127286351 -6 0.91506351643986317 -3.4150635091400758 -6 2.500000010727558 -4.3301270127286351 -3 6.9142305214597846e-09 -5 -6 2.500000010727558 -4.3301270127286351 -3 0.91506351643986317 -3.4150635091400758 -6 6.9142305214597846e-09 -5 -3 0.95458002071209891 -1.657898275923388 -6 0.91506351643986317 -3.4150635091400758 -3 2.217625015551433 -2.5696135239339939 -6 0.95458002071209891 -1.657898275923388 -3 2.3883545080289421 -0.94497882694672608 -3 0.95458002071209891 -1.657898275923388 -3 0.95458002071209891 -1.657898275923388 -6 2.217625015551433 -2.5696135239339939 -6 2.3883545080289421 -0.94497882694672608 -6 0.95458002071209891 -1.657898275923388 -6 2.217625015551433 -2.5696135239339939 -6 2.3883545080289421 -0.94497882694672608 -3 0.95458002071209891 -1.657898275923388 -3 2.3883545080289421 -0.94497882694672608 -3 2.217625015551433 -2.5696135239339939 -3 2.217625015551433 -2.5696135239339939 -6 0.91506351643986317 -3.4150635091400758 -3 0.95458002071209891 -1.657898275923388 -3 2.217625015551433 -2.5696135239339939 -3 2.217625015551433 -2.5696135239339939 -6 0.95458002071209891 -1.657898275923388 -6 0.91506351643986317 -3.4150635091400758 -6 2.217625015551433 -2.5696135239339939 -6 0.91506351643986317 -3.4150635091400758 -3 -0.66987297914647026 -2.499999999706382 -3 0.20080558631870429 0.033909897404034287 -3 0.95458002071209891 -1.657898275923388 -3 0.95458002071209891 -1.657898275923388 -6 0.20080558631870429 0.033909897404034287 -6 -0.66987297914647026 -2.499999999706382 -6 0.95458002071209891 -1.657898275923388 -6 -0.66987297914647026 -2.499999999706382 -3 -0.66987297914647026 -2.499999999706382 -3 0.95458002071209891 -1.657898275923388 -3 0.91506351643986317 -3.4150635091400758 -3 0.95458002071209891 -1.657898275923388 -6 0.95458002071209891 -1.657898275923388 -6 -0.66987297914647026 -2.499999999706382 -6 0.91506351643986317 -3.4150635091400758 -6 -0.66987297914647026 -2.499999999706382 -3 0.95458002071209891 -1.657898275923388 -6 -0.66987297914647026 -2.499999999706382 -3 0.91506351643986317 -3.4150635091400758 -6 0.91506351643986317 -3.4150635091400758 -3 6.9142305214597846e-09 -5 -3 -0.66987297914647026 -2.499999999706382 -3 0.91506351643986317 -3.4150635091400758 -3 0.91506351643986317 -3.4150635091400758 -6 -0.66987297914647026 -2.499999999706382 -6 6.9142305214597846e-09 -5 -6 0.91506351643986317 -3.4150635091400758 -6 6.9142305214597846e-09 -5 -3 -0.66987297914647026 -2.499999999706382 -6 6.9142305214597846e-09 -5 -3 0.91506351643986317 -3.4150635091400758 -6 -0.66987297914647026 -2.499999999706382 -3 -2.5000000000000022 -4.3301270189221919 -6 6.9142305214597846e-09 -5 -6 -0.66987297914647026 -2.499999999706382 -6 6.9142305214597846e-09 -5 -3 6.9142305214597846e-09 -5 -3 -2.5000000000000022 -4.3301270189221919 -3 -0.66987297914647026 -2.499999999706382 -3 -0.66987297914647026 -2.499999999706382 -6 -0.66987297914647026 -2.499999999706382 -3 6.9142305214597846e-09 -5 -3 0.91506351643986317 -3.4150635091400758 -3 6.9142305214597846e-09 -5 0 -2.5000000000000022 -4.3301270189221919 -3 6.9142305214597846e-09 -5 -3 -0.66987297914647026 -2.499999999706382 -3 6.9142305214597846e-09 -5 0 0.95458002071209891 -1.657898275923388 -3 -0.66987297914647026 -2.499999999706382 -3 0.91506351643986317 -3.4150635091400758 -3 -0.66987297914647026 -2.499999999706382 0 0.20080558631870429 0.033909897404034287 -3 -0.66987297914647026 -2.499999999706382 -3 0.95458002071209891 -1.657898275923388 -3 -0.66987297914647026 -2.499999999706382 0 2.3883545080289421 -0.94497882694672608 -3 0.95458002071209891 -1.657898275923388 -3 2.217625015551433 -2.5696135239339939 -3 2.3883545080289421 -0.94497882694672608 0 0.95458002071209891 -1.657898275923388 -3 0.91506351643986317 -3.4150635091400758 -3 2.217625015551433 -2.5696135239339939 -3 0.91506351643986317 -3.4150635091400758 0 0.91506351643986317 -3.4150635091400758 -3 2.500000010727558 -4.3301270127286351 -3 2.217625015551433 -2.5696135239339939 -3 2.500000010727558 -4.3301270127286351 0 6.9142305214597846e-09 -5 -3 2.500000010727558 -4.3301270127286351 -3 0.91506351643986317 -3.4150635091400758 -3 2.500000010727558 -4.3301270127286351 0 2.500000010727558 -4.3301270127286351 0 0.91506351643986317 -3.4150635091400758 0 2.217625015551433 -2.5696135239339939 0 2.217625015551433 -2.5696135239339939 -3 0.91506351643986317 -3.4150635091400758 -3 2.500000010727558 -4.3301270127286351 0 2.217625015551433 -2.5696135239339939 -3 0.91506351643986317 -3.4150635091400758 0 2.500000010727558 -4.3301270127286351 0 6.9142305214597846e-09 -5 0 0.91506351643986317 -3.4150635091400758 0 0.91506351643986317 -3.4150635091400758 -3 6.9142305214597846e-09 -5 -3 2.500000010727558 -4.3301270127286351 0 0.91506351643986317 -3.4150635091400758 -3 6.9142305214597846e-09 -5 0 0.91506351643986317 -3.4150635091400758 0 0.95458002071209891 -1.657898275923388 0 2.217625015551433 -2.5696135239339939 0 2.217625015551433 -2.5696135239339939 -3 0.95458002071209891 -1.657898275923388 -3 0.91506351643986317 -3.4150635091400758 0 2.217625015551433 -2.5696135239339939 -3 0.95458002071209891 -1.657898275923388 0 0.95458002071209891 -1.657898275923388 0 2.3883545080289421 -0.94497882694672608 0 2.217625015551433 -2.5696135239339939 0 2.217625015551433 -2.5696135239339939 -3 2.3883545080289421 -0.94497882694672608 0 0.95458002071209891 -1.657898275923388 0 0.95458002071209891 -1.657898275923388 -3 2.217625015551433 -2.5696135239339939 -3 0.95458002071209891 -1.657898275923388 -3 -0.66987297914647026 -2.499999999706382 0 0.91506351643986317 -3.4150635091400758 -3 0.91506351643986317 -3.4150635091400758 0 -0.66987297914647026 -2.499999999706382 0 0.95458002071209891 -1.657898275923388 0 0.91506351643986317 -3.4150635091400758 0 0.95458002071209891 -1.657898275923388 -3 -0.66987297914647026 -2.499999999706382 0 0.20080558631870429 0.033909897404034287 0 0.95458002071209891 -1.657898275923388 0 0.95458002071209891 -1.657898275923388 -3 6.9142305214597846e-09 -5 0 -2.5000000000000022 -4.3301270189221919 0 -0.66987297914647026 -2.499999999706382 0 -0.66987297914647026 -2.499999999706382 -3 -0.66987297914647026 -2.499999999706382 -3 6.9142305214597846e-09 -5 0 0.91506351643986317 -3.4150635091400758 -3 -0.66987297914647026 -2.499999999706382 0 6.9142305214597846e-09 -5 0 -0.66987297914647026 -2.499999999706382 0 0.91506351643986317 -3.4150635091400758 0 0.91506351643986317 -3.4150635091400758 -3 -2.5000000000000022 -4.3301270189221919 -3 6.9142305214597846e-09 -5 0 -0.66987297914647026 -2.499999999706382 -3 -2.5000000000000022 -4.3301270189221919 0 -2.5000000000000022 -4.3301270189221919 -3 -0.66987297914647026 -2.499999999706382 -3 -2.9547160992544761 -1.820741508163664 -3 -2.5000000000000022 -4.3301270189221919 0 -4.3301270160527148 -2.500000004970083 -3 -2.5000000000000022 -4.3301270189221919 -3 -2.9547160992544761 -1.820741508163664 -3 -2.5000000000000022 -4.3301270189221919 0 -2.5000000000000022 -4.3301270189221919 0 -0.66987297914647026 -2.499999999706382 0 -0.66987297914647026 -2.499999999706382 -3 -2.9547160992544761 -1.820741508163664 -3 -0.66987297914647026 -2.499999999706382 0 -2.5000000000000022 -4.3301270189221919 0 -2.9547160992544761 -1.820741508163664 0 -2.9547160992544761 -1.820741508163664 -3 -0.66987297914647026 -2.499999999706382 -3 -2.2735805010731909 0.22641949675281539 0 -2.9547160992544761 -1.820741508163664 -3 -0.66987297914647026 -2.499999999706382 0 -2.2735805010731909 0.22641949675281539 0 -0.66987297914647026 -2.499999999706382 0 -2.9547160992544761 -1.820741508163664 0 -2.9547160992544761 -1.820741508163664 -3 -4.3301270160527148 -2.500000004970083 0 -5 -1.397247784140632e-08 0 -2.9547160992544761 -1.820741508163664 0 -2.9547160992544761 -1.820741508163664 -3 -2.5000000000000022 -4.3301270189221919 0 -4.3301270160527148 -2.500000004970083 0 -2.9547160992544761 -1.820741508163664 0 -2.9547160992544761 -1.820741508163664 -3 -4.3301270160527148 -2.500000004970083 -3 -2.5000000000000022 -4.3301270189221919 0 -2.9547160992544761 -1.820741508163664 -3 -4.3301270160527148 -2.500000004970083 0 -5 -1.397247784140632e-08 -3 -4.3301270160527148 -2.500000004970083 -3 -2.9547160992544761 -1.820741508163664 -3 -4.3301270160527148 -2.500000004970083 0 
</DataArray>
</Points>
<Cells>
<DataArray type="UInt32" Name="connectivity" format="ascii">
0 1 2 3 4 5 6 7 8 9 10 11 12 13 14 15 16 17 18 19 20 21 22 23 24 25 26 27 28 29 30 31 32 33 34 35 36 37 38 39 40 41 42 43 44 45 46 47 48 49 50 51 52 53 54 55 56 57 58 59 60 61 62 63 64 65 66 67 68 69 70 71 72 73 74 75 76 77 78 79 80 81 82 83 84 85 86 87 88 89 90 91 92 93 94 95 96 97 98 99 100 101 102 103 104 105 106 107 108 109 110 111 112 113 114 115 116 117 118 119 120 121 122 123 124 125 126 127 128 129 130 131 132 133 134 135 136 137 138 139 140 141 142 143 144 145 146 147 148 149 150 151 152 153 154 155 156 157 158 159 160 161 162 163 164 165 166 167 168 169 170 171 172 173 174 175 176 177 178 179 180 181 182 183 184 185 186 187 188 189 190 191 192 193 194 195 196 197 198 199 200 201 202 203 204 205 206 207 208 209 210 211 212 213 214 215 216 217 218 219 220 221 222 223 224 225 226 227 228 229 230 231 232 233 234 235 236 237 238 239 240 241 242 243 244 245 246 247 248 249 250 251 252 253 254 255 256 257 258 259 260 261 262 263 264 265 266 267 268 269 270 271 272 273 274 275 276 277 278 279 280 281 282 283 284 285 286 287 288 289 290 291 292 293 294 295 296 297 298 299 300 301 302 303 304 305 306 307 308 309 310 311 312 313 314 315 316 317 318 319 320 321 322 323 324 325 326 327 328 329 330 331 332 333 334 335 336 337 338 339 340 341 342 343 344 345 346 347 348 349 350 351 352 353 354 355 356 357 358 359 360 361 362 363 364 365 366 367 368 369 370 371 372 373 374 375 376 377 378 379 380 381 382 383 384 385 386 387 388 389 390 391 392 393 394 395 396 397 398 399 400 401 402 403 404 405 406 407 408 409 410 411 412 413 414 415 416 417 418 419 420 421 422 423 424 425 426 427 428 429 430 431 432 433 434 435 436 437 438 439 440 441 442 443 444 445 446 447 448 449 450 451 452 453 454 455 456 457 458 459 460 461 462 463 464 465 466 467 468 469 470 471 472 473 474 475 476 477 478 479 480 481 482 483 484 485 486 487 488 489 490 491 492 493 494 495 496 497 498 499 500 501 502 503 504 505 506 507 508 509 510 511 512 513 514 515 516 517 518 519 520 521 522 523 524 525 526 527 528 529 530 531 532 533 534 535 536 537 538 539 540 541 542 543 544 545 546 547 548 549 550 551 552 553 554 555 556 557 558 559 560 561 562 563 564 565 566 567 568 569 570 571 572 573 574 575 576 577 578 579 580 581 582 583 584 585 586 587 588 589 590 591 592 593 594 595 596 597 598 599 600 601 602 603 604 605 606 607 608 609 610 611 612 613 614 615 616 617 618 619 620 621 622 623 624 625 626 627 628 629 630 631 632 633 634 635 636 637 638 639 640 641 642 643 644 645 646 647 648 649 650 651 652 653 654 655 656 657 658 659 660 661 662 663 664 665 666 667 668 669 670 671 672 673 674 675 676 677 678 679 680 681 682 683 684 685 686 687 688 689 690 691 692 693 694 695 696 697 698 699 700 701 702 703 704 705 706 707 708 709 710 711 712 713 714 715 716 717 718 719 720 721 722 723 724 725 726 727 728 729 730 731 732 733 734 735 736 737 738 739 740 741 742 743 744 745 746 747 748 749 750 751 752 753 754 755 756 757 758 759 760 761 762 763 764 765 766 767 768 769 770 771 772 773 774 775 776 777 778 779 780 781 782 783 784 785 786 787 788 789 790 791 792 793 794 795 796 797 798 799 800 801 802 803 804 805 806 807 808 809 810 811 812 813 814 815 816 817 818 819 820 821 822 823 824 825 826 827 828 829 830 831 832 833 834 835 836 837 838 839 840 841 842 843 844 845 846 847 848 849 850 851 852 853 854 855 856 857 858 859 860 861 862 863 864 865 866 867 868 869 870 871 872 873 874 875 876 877 878 879 880 881 882 883 884 885 886 887 888 889 890 891 892 893 894 895 896 897 898 899 900 901 902 903 904 905 906 907 908 909 910 911 912 913 914 915 916 917 918 919 920 921 922 923 924 925 926 927 928 929 930 931 932 933 934 935 936 937 938 939 940 941 942 943 944 945 946 947 948 949 950 951 952 953 954 955 956 957 958 959 960 961 962 963 964 965 966 967 968 969 970 971 972 973 974 975 976 977 978 979 980 981 982 983 984 985 986 987 988 989 990 991 992 993 994 995 996 997 998 999 1000 1001 1002 1003 1004 1005 1006 1007 1008 1009 1010 1011 1012 1013 1014 1015 1016 1017 1018 1019 1020 1021 1022 1023 1024 1025 1026 1027 1028 1029 1030 1031 1032 1033 1034 1035 1036 1037 1038 1039 1040 1041 1042 1043 1044 1045 1046 1047 1048 1049 1050 1051 1052 1053 1054 1055 1056 1057 1058 1059 1060 1061 1062 1063 1064 1065 1066 1067 1068 1069 1070 1071 1072 1073 1074 1075 1076 1077 1078 1079 1080 1081 1082 1083 1084 1085 1086 1087 1088 1089 1090 1091 1092 1093 1094 1095 1096 1097 1098 1099 1100 1101 1102 1103 1104 1105 1106 1107 1108 1109 1110 1111 1112 1113 1114 1115 1116 1117 1118 1119 1120 1121 1122 1123 1124 1125 1126 1127 1128 1129 1130 1131 1132 1133 1134 1135 1136 1137 1138 1139 1140 1141 1142 1143 1144 1145 1146 1147 1148 1149 1150 1151 1152 1153 1154 1155 1156 1157 1158 1159 1160 1161 1162 1163 1164 1165 1166 1167 1168 1169 1170 1171 1172 1173 1174 1175 1176 1177 1178 1179 1180 1181 1182 1183 1184 1185 1186 1187 1188 1189 1190 1191 1192 1193 1194 1195 1196 1197 1198 1199 1200 1201 1202 1203 1204 1205 1206 1207 1208 1209 1210 1211 1212 1213 1214 1215 1216 1217 1218 1219 1220 1221 1222 1223 1224 1225 1226 1227 1228 1229 1230 1231 1232 1233 1234 1235 1236 1237 1238 1239 1240 1241 1242 1243 1244 1245 1246 1247 1248 1249 1250 1251 1252 1253 1254 1255 1256 1257 1258 1259 1260 1261 1262 1263 1264 1265 1266 1267 1268 1269 1270 1271 1272 1273 1274 1275 1276 1277 1278 1279 1280 1281 1282 1283 1284 1285 1286 1287 1288 1289 1290 1291 1292 1293 1294 1295 1296 1297 1298 1299 1300 1301 1302 1303 1304 1305 1306 1307 1308 1309 1310 1311 1312 1313 1314 1315 1316 1317 1318 1319 1320 1321 1322 1323 1324 1325 1326 1327 1328 1329 1330 1331 1332 1333 1334 1335 1336 1337 1338 1339 1340 1341 1342 1343 1344 1345 1346 1347 1348 1349 1350 1351 1352 1353 1354 1355 1356 1357 1358 1359 1360 1361 1362 1363 1364 1365 1366 1367 1368 1369 1370 1371 1372 1373 1374 1375 1376 1377 1378 1379 1380 1381 1382 1383 1384 1385 1386 1387 1388 1389 1390 1391 1392 1393 1394 1395 1396 1397 1398 1399 1400 1401 1402 1403 1404 1405 1406 1407 1408 1409 1410 1411 1412 1413 1414 1415 1416 1417 1418 1419 1420 1421 1422 1423 1424 1425 1426 1427 1428 1429 1430 1431 1432 1433 1434 1435 1436 1437 1438 1439 1440 1441 1442 1443 1444 1445 1446 1447 1448 1449 1450 1451 1452 1453 1454 1455 1456 1457 1458 1459 1460 1461 1462 1463 1464 1465 1466 1467 1468 1469 1470 1471 1472 1473 1474 1475 1476 1477 1478 1479 1480 1481 1482 1483 1484 1485 1486 1487 1488 1489 1490 1491 1492 1493 1494 1495 1496 1497 1498 1499 1500 1501 1502 1503 1504 1505 1506 1507 1508 1509 1510 1511 1512 1513 1514 1515 1516 1517 1518 1519 1520 1521 1522 1523 1524 1525 1526 1527 1528 1529 1530 1531 1532 1533 1534 1535 1536 1537 1538 1539 1540 1541 1542 1543 1544 1545 1546 1547 1548 1549 1550 1551 1552 1553 1554 1555 1556 1557 1558 1559 1560 1561 1562 1563 1564 1565 1566 1567 1568 1569 1570 1571 1572 1573 1574 1575 1576 1577 1578 1579 1580 1581 1582 1583 1584 1585 1586 1587 1588 1589 1590 1591 1592 1593 1594 1595 1596 1597 1598 1599 1600 1601 1602 1603 1604 1605 1606 1607 1608 1609 1610 1611 1612 1613 1614 1615 1616 1617 1618 1619 1620 1621 1622 1623 1624 1625 1626 1627 1628 1629 1630 1631 1632 1633 1634 1635 1636 1637 1638 1639 1640 1641 1642 1643 1644 1645 1646 1647 1648 1649 1650 1651 1652 1653 1654 1655 1656 1657 1658 1659 1660 1661 1662 1663 1664 1665 1666 1667 1668 1669 1670 1671 1672 1673 1674 1675 1676 1677 1678 1679 1680 1681 1682 1683 1684 1685 1686 1687 1688 1689 1690 1691 1692 1693 1694 1695 1696 1697 1698 1699 1700 1701 1702 1703 1704 1705 1706 1707 1708 1709 1710 1711 1712 1713 1714 1715 1716 1717 1718 1719 1720 1721 1722 1723 1724 1725 1726 1727 1728 1729 1730 1731 1732 1733 1734 1735 1736 1737 1738 1739 1740 1741 1742 1743 1744 1745 1746 1747 1748 1749 1750 1751 1752 1753 1754 1755 1756 1757 1758 1759 1760 1761 1762 1763 1764 1765 1766 1767 1768 1769 1770 1771 1772 1773 1774 1775 1776 1777 1778 1779 1780 1781 1782 1783 1784 1785 1786 1787 1788 1789 1790 1791 1792 1793 1794 1795 1796 1797 1798 1799 1800 1801 1802 1803 1804 1805 1806 1807 1808 1809 1810 1811 1812 1813 1814 1815 1816 1817 1818 1819 1820 1821 1822 1823 1824 1825 1826 1827 1828 1829 1830 1831 1832 1833 1834 1835 1836 1837 1838 1839 1840 1841 1842 1843 1844 1845 1846 1847 1848 1849 1850 1851 1852 1853 1854 1855 1856 1857 1858 1859 1860 1861 1862 1863 1864 1865 1866 1867 1868 1869 1870 1871 1872 1873 1874 1875 1876 1877 1878 1879 1880 1881 1882 1883 1884 1885 1886 1887 1888 1889 1890 1891 1892 1893 1894 1895 1896 1897 1898 1899 1900 1901 1902 1903 1904 1905 1906 1907 1908 1909 1910 1911 1912 1913 1914 1915 1916 1917 1918 1919 1920 1921 1922 1923 1924 1925 1926 1927 1928 1929 1930 1931 1932 1933 1934 1935 1936 1937 1938 1939 1940 1941 1942 1943 1944 1945 1946 1947 1948 1949 1950 1951 1952 1953 1954 1955 1956 1957 1958 1959 1960 1961 1962 1963 1964 1965 1966 1967 1968 1969 1970 1971 1972 1973 1974 1975 1976 1977 1978 1979 1980 1981 1982 1983 1984 1985 1986 1987 1988 1989 1990 1991 1992 1993 1994 1995 1996 1997 1998 1999 2000 2001 2002 2003 2004 2005 2006 2007 2008 2009 2010 2011 2012 2013 2014 2015 2016 2017 2018 2019 2020 2021 2022 2023 2024 2025 2026 2027 2028 2029 2030 2031 2032 2033 2034 2035 2036 2037 2038 2039 2040 2041 2042 2043 2044 2045 2046 2047 2048 2049 2050 2051 2052 2053 2054 2055 2056 2057 2058 2059 2060 2061 2062 2063 2064 2065 2066 2067 2068 2069 2070 2071 2072 2073 2074 2075 2076 2077 2078 2079 2080 2081 2082 2083 2084 2085 2086 2087 2088 2089 2090 2091 2092 2093 2094 2095 2096 2097 2098 2099 2100 2101 2102 2103 2104 2105 2106 2107 2108 2109 2110 2111 2112 2113 2114 2115 2116 2117 2118 2119 2120 2121 2122 2123 2124 2125 2126 2127 2128 2129 2130 2131 2132 2133 2134 2135 2136 2137 2138 2139 2140 2141 2142 2143 2144 2145 2146 2147 2148 2149 2150 2151 2152 2153 2154 2155 2156 2157 2158 2159 
</DataArray>
<DataArray type="UInt32" Name="offsets" format="ascii">
4 8 12 16 20 24 28 32 36 40 44 48 52 56 60 64 68 72 76 80 84 88 92 96 100 104 108 112 116 120 124 128 132 136 140 144 148 152 156 160 164 168 172 176 180 184 188 192 196 200 204 208 212 216 220 224 228 232 236 240 244 248 252 256 260 264 268 272 276 280 284 288 292 296 300 304 308 312 316 320 324 328 332 336 340 344 348 352 356 360 364 368 372 376 380 384 388 392 396 400 404 408 412 416 420 424 428 432 436 440 444 448 452 456 460 464 468 472 476 480 484 488 492 496 500 504 508 512 516 520 524 528 532 536 540 544 548 552 556 560 564 568 572 576 580 584 588 592 596 600 604 608 612 616 620 624 628 632 636 640 644 648 652 656 660 664 668 672 676 680 684 688 692 696 700 704 708 712 716 720 724 728 732 736 740 744 748 752 756 760 764 768 772 776 780 784 788 792 796 800 804 808 812 816 820 824 828 832 836 840 844 848 852 856 860 864 868 872 876 880 884 888 892 896 900 904 908 912 916 920 924 928 932 936 940 944 948 952 956 960 964 968 972 976 980 984 988 992 996 1000 1004 1008 1012 1016 1020 1024 1028 1032 1036 1040 1044 1048 1052 1056 1060 1064 1068 1072 1076 1080 1084 1088 1092 1096 1100 1104 1108 1112 1116 1120 1124 1128 1132 1136 1140 1144 1148 1152 1156 1160 1164 1168 1172 1176 1180 1184 1188 1192 1196 1200 1204 1208 1212 1216 1220 1224 1228 1232 1236 1240 1244 1248 1252 1256 1260 1264 1268 1272 1276 1280 1284 1288 1292 1296 1300 1304 1308 1312 1316 1320 1324 1328 1332 1336 1340 1344 1348 1352 1356 1360 1364 1368 1372 1376 1380 1384 1388 1392 1396 1400 1404 1408 1412 1416 1420 1424 1428 1432 1436 1440 1444 1448 1452 1456 1460 1464 1468 1472 1476 1480 1484 1488 1492 1496 1500 1504 1508 1512 1516 1520 1524 1528 1532 1536 1540 1544 1548 1552 1556 1560 1564 1568 1572 1576 1580 1584 1588 1592 1596 1600 1604 1608 1612 1616 1620 1624 1628 1632 1636 1640 1644 1648 1652 1656 1660 1664 1668 1672 1676 1680 1684 1688 1692 1696 1700 1704 1708 1712 1716 1720 1724 1728 1732 1736 1740 1744 1748 1752 1756 1760 1764 1768 1772 1776 1780 1784 1788 1792 1796 1800 1804 1808 1812 1816 1820 1824 1828 1832 1836 1840 1844 1848 1852 1856 1860 1864 1868 1872 1876 1880 1884 1888 1892 1896 1900 1904 1908 1912 1916 1920 1924 1928 1932 1936 1940 1944 1948 1952 1956 1960 1964 1968 1972 1976 1980 1984 1988 1992 1996 2000 2004 2008 2012 2016 2020 2024 2028 2032 2036 2040 2044 2048 2052 2056 2060 2064 2068 2072 2076 2080 2084 2088 2092 2096 2100 2104 2108 2112 2116 2120 2124 2128 2132 2136 2140 2144 2148 2152 2156 2160 
</DataArray>
<DataArray type="UInt32" Name="types" format="ascii">
10 10 10 10 10 10 10 10 10 10 10 10 10 10 10 10 10 10 10 10 10 10 10 10 10 10 10 10 10 10 10 10 10 10 10 10 10 10 10 10 10 10 10 10 10 10 10 10 10 10 10 10 10 10 10 10 10 10 10 10 10 10 10 10 10 10 10 10 10 10 10 10 10 10 10 10 10 10 10 10 10 10 10 10 10 10 10 10 10 10 10 10 10 10 10 10 10 10 10 10 10 10 10 10 10 10 10 10 10 10 10 10 10 10 10 10 10 10 10 10 10 10 10 10 10 10 10 10 10 10 10 10 10 10 10 10 10 10 10 10 10 10 10 10 10 10 10 10 10 10 10 10 10 10 10 10 10 10 10 10 10 10 10 10 10 10 10 10 10 10 10 10 10 10 10 10 10 10 10 10 10 10 10 10 10 10 10 10 10 10 10 10 10 10 10 10 10 10 10 10 10 10 10 10 10 10 10 10 10 10 10 10 10 10 10 10 10 10 10 10 10 10 10 10 10 10 10 10 10 10 10 10 10 10 10 10 10 10 10 10 10 10 10 10 10 10 10 10 10 10 10 10 10 10 10 10 10 10 10 10 10 10 10 10 10 10 10 10 10 10 10 10 10 10 10 10 10 10 10 10 10 10 10 10 10 10 10 10 10 10 10 10 10 10 10 10 10 10 10 10 10 10 10 10 10 10 10 10 10 10 10 10 10 10 10 10 10 10 10 10 10 10 10 10 10 10 10 10 10 10 10 10 10 10 10 10 10 10 10 10 10 10 10 10 10 10 10 10 10 10 10 10 10 10 10 10 10 10 10 10 10 10 10 10 10 10 10 10 10 10 10 10 10 10 10 10 10 10 10 10 10 10 10 10 10 10 10 10 10 10 10 10 10 10 10 10 10 10 10 10 10 10 10 10 10 10 10 10 10 10 10 10 10 10 10 10 10 10 10 10 10 10 10 10 10 10 10 10 10 10 10 10 10 10 10 10 10 10 10 10 10 10 10 10 10 10 10 10 10 10 10 10 10 10 10 10 10 10 10 10 10 10 10 10 10 10 10 10 10 10 10 10 10 10 10 10 10 10 10 10 10 10 10 10 10 10 10 10 10 10 10 10 10 10 10 10 10 10 10 10 10 10 10 10 10 10 10 10 10 10 10 10 10 10 10 10 10 10 10 10 10 10 10 10 10 10 10 10 10 10 10 10 10 10 10 10 10 10 10 10 
</DataArray>
</Cells>
<PointData Scalars="" Vectors="displacement," Tensors="">
<DataArray type="Float64" Name="displacement" NumberOfComponents="3" format="ascii">
-1.3343361732194599e-07 -1.951722894377731e-08 -0.00025021886095124614 -1.2759872420798053e-07 4.9916602955362209e-08 -0.0002502383754837724 -8.4334850803019559e-08 -2.3212616966489892e-08 -0.00025021819016786336 2.4515325480314466e-08 1.6152693274787213e-08 -1.8749940775723422e-07 -1.007547888870853e-07 -8.6367730962300602e-08 -0.00025023334340978253 -1.3343361732194599e-07 -1.951722894377731e-08 -0.00025021886095124614 -8.4334850803019559e-08 -2.3212616966489892e-08 -0.00025021819016786336 2.4515325480314466e-08 1.6152693274787213e-08 -1.8749940775723422e-07 -5.4630247008611555e-08 -3.5568358125678976e-08 -1.0558484335960514e-07 -1.0075478888708529e-07 -8.6367730962300615e-08 -0.00025023334340978248 2.4515325480314466e-08 1.6152693274787213e-08 -1.8749940775723422e-07 -1.3343361732194599e-07 -1.951722894377731e-08 -0.00025021886095124614 -5.2296049020615822e-08 -4.3714243651273785e-09 -2.45359990925853e-07 -5.4630247008611555e-08 -3.5568358125678976e-08 -1.0558484335960514e-07 2.4515325480314466e-08 1.6152693274787213e-08 -1.8749940775723422e-07 -1.3343361732194599e-07 -1.951722894377731e-08 -0.00025021886095124614 -2.6317440650810294e-09 1.1332136717130827e-08 -2.1468366431778986e-07 -5.4681293730544267e-08 1.3878495902307534e-08 -0.00025020481899142629 2.4515325480314466e-08 1.6152693274787213e-08 -1.8749940775723422e-07 -4.0157084189134517e-08 -5.0912315914330295e-08 -0.00025020398668889921 -1.007547888870853e-07 -8.6367730962300602e-08 -0.00025023334340978253 -4.0157084189134523e-08 -5.0912315914330295e-08 -0.00025020398668889921 -2.6317440650810294e-09 1.1332136717130827e-08 -2.1468366431778986e-07 2.4515325480314466e-08 1.6152693274787213e-08 -1.8749940775723422e-07 -5.4681293730544241e-08 1.3878495902307521e-08 -0.00025020481899142624 -4.0157084189134517e-08 -5.0912315914330295e-08 -0.00025020398668889921 -8.4334850803019559e-08 -2.3212616966489892e-08 -0.00025021819016786336 2.4515325480314466e-08 1.6152693274787213e-08 -1.8749940775723422e-07 -4.0157084189134517e-08 -5.0912315914330295e-08 -0.00025020398668889921 -1.0075478888708531e-07 -8.6367730962300602e-08 -0.00025023334340978253 -8.4334850803019546e-08 -2.3212616966489882e-08 -0.0002502181901678633 2.4515325480314466e-08 1.6152693274787213e-08 -1.8749940775723422e-07 -2.4656536901480915e-08 -4.6470928894278212e-08 -2.3441202925218828e-07 -5.194091436150279e-08 -1.2724769330054262e-07 -0.0002502077610903694 -2.6317440650810294e-09 1.1332136717130827e-08 -2.1468366431778986e-07 -1.007547888870853e-07 -8.6367730962300602e-08 -0.00025023334340978253 -2.4656536901480915e-08 -4.6470928894278212e-08 -2.3441202925218828e-07 -2.6317440650810245e-09 1.1332136717130833e-08 -2.1468366431778986e-07 2.4515325480314466e-08 1.6152693274787213e-08 -1.8749940775723422e-07 -1.007547888870853e-07 -8.6367730962300602e-08 -0.00025023334340978253 -5.4630247008611555e-08 -3.5568358125678976e-08 -1.0558484335960514e-07 -2.4656536901480915e-08 -4.6470928894278212e-08 -2.3441202925218828e-07 2.4515325480314466e-08 1.6152693274787213e-08 -1.8749940775723422e-07 -1.007547888870853e-07 -8.6367730962300602e-08 -0.00025023334340978253 -2.4656536901480915e-08 -4.6470928894278212e-08 -2.3441202925218828e-07 5.0248037134716262e-09 -5.2720990687541384e-08 -1.8098150367161284e-07 -2.6317440650810294e-09 1.1332136717130827e-08 -2.1468366431778986e-07 -5.1940914361502797e-08 -1.2724769330054259e-07 -0.0002502077610903694 -2.6317440650810294e-09 1.1332136717130827e-08 -2.1468366431778986e-07 5.0248037134716303e-09 -5.2720990687541384e-08 -1.8098150367158817e-07 -4.8807952531138892e-09 1.6546708482194273e-08 -9.7709441583645488e-08 -5.1940914361502797e-08 -1.2724769330054259e-07 -0.0002502077610903694 -2.6317440650810294e-09 1.1332136717130827e-08 -2.1468366431778986e-07 -5.194091436150279e-08 -1.2724769330054264e-07 -0.00025020776109036934 -4.8807952531138892e-09 1.6546708482194276e-08 -9.7709441583654077e-08 -4.0157084189134517e-08 -5.0912315914330295e-08 -0.00025020398668889921 3.7897891307484161e-09 2.5030884340567081e-09 -1.8649049483752121e-07 -2.6317440650810294e-09 1.1332136717130827e-08 -2.1468366431778986e-07 5.7103991761969028e-09 -9.1897548644279956e-09 -7.257155776972121e-08 -4.0157084189134517e-08 -5.0912315914330295e-08 -0.00025020398668889921 5.7103991761969028e-09 -9.1897548644279956e-09 -7.257155776972121e-08 -2.6317440650810319e-09 1.1332136717130824e-08 -2.146836643178022e-07 -4.8807952531138892e-09 1.6546708482194273e-08 -9.7709441583645488e-08 -4.0157084189134517e-08 -5.0912315914330295e-08 -0.00025020398668889921 5.7103991761969028e-09 -9.1897548644279956e-09 -7.257155776972121e-08 -4.0157084189134497e-08 -5.0912315914330334e-08 -0.00025020398668889926 -4.8807952531138868e-09 1.654670848219427e-08 -9.7709441583650729e-08 -5.1090223092872945e-09 -8.4147681616467602e-08 -0.00025018507413546333 5.3191271020013026e-08 -2.6642587289682492e-08 -0.00025019539493019183 1.2402946993366954e-08 -4.2728827727012792e-08 -0.00025018016420011869 5.7103991761969028e-09 -9.1897548644279956e-09 -7.257155776972121e-08 -1.2701597023715064e-08 1.1314999334876794e-08 -9.8543763430473803e-08 -1.2601065194127133e-08 4.7781306176199381e-09 -1.7697879196408146e-07 5.7103991761969028e-09 -9.1897548644279939e-09 -7.2571557769721197e-08 -1.2701597023715064e-08 1.1314999334876794e-08 -9.8543763430473803e-08 5.3191271020013026e-08 -2.6642587289682492e-08 -0.00025019539493019183 5.7103991761969028e-09 -9.1897548644279956e-09 -7.257155776972121e-08 -5.1090223092872945e-09 -8.4147681616467602e-08 -0.00025018507413546333 -1.2701597023715064e-08 1.1314999334876794e-08 -9.8543763430473803e-08 1.2402946993366944e-08 -4.2728827727012792e-08 -0.00025018016420011869 5.7103991761969028e-09 -9.1897548644279956e-09 -7.257155776972121e-08 -4.8807952531138892e-09 1.6546708482194273e-08 -9.7709441583645488e-08 -1.2701597023715064e-08 1.1314999334876794e-08 -9.8543763430473803e-08 -5.1090223092872945e-09 -8.4147681616467602e-08 -0.00025018507413546333 -4.8807952531138892e-09 1.6546708482194273e-08 -9.7709441583645488e-08 2.9118623099787909e-08 -4.4973803751509392e-08 -1.3795280499339997e-07 -1.2701597023715064e-08 1.1314999334876794e-08 -9.8543763430473803e-08 1.9424314648141098e-08 -1.3542569447092323e-07 -0.0002501974593498796 5.0248037134716303e-09 -5.2720990687541384e-08 -1.8098150367158817e-07 1.9424314648141101e-08 -1.3542569447092325e-07 -0.00025019745934987966 -4.8807952531138892e-09 1.6546708482194273e-08 -9.7709441583645488e-08 -5.1940914361502784e-08 -1.2724769330054259e-07 -0.00025020776109036934 5.0248037134716303e-09 -5.2720990687541384e-08 -1.8098150367158817e-07 2.9118623099787916e-08 -4.4973803751509412e-08 -1.3795280499339997e-07 -4.8807952531138892e-09 1.6546708482194273e-08 -9.7709441583645488e-08 1.9424314648141095e-08 -1.3542569447092325e-07 -0.00025019745934987966 -4.8807952531138892e-09 1.6546708482194273e-08 -9.7709441583645488e-08 1.9424314648141098e-08 -1.3542569447092323e-07 -0.0002501974593498796 -1.2701597023715064e-08 1.1314999334876796e-08 -9.8543763430469264e-08 -5.1090223092872945e-09 -8.4147681616467602e-08 -0.00025018507413546333 1.9424314648141098e-08 -1.3542569447092323e-07 -0.0002501974593498796 -5.1940914361502777e-08 -1.2724769330054256e-07 -0.00025020776109036929 -5.1090223092872945e-09 -8.4147681616467602e-08 -0.00025018507413546333 -4.8807952531138892e-09 1.6546708482194273e-08 -9.7709441583645488e-08 1.9424314648141098e-08 -1.3542569447092323e-07 -0.0002501974593498796 -5.1090223092872945e-09 -8.4147681616467602e-08 -0.00025018507413546333 3.6405689352046989e-08 -7.037516748364634e-08 -0.00025018848982403337 -1.2701597023715064e-08 1.1314999334876794e-08 -9.8543763430473803e-08 1.2402946993366944e-08 -4.2728827727012792e-08 -0.00025018016420011869 5.3191271020013033e-08 -2.6642587289682492e-08 -0.00025019539493019183 3.6405689352046989e-08 -7.037516748364634e-08 -0.00025018848982403337 -1.2701597023715064e-08 1.1314999334876794e-08 -9.8543763430473803e-08 -5.1090223092872945e-09 -8.4147681616467602e-08 -0.00025018507413546333 1.2402946993366944e-08 -4.2728827727012792e-08 -0.00025018016420011869 3.6405689352046989e-08 -7.037516748364634e-08 -0.00025018848982403337 -1.2701597023715064e-08 1.1314999334876794e-08 -9.8543763430473803e-08 -4.0157084189134517e-08 -5.0912315914330295e-08 -0.00025020398668889921 1.2402946993366946e-08 -4.2728827727012792e-08 -0.00025018016420011869 -5.1090223092872945e-09 -8.4147681616467602e-08 -0.00025018507413546333 5.7103991761969028e-09 -9.1897548644279956e-09 -7.257155776972121e-08 -4.0157084189134517e-08 -5.0912315914330295e-08 -0.00025020398668889921 4.6049871340832291e-09 -1.6664806845841655e-10 -0.00025019722130686115 1.2402946993366944e-08 -4.2728827727012792e-08 -0.00025018016420011869 5.7103991761969028e-09 -9.1897548644279956e-09 -7.257155776972121e-08 -5.1940914361502784e-08 -1.2724769330054259e-07 -0.00025020776109036934 -4.0157084189134517e-08 -5.0912315914330295e-08 -0.00025020398668889921 -5.1090223092872945e-09 -8.4147681616467602e-08 -0.00025018507413546333 -4.8807952531138892e-09 1.6546708482194273e-08 -9.7709441583645488e-08 -5.1940914361502784e-08 -1.2724769330054259e-07 -0.00025020776109036934 -1.007547888870853e-07 -8.6367730962300588e-08 -0.00025023334340978253 -4.0157084189134517e-08 -5.0912315914330295e-08 -0.00025020398668889921 -2.6317440650810183e-09 1.1332136717130843e-08 -2.1468366431773462e-07 -4.0157084189134517e-08 -5.0912315914330295e-08 -0.00025020398668889921 -5.1940914361502784e-08 -1.2724769330054259e-07 -0.00025020776109036934 -5.1090223092872945e-09 -8.4147681616467602e-08 -0.00025018507413546333 1.342688195330615e-08 -1.0928213917652711e-07 -0.00050024183603022802 1.3426881953306133e-08 -1.0928213917652712e-07 -0.00050024183603022802 -1.7763088577255822e-08 -5.5698635138834034e-08 -0.00050024072692775941 2.1585568604745211e-08 -7.3842292289880239e-08 -0.00050023705327713493 -5.1090223092872945e-09 -8.4147681616467602e-08 -0.00025018507413546333 -4.0157084189134517e-08 -5.0912315914330295e-08 -0.00025020398668889921 1.3426881953306135e-08 -1.0928213917652715e-07 -0.00050024183603022802 -5.1090223092872937e-09 -8.4147681616467589e-08 -0.00025018507413546333 -1.7763088577255822e-08 -5.5698635138834034e-08 -0.00050024072692775941 1.3426881953306133e-08 -1.0928213917652712e-07 -0.00050024183603022802 -4.495831144067322e-08 -1.0091920827755714e-07 -0.00050025145002038137 -1.7763088577255822e-08 -5.5698635138834034e-08 -0.00050024072692775941 -4.0157084189134517e-08 -5.0912315914330295e-08 -0.00025020398668889915 -1.007547888870853e-07 -8.6367730962300602e-08 -0.00025023334340978253 -5.1940914361502777e-08 -1.2724769330054256e-07 -0.00025020776109036934 -4.0157084189134517e-08 -5.0912315914330295e-08 -0.00025020398668889921 1.342688195330615e-08 -1.0928213917652711e-07 -0.00050024183603022802 4.6049871340832291e-09 -1.6664806845841655e-10 -0.00025019722130686115 -4.0157084189134517e-08 -5.0912315914330295e-08 -0.00025020398668889921 1.2402946993366944e-08 -4.2728827727012792e-08 -0.00025018016420011869 -1.7763088577255822e-08 -5.5698635138834034e-08 -0.00050024072692775941 1.2402946993366944e-08 -4.2728827727012792e-08 -0.00025018016420011869 -1.7763088577255786e-08 -5.5698635138834034e-08 -0.00050024072692775952 -5.109022309287292e-09 -8.4147681616467602e-08 -0.00025018507413546333 2.1585568604745211e-08 -7.3842292289880239e-08 -0.00050023705327713493 -1.7763088577255822e-08 -5.5698635138834034e-08 -0.00050024072692775941 5.285518203447834e-09 3.3977405199378185e-09 -0.00050024015126508606 2.189696233078987e-08 -3.3945748206068674e-08 -0.00050023617907914001 1.2402946993366944e-08 -4.2728827727012792e-08 -0.00025018016420011869 1.2402946993366944e-08 -4.2728827727012792e-08 -0.00025018016420011869 -4.0157084189134517e-08 -5.0912315914330295e-08 -0.00025020398668889921 -5.1090223092872945e-09 -8.4147681616467602e-08 -0.00025018507413546333 -1.7763088577255822e-08 -5.5698635138834034e-08 -0.00050024072692775941 -1.7763088577255822e-08 -5.5698635138834034e-08 -0.00050024072692775941 2.189696233078987e-08 -3.3945748206068674e-08 -0.00050023617907914001 2.1585568604745211e-08 -7.3842292289880239e-08 -0.00050023705327713493 1.2402946993366944e-08 -4.2728827727012792e-08 -0.00025018016420011869 2.189696233078987e-08 -3.3945748206068674e-08 -0.00050023617907914001 5.4737282952888282e-08 -1.567270046466827e-08 -0.00050024194754310931 5.1804561556865892e-08 -5.3006081232249176e-08 -0.00050023741580112731 3.6405689352046989e-08 -7.037516748364634e-08 -0.00025018848982403337 5.3191271020013026e-08 -2.6642587289682492e-08 -0.00025019539493019183 1.2402946993366943e-08 -4.2728827727012799e-08 -0.00025018016420011869 3.6405689352046989e-08 -7.037516748364634e-08 -0.00025018848982403337 5.4737282952888276e-08 -1.5672700464668267e-08 -0.00050024194754310931 5.4737282952888276e-08 -1.5672700464668267e-08 -0.00050024194754310931 2.1896962330789876e-08 -3.3945748206068668e-08 -0.00050023617907914001 1.2402946993366944e-08 -4.2728827727012792e-08 -0.00025018016420011869 3.6405689352046989e-08 -7.037516748364634e-08 -0.00025018848982403337 1.2402946993366944e-08 -4.2728827727012792e-08 -0.00025018016420011869 2.1585568604745211e-08 -7.3842292289880239e-08 -0.00050023705327713493 3.6405689352046989e-08 -7.037516748364634e-08 -0.00025018848982403337 2.189696233078987e-08 -3.3945748206068674e-08 -0.00050023617907914001 1.2402946993366944e-08 -4.2728827727012792e-08 -0.00025018016420011869 -5.1090223092872945e-09 -8.4147681616467602e-08 -0.00025018507413546333 3.6405689352046989e-08 -7.037516748364634e-08 -0.00025018848982403337 2.1585568604745211e-08 -7.3842292289880239e-08 -0.00050023705327713493 2.1585568604745211e-08 -7.3842292289880239e-08 -0.00050023705327713493 2.189696233078987e-08 -3.3945748206068674e-08 -0.00050023617907914001 5.1804561556865892e-08 -5.3006081232249176e-08 -0.00050023741580112731 3.6405689352046989e-08 -7.037516748364634e-08 -0.00025018848982403337 -5.1940914361502784e-08 -1.2724769330054259e-07 -0.00025020776109036934 1.9424314648141098e-08 -1.3542569447092323e-07 -0.0002501974593498796 -5.1090223092872945e-09 -8.4147681616467602e-08 -0.00025018507413546333 6.6421010715166441e-08 -8.7910667705722529e-08 -0.00050023805665004334 6.6421010715166427e-08 -8.7910667705722555e-08 -0.00050023805665004334 1.3426881953306126e-08 -1.0928213917652711e-07 -0.00050024183603022791 2.1585568604745211e-08 -7.3842292289880239e-08 -0.00050023705327713493 -5.1090223092872945e-09 -8.4147681616467602e-08 -0.00025018507413546333 -5.1940914361502784e-08 -1.2724769330054259e-07 -0.00025020776109036934 6.6421010715166454e-08 -8.7910667705722542e-08 -0.00050023805665004334 -5.1090223092872945e-09 -8.4147681616467602e-08 -0.00025018507413546333 1.3426881953306133e-08 -1.0928213917652712e-07 -0.00050024183603022802 -5.1090223092872945e-09 -8.4147681616467602e-08 -0.00025018507413546333 6.6421010715166427e-08 -8.7910667705722555e-08 -0.00050023805665004334 3.6405689352046989e-08 -7.0375167483646353e-08 -0.00025018848982403342 2.1585568604745211e-08 -7.3842292289880239e-08 -0.00050023705327713493 -5.1090223092872945e-09 -8.4147681616467602e-08 -0.00025018507413546333 1.9424314648141095e-08 -1.3542569447092323e-07 -0.0002501974593498796 3.6405689352046989e-08 -7.037516748364634e-08 -0.00025018848982403337 6.6421010715166427e-08 -8.7910667705722555e-08 -0.00050023805665004334 6.6421010715166427e-08 -8.7910667705722555e-08 -0.00050023805665004334 2.1585568604745211e-08 -7.3842292289880239e-08 -0.00050023705327713493 5.1804561556865892e-08 -5.3006081232249176e-08 -0.00050023741580112731 3.6405689352046989e-08 -7.037516748364634e-08 -0.00025018848982403337 1.3426881953306133e-08 -1.0928213917652712e-07 -0.00050024183603022802 6.6421010715166441e-08 -8.7910667705722555e-08 -0.00050023805665004334 2.1585568604745211e-08 -7.3842292289880239e-08 -0.00050023705327713493 5.4070236636992887e-08 -9.7714493793771091e-08 -0.00075027449352671591 2.1585568604745211e-08 -7.3842292289880239e-08 -0.00050023705327713493 6.6421010715166427e-08 -8.7910667705722568e-08 -0.00050023805665004334 5.1804561556865892e-08 -5.3006081232249176e-08 -0.00050023741580112731 5.4070236636992893e-08 -9.7714493793771091e-08 -0.0007502744935267158 2.189696233078987e-08 -3.3945748206068674e-08 -0.00050023617907914001 2.1585568604745211e-08 -7.3842292289880239e-08 -0.00050023705327713493 5.1804561556865892e-08 -5.3006081232249176e-08 -0.00050023741580112731 1.9446258876822828e-08 -7.5921511201781866e-08 -0.00075027448187289759 5.4737282952888276e-08 -1.5672700464668267e-08 -0.00050024194754310931 2.189696233078987e-08 -3.3945748206068681e-08 -0.00050023617907914001 5.1804561556865892e-08 -5.3006081232249176e-08 -0.00050023741580112731 5.3659635500081282e-08 -1.9712139893444383e-08 -0.00075027713252303458 2.189696233078987e-08 -3.3945748206068674e-08 -0.00050023617907914001 -1.7763088577255822e-08 -5.5698635138834034e-08 -0.00050024072692775941 2.1585568604745211e-08 -7.3842292289880239e-08 -0.00050023705327713493 -1.6514619342314717e-08 -5.5258126423613265e-08 -0.00075027529645470964 5.285518203447834e-09 3.3977405199378185e-09 -0.00050024015126508606 -1.7763088577255822e-08 -5.5698635138834034e-08 -0.00050024072692775941 2.189696233078987e-08 -3.3945748206068674e-08 -0.00050023617907914001 -1.6514619342314717e-08 -5.5258126423613265e-08 -0.00075027529645470964 -4.495831144067322e-08 -1.0091920827755715e-07 -0.00050025145002038137 1.3426881953306133e-08 -1.0928213917652711e-07 -0.00050024183603022802 -1.7763088577255822e-08 -5.5698635138834034e-08 -0.00050024072692775941 -1.9358064722513593e-09 -1.1165195407948844e-07 -0.00075027486002766171 -1.7763088577255822e-08 -5.5698635138834034e-08 -0.00050024072692775941 1.3426881953306133e-08 -1.0928213917652712e-07 -0.00050024183603022802 2.1585568604745211e-08 -7.3842292289880239e-08 -0.00050023705327713493 -1.9358064722513593e-09 -1.1165195407948844e-07 -0.00075027486002766171 -4.495831144067322e-08 -1.0091920827755715e-07 -0.00050025145002038137 -1.7763088577255825e-08 -5.5698635138834028e-08 -0.00050024072692775941 -6.5683348629617826e-08 -4.3493399709501792e-08 -0.00050024544105816023 -5.7170960325582183e-08 -9.5808094099033693e-08 -0.00075027803755021798 -8.7987115773343237e-08 -6.6310499984859064e-08 -0.00050024670705175437 -4.495831144067322e-08 -1.0091920827755715e-07 -0.00050025145002038137 -6.5683348629617826e-08 -4.3493399709501792e-08 -0.00050024544105816023 -5.7170960325582183e-08 -9.5808094099033693e-08 -0.00075027803755021798 -1.007547888870853e-07 -8.6367730962300602e-08 -0.00025023334340978253 1.3426881953306159e-08 -1.0928213917652713e-07 -0.00050024183603022802 -4.0157084189134517e-08 -5.0912315914330295e-08 -0.00025020398668889921 -4.495831144067322e-08 -1.0091920827755715e-07 -0.00050025145002038137 -1.007547888870853e-07 -8.6367730962300602e-08 -0.00025023334340978253 -4.015708418913451e-08 -5.0912315914330288e-08 -0.00025020398668889921 -8.4334850803019559e-08 -2.3212616966489892e-08 -0.00025021819016786336 -4.495831144067322e-08 -1.0091920827755715e-07 -0.00050025145002038137 -1.3343361732194599e-07 -1.951722894377731e-08 -0.00025021886095124614 -1.007547888870853e-07 -8.6367730962300602e-08 -0.00025023334340978253 -8.4334850803019559e-08 -2.3212616966489892e-08 -0.00025021819016786336 -4.495831144067322e-08 -1.0091920827755715e-07 -0.00050025145002038137 -5.0932247061277565e-08 3.0316840441076977e-09 -0.00050024263792332107 -1.7763088577255822e-08 -5.5698635138834034e-08 -0.00050024072692775941 -6.5683348629617826e-08 -4.3493399709501792e-08 -0.00050024544105816023 -8.4334850803019559e-08 -2.3212616966489892e-08 -0.00025021819016786336 -1.7763088577255822e-08 -5.5698635138834034e-08 -0.00050024072692775941 -4.4958311440673226e-08 -1.0091920827755715e-07 -0.00050025145002038137 -6.5683348629617839e-08 -4.3493399709501778e-08 -0.00050024544105816012 -8.4334850803019559e-08 -2.3212616966489892e-08 -0.00025021819016786336 -4.495831144067322e-08 -1.0091920827755715e-07 -0.00050025145002038137 -1.7763088577255822e-08 -5.5698635138834048e-08 -0.00050024072692775941 -4.0157084189134517e-08 -5.0912315914330295e-08 -0.00025020398668889921 -8.4334850803019559e-08 -2.3212616966489892e-08 -0.00025021819016786336 -4.0157084189134517e-08 -5.0912315914330295e-08 -0.00025020398668889921 -5.0932247061277558e-08 3.031684044107713e-09 -0.00050024263792332107 -8.4334850803019559e-08 -2.3212616966489892e-08 -0.00025021819016786336 -1.7763088577255822e-08 -5.5698635138834034e-08 -0.00050024072692775941 -4.495831144067322e-08 -1.0091920827755715e-07 -0.00050025145002038137 -8.7987115773343237e-08 -6.6310499984859064e-08 -0.00050024670705175437 -6.5683348629617826e-08 -4.3493399709501792e-08 -0.00050024544105816023 -8.4334850803019559e-08 -2.3212616966489892e-08 -0.00025021819016786336 -1.3343361732194599e-07 -1.951722894377731e-08 -0.00025021886095124614 -4.4958311440673233e-08 -1.0091920827755716e-07 -0.00050025145002038137 -8.4334850803019559e-08 -2.3212616966489892e-08 -0.00025021819016786336 -8.7987115773343237e-08 -6.6310499984859064e-08 -0.00050024670705175437 -8.7987115773343237e-08 -6.6310499984859064e-08 -0.00050024670705175437 -1.0916644725101987e-07 -1.3238989245604117e-08 -0.00050025386220564465 -6.5683348629617826e-08 -4.3493399709501792e-08 -0.00050024544105816023 -8.4334850803019559e-08 -2.3212616966489892e-08 -0.00025021819016786336 -1.2759872420798053e-07 4.9916602955362209e-08 -0.0002502383754837724 -1.3343361732194599e-07 -1.951722894377731e-08 -0.00025021886095124614 -8.4334850803019559e-08 -2.3212616966489892e-08 -0.00025021819016786336 -8.7987115773343237e-08 -6.6310499984859064e-08 -0.00050024670705175437 -1.0916644725101987e-07 -1.3238989245604118e-08 -0.00050025386220564465 -8.7987115773343237e-08 -6.6310499984859064e-08 -0.00050024670705175437 -6.5683348629617826e-08 -4.3493399709501792e-08 -0.00050024544105816023 -9.7770367953496243e-08 -5.4076971546027569e-08 -0.00075027636963193186 -5.0932247061277565e-08 3.0316840441076977e-09 -0.00050024263792332107 -1.7763088577255822e-08 -5.5698635138834034e-08 -0.00050024072692775941 5.285518203447834e-09 3.3977405199378185e-09 -0.00050024015126508606 -5.0701442037429883e-08 5.2386630154358014e-09 -0.0007502763622866007 -1.7763088577255822e-08 -5.5698635138834034e-08 -0.00050024072692775941 -5.0932247061277558e-08 3.0316840441077068e-09 -0.00050024263792332107 -6.5683348629617826e-08 -4.3493399709501792e-08 -0.00050024544105816023 -5.0701442037429877e-08 5.2386630154358022e-09 -0.00075027636228660081 -5.0932247061277565e-08 3.0316840441076977e-09 -0.00050024263792332107 5.285518203447834e-09 3.3977405199378185e-09 -0.00050024015126508606 -1.9839430865784031e-08 3.6185946768023937e-08 -0.00050023853632978426 -5.0701442037429883e-08 5.2386630154358014e-09 -0.0007502763622866007 -5.0932247061277565e-08 3.0316840441076977e-09 -0.00050024263792332107 -1.0916644725101987e-07 -1.3238989245604118e-08 -0.00050025386220564465 -6.5683348629617826e-08 -4.3493399709501792e-08 -0.00050024544105816023 -1.1167803932503916e-07 1.9377224304718074e-09 -0.00075027954691670048 -1.0916644725101987e-07 -1.3238989245604118e-08 -0.00050025386220564465 -5.0932247061277565e-08 3.0316840441076977e-09 -0.00050024263792332107 -6.5683348629617826e-08 -4.3493399709501792e-08 -0.00050024544105816023 -8.4334850803019559e-08 -2.3212616966489892e-08 -0.00025021819016786336 -5.4681293730544241e-08 1.3878495902307521e-08 -0.00025020481899142624 -1.2759872420798053e-07 4.9916602955362209e-08 -0.0002502383754837724 -8.4334850803019559e-08 -2.3212616966489892e-08 -0.00025021819016786336 -1.0916644725101987e-07 -1.3238989245604118e-08 -0.00050025386220564465 -5.4681293730544241e-08 1.3878495902307521e-08 -0.00025020481899142624 -1.0916644725101987e-07 -1.3238989245604113e-08 -0.00050025386220564465 -8.4334850803019559e-08 -2.3212616966489892e-08 -0.00025021819016786336 -5.0932247061277565e-08 3.0316840441076977e-09 -0.00050024263792332107 -1.2759872420798053e-07 4.9916602955362209e-08 -0.0002502383754837724 -8.7987115773343224e-08 -6.6310499984859091e-08 -0.00050024670705175447 -8.4334850803019572e-08 -2.3212616966489882e-08 -0.00025021819016786336 -1.0916644725101987e-07 -1.3238989245604118e-08 -0.00050025386220564465 -4.0157084189134517e-08 -5.0912315914330295e-08 -0.00025020398668889921 -5.4681293730544234e-08 1.3878495902307526e-08 -0.00025020481899142624 -8.4334850803019559e-08 -2.3212616966489892e-08 -0.00025021819016786336 -5.0932247061277558e-08 3.0316840441076915e-09 -0.00050024263792332118 -5.4681293730544241e-08 1.3878495902307521e-08 -0.00025020481899142624 4.6049871340832291e-09 -1.6664806845841655e-10 -0.00025019722130686115 -7.0313969834247955e-09 4.0878661183756611e-08 -0.00025017991926912892 -5.0932247061277565e-08 3.0316840441076977e-09 -0.00050024263792332107 -5.4681293730544241e-08 1.3878495902307521e-08 -0.00025020481899142624 -4.0157084189134517e-08 -5.0912315914330295e-08 -0.00025020398668889921 4.6049871340832291e-09 -1.6664806845841655e-10 -0.00025019722130686115 -5.0932247061277565e-08 3.0316840441076977e-09 -0.00050024263792332107 -2.5386091940800532e-08 6.9258134957605747e-08 -0.00050024056826675808 -1.9839430865784031e-08 3.6185946768023937e-08 -0.00050023853632978426 -5.1284875860602272e-08 5.0052426180973176e-08 -0.00050023973439035265 -3.5775643801775108e-08 6.6278640758647744e-08 -0.00025019369378573373 -5.4681293730544241e-08 1.3878495902307521e-08 -0.00025020481899142624 -7.0313969834247955e-09 4.0878661183756611e-08 -0.00025017991926912892 -3.5775643801775108e-08 6.6278640758647744e-08 -0.00025019369378573373 -5.0932247061277565e-08 3.0316840441076977e-09 -0.00050024263792332107 -7.0313969834247955e-09 4.0878661183756611e-08 -0.00025017991926912892 -5.4985924832598514e-10 8.0959204062900749e-08 -0.00025019045325711268 -3.5775643801775108e-08 6.6278640758647744e-08 -0.00025019369378573373 -1.9839430865784031e-08 3.6185946768023937e-08 -0.00050023853632978426 -1.9839430865784031e-08 3.6185946768023937e-08 -0.00050023853632978426 -5.0932247061277565e-08 3.0316840441076977e-09 -0.00050024263792332107 -5.1284875860602272e-08 5.0052426180973176e-08 -0.00050023973439035265 -3.5775643801775108e-08 6.6278640758647744e-08 -0.00025019369378573373 -5.0932247061277565e-08 3.0316840441076977e-09 -0.00050024263792332107 -1.9839430865784031e-08 3.6185946768023937e-08 -0.00050023853632978426 -7.0313969834247955e-09 4.0878661183756611e-08 -0.00025017991926912892 -3.5775643801775108e-08 6.6278640758647744e-08 -0.00025019369378573373 -5.0932247061277565e-08 3.0316840441076977e-09 -0.00050024263792332107 -1.0132651338384261e-07 4.3164032121482232e-08 -0.00050024815173481038 -5.1284875860602272e-08 5.0052426180973176e-08 -0.00050023973439035265 -3.5775643801775108e-08 6.6278640758647744e-08 -0.00025019369378573373 -1.0132651338384263e-07 4.3164032121482219e-08 -0.00050024815173481038 -5.0932247061277565e-08 3.0316840441076977e-09 -0.00050024263792332107 -5.4681293730544241e-08 1.3878495902307521e-08 -0.00025020481899142624 -3.5775643801775108e-08 6.6278640758647744e-08 -0.00025019369378573373 -8.5148325784795855e-08 1.0636635324408341e-07 -0.00025022554003300402 -1.0916644725101987e-07 -1.3238989245604118e-08 -0.00050025386220564465 -5.4681293730544241e-08 1.3878495902307521e-08 -0.00025020481899142624 -1.0132651338384263e-07 4.3164032121482219e-08 -0.00050024815173481038 -8.5148325784795855e-08 1.0636635324408341e-07 -0.00025022554003300402 -1.275987242079805e-07 4.9916602955362196e-08 -0.00025023837548377245 -5.4681293730544241e-08 1.3878495902307521e-08 -0.00025020481899142624 -1.0916644725101987e-07 -1.3238989245604118e-08 -0.00050025386220564465 -1.0916644725101987e-07 -1.3238989245604118e-08 -0.00050025386220564465 -1.0132651338384263e-07 4.3164032121482219e-08 -0.00050024815173481038 -5.0932247061277565e-08 3.0316840441076977e-09 -0.00050024263792332107 -5.4681293730544241e-08 1.3878495902307521e-08 -0.00025020481899142624 -8.5148325784795855e-08 1.0636635324408341e-07 -0.00025022554003300402 -5.4681293730544241e-08 1.3878495902307521e-08 -0.00025020481899142624 -3.5775643801775108e-08 6.6278640758647744e-08 -0.00025019369378573373 -1.0132651338384263e-07 4.3164032121482219e-08 -0.00050024815173481038 -1.0132651338384263e-07 4.3164032121482219e-08 -0.00050024815173481038 -1.0916644725101987e-07 -1.3238989245604115e-08 -0.00050025386220564475 -5.0932247061277565e-08 3.0316840441076977e-09 -0.00050024263792332107 -1.1167803932503916e-07 1.9377224304718074e-09 -0.00075027954691670048 -1.0132651338384263e-07 4.3164032121482219e-08 -0.00050024815173481038 -5.0932247061277565e-08 3.0316840441076977e-09 -0.00050024263792332107 -5.1284875860602272e-08 5.0052426180973176e-08 -0.00050023973439035265 -9.5744675233299503e-08 5.7470418784881308e-08 -0.00075027825011895588 -1.9839430865784031e-08 3.6185946768023937e-08 -0.00050023853632978426 -2.5386091940800532e-08 6.9258134957605747e-08 -0.00050024056826675808 -5.1284875860602272e-08 5.0052426180973176e-08 -0.00050023973439035265 -1.9290632850542042e-08 3.6142341115454898e-08 -0.00075027598246761476 -5.0932247061277565e-08 3.0316840441076977e-09 -0.00050024263792332107 -1.9839430865784031e-08 3.6185946768023937e-08 -0.00050023853632978426 -5.1284875860602272e-08 5.0052426180973176e-08 -0.00050023973439035265 -5.0701442037429883e-08 5.2386630154358014e-09 -0.0007502763622866007 5.285518203447834e-09 3.3977405199378185e-09 -0.00050024015126508606 1.2954610731181792e-08 5.698023331494922e-08 -0.00050024586184243332 -1.9839430865784031e-08 3.6185946768023937e-08 -0.00050023853632978426 4.8976384996890843e-09 1.8458338046953867e-09 -0.00075027574667115363 -1.9839430865784031e-08 3.6185946768023937e-08 -0.00050023853632978426 1.2954610731181802e-08 5.6980233314949213e-08 -0.00050024586184243343 -2.5386091940800532e-08 6.9258134957605747e-08 -0.00050024056826675808 1.0870337231626459e-08 5.7028204945129704e-08 -0.00075027890328414914 5.285518203447834e-09 3.3977405199378185e-09 -0.00050024015126508606 5.4737282952888276e-08 -1.5672700464668267e-08 -0.00050024194754310931 5.7241913882712661e-08 3.4702006977962943e-08 -0.00050025569006567541 5.3659635500081275e-08 -1.9712139893444383e-08 -0.00075027713252303447 5.4737282952888276e-08 -1.5672700464668267e-08 -0.00050024194754310931 5.285518203447834e-09 3.3977405199378185e-09 -0.00050024015126508606 2.189696233078987e-08 -3.3945748206068674e-08 -0.00050023617907914001 5.3659635500081282e-08 -1.9712139893444383e-08 -0.00075027713252303458 1.2954610731181802e-08 5.6980233314949213e-08 -0.00050024586184243343 5.285518203447834e-09 3.3977405199378185e-09 -0.00050024015126508606 5.7241913882712661e-08 3.4702006977962943e-08 -0.00050025569006567541 4.8976384996890843e-09 1.8458338046953867e-09 -0.00075027574667115363 3.7098911435264008e-08 5.4395735284867011e-08 -0.00025020751472150182 5.285518203447834e-09 3.3977405199378185e-09 -0.00050024015126508606 6.9849444674425713e-08 1.9623138307263661e-08 -0.00025024114380258936 1.2954610731181802e-08 5.6980233314949213e-08 -0.00050024586184243343 1.2954610731181802e-08 5.6980233314949213e-08 -0.00050024586184243343 4.4878045431842296e-08 1.0091057764075303e-07 -0.0005002655202099353 5.7241913882712661e-08 3.4702006977962943e-08 -0.00050025569006567541 6.9849444674425713e-08 1.9623138307263661e-08 -0.00025024114380258936 5.285518203447834e-09 3.3977405199378185e-09 -0.00050024015126508606 1.2954610731181802e-08 5.6980233314949213e-08 -0.00050024586184243343 5.7241913882712654e-08 3.4702006977962943e-08 -0.0005002556900656753 6.9849444674425713e-08 1.9623138307263661e-08 -0.00025024114380258936 3.7098911435264008e-08 5.4395735284867011e-08 -0.00025020751472150182 4.6049871340832291e-09 -1.6664806845841655e-10 -0.00025019722130686115 6.9849444674425713e-08 1.9623138307263661e-08 -0.00025024114380258936 5.285518203447834e-09 3.3977405199378185e-09 -0.00050024015126508606 5.3191271020013026e-08 -2.6642587289682492e-08 -0.00025019539493019183 4.6049871340832291e-09 -1.6664806845841655e-10 -0.00025019722130686115 1.2402946993366944e-08 -4.2728827727012792e-08 -0.00025018016420011869 5.4737282952888276e-08 -1.5672700464668267e-08 -0.00050024194754310931 5.4737282952888276e-08 -1.5672700464668267e-08 -0.00050024194754310931 5.285518203447834e-09 3.3977405199378185e-09 -0.00050024015126508606 4.6049871340832026e-09 -1.6664806845845158e-10 -0.0002501972213068612 1.2402946993366944e-08 -4.2728827727012792e-08 -0.00025018016420011869 5.4737282952888276e-08 -1.5672700464668267e-08 -0.00050024194754310931 5.285518203447834e-09 3.3977405199378185e-09 -0.00050024015126508606 5.7241913882712661e-08 3.4702006977962943e-08 -0.00050025569006567541 6.9849444674425713e-08 1.9623138307263661e-08 -0.00025024114380258936 4.6049871340832291e-09 -1.6664806845841655e-10 -0.00025019722130686115 5.3191271020013026e-08 -2.6642587289682492e-08 -0.00025019539493019183 6.9849444674425713e-08 1.9623138307263661e-08 -0.00025024114380258936 5.4737282952888269e-08 -1.5672700464668267e-08 -0.00050024194754310931 4.6049871340832291e-09 -1.6664806845841655e-10 -0.00025019722130686115 5.4737282952888262e-08 -1.5672700464668244e-08 -0.0005002419475431092 6.9849444674425713e-08 1.9623138307263661e-08 -0.00025024114380258936 5.285518203447834e-09 3.3977405199378185e-09 -0.00050024015126508606 5.285518203447834e-09 3.3977405199378185e-09 -0.00050024015126508606 5.4737282952888276e-08 -1.5672700464668267e-08 -0.00050024194754310931 2.189696233078987e-08 -3.3945748206068674e-08 -0.00050023617907914001 1.2402946993366944e-08 -4.2728827727012792e-08 -0.00025018016420011869 -5.0932247061277565e-08 3.0316840441076977e-09 -0.00050024263792332107 5.285518203447834e-09 3.3977405199378185e-09 -0.00050024015126508606 4.6049871340832167e-09 -1.6664806845845106e-10 -0.00025019722130686115 -7.0313969834247955e-09 4.0878661183756611e-08 -0.00025017991926912892 -5.0932247061277565e-08 3.0316840441076977e-09 -0.00050024263792332107 -1.7763088577255822e-08 -5.5698635138834034e-08 -0.00050024072692775941 -4.0157084189134576e-08 -5.0912315914330314e-08 -0.0002502039866888991 4.6049871340832539e-09 -1.6664806845840931e-10 -0.00025019722130686115 4.6049871340832291e-09 -1.6664806845841655e-10 -0.00025019722130686115 -1.7763088577255822e-08 -5.5698635138834021e-08 -0.0005002407269277593 1.2402946993366944e-08 -4.2728827727012792e-08 -0.00025018016420011869 5.285518203447834e-09 3.3977405199378185e-09 -0.00050024015126508606 -1.7763088577255822e-08 -5.5698635138834034e-08 -0.00050024072692775941 -5.0932247061277565e-08 3.0316840441076977e-09 -0.00050024263792332107 5.285518203447834e-09 3.3977405199378185e-09 -0.00050024015126508606 4.6049871340832291e-09 -1.6664806845841655e-10 -0.00025019722130686115 5.285518203447834e-09 3.3977405199378185e-09 -0.00050024015126508606 -5.0932247061277565e-08 3.0316840441076977e-09 -0.00050024263792332107 -1.9839430865784031e-08 3.6185946768023937e-08 -0.00050023853632978426 -7.0313969834247955e-09 4.0878661183756611e-08 -0.00025017991926912892 1.2954610731181802e-08 5.6980233314949213e-08 -0.00050024586184243343 5.285518203447834e-09 3.3977405199378185e-09 -0.00050024015126508606 -1.9839430865784031e-08 3.6185946768023937e-08 -0.00050023853632978426 -7.0313969834247955e-09 4.0878661183756611e-08 -0.00025017991926912892 4.6049871340832291e-09 -1.6664806845841655e-10 -0.00025019722130686115 3.7098911435264002e-08 5.4395735284867018e-08 -0.00025020751472150176 -7.0313969834247955e-09 4.0878661183756611e-08 -0.00025017991926912892 5.285518203447834e-09 3.3977405199378185e-09 -0.00050024015126508606 5.285518203447834e-09 3.3977405199378185e-09 -0.00050024015126508606 1.295461073118179e-08 5.6980233314949226e-08 -0.00050024586184243343 3.7098911435264055e-08 5.4395735284867005e-08 -0.00025020751472150187 -7.0313969834248467e-09 4.0878661183756624e-08 -0.00025017991926912898 -7.0313969834247955e-09 4.0878661183756611e-08 -0.00025017991926912892 1.2954610731181802e-08 5.6980233314949213e-08 -0.00050024586184243343 -5.4985924832599258e-10 8.0959204062900749e-08 -0.00025019045325711268 -1.9839430865784031e-08 3.6185946768023937e-08 -0.00050023853632978426 -7.0313969834247955e-09 4.0878661183756611e-08 -0.00025017991926912892 3.7098911435264008e-08 5.4395735284867011e-08 -0.00025020751472150182 -5.4985924832599103e-10 8.0959204062900749e-08 -0.00025019045325711268 1.2954610731181802e-08 5.6980233314949213e-08 -0.00050024586184243343 4.6049871340832291e-09 -1.6664806845841655e-10 -0.00025019722130686115 -5.4681293730544241e-08 1.3878495902307521e-08 -0.00025020481899142624 -7.0313969834247955e-09 4.0878661183756611e-08 -0.00025017991926912892 -6.1942140560595971e-09 8.8918341075119741e-09 -6.9361775511668516e-08 3.7098911435264008e-08 5.4395735284867011e-08 -0.00025020751472150182 4.6049871340832291e-09 -1.6664806845841655e-10 -0.00025019722130686115 -7.0313969834247955e-09 4.0878661183756611e-08 -0.00025017991926912892 -6.1942140560595971e-09 8.8918341075119741e-09 -6.9361775511668516e-08 -4.0157084189134517e-08 -5.0912315914330295e-08 -0.00025020398668889921 -5.4681293730544241e-08 1.3878495902307521e-08 -0.00025020481899142624 4.6049871340832291e-09 -1.6664806845841655e-10 -0.00025019722130686115 3.7897891307484161e-09 2.5030884340567081e-09 -1.8649049483752121e-07 5.3191271020013026e-08 -2.6642587289682492e-08 -0.00025019539493019183 4.6049871340832291e-09 -1.6664806845841655e-10 -0.00025019722130686115 6.9849444674425713e-08 1.9623138307263661e-08 -0.00025024114380258936 -1.9810297649676433e-08 -1.3053250391282737e-08 -2.5384930960223343e-07 4.6049871340832291e-09 -1.6664806845841655e-10 -0.00025019722130686115 5.3191271020013026e-08 -2.6642587289682492e-08 -0.00025019539493019183 1.2402946993366944e-08 -4.2728827727012792e-08 -0.00025018016420011869 5.7103991761969028e-09 -9.1897548644279956e-09 -7.257155776972121e-08 3.7098911435264008e-08 5.4395735284867011e-08 -0.00025020751472150182 1.0163473535669872e-07 8.6141546510207859e-08 -0.00025025732167856355 6.9849444674425713e-08 1.9623138307263661e-08 -0.00025024114380258936 -1.9810297649676433e-08 -1.3053250391282737e-08 -2.5384930960223343e-07 4.6049871340832291e-09 -1.6664806845841655e-10 -0.00025019722130686115 3.7098911435264008e-08 5.4395735284867011e-08 -0.00025020751472150182 6.98494446744257e-08 1.9623138307263661e-08 -0.00025024114380258931 -1.9810297649676433e-08 -1.3053250391282737e-08 -2.5384930960223343e-07 -6.1794431233150938e-10 -1.3447579236261003e-08 -1.8495016390480714e-07 4.6049871340832291e-09 -1.6664806845841655e-10 -0.00025019722130686115 -1.9810297649676433e-08 -1.3053250391282737e-08 -2.5384930960223343e-07 3.7098911435264008e-08 5.4395735284867011e-08 -0.00025020751472150182 -6.1794431233150938e-10 -1.3447579236261003e-08 -1.8495016390480714e-07 3.7897891307484161e-09 2.5030884340567081e-09 -1.8649049483752121e-07 -1.9810297649676433e-08 -1.3053250391282737e-08 -2.5384930960223343e-07 4.6049871340832291e-09 -1.6664806845841655e-10 -0.00025019722130686115 3.7897891307484161e-09 2.5030884340567081e-09 -1.8649049483752121e-07 -1.2601065194127133e-08 4.7781306176199381e-09 -1.7697879196408146e-07 -1.9810297649676433e-08 -1.3053250391282737e-08 -2.5384930960223343e-07 5.3191271020013013e-08 -2.6642587289682485e-08 -0.00025019539493019178 5.3191271020013026e-08 -2.6642587289682492e-08 -0.00025019539493019183 4.6049871340832291e-09 -1.6664806845841655e-10 -0.00025019722130686115 3.7897891307483839e-09 2.5030884340567131e-09 -1.8649049483757354e-07 5.7103991761969028e-09 -9.1897548644279956e-09 -7.257155776972121e-08 3.7897891307484161e-09 2.5030884340567081e-09 -1.8649049483752121e-07 5.319127102001298e-08 -2.6642587289682475e-08 -0.00025019539493019178 -1.9810297649676433e-08 -1.3053250391282737e-08 -2.5384930960223343e-07 4.6049871340832291e-09 -1.6664806845841655e-10 -0.00025019722130686115 -1.2601065194127133e-08 4.7781306176199381e-09 -1.7697879196408146e-07 3.7897891307484161e-09 2.5030884340567081e-09 -1.8649049483752121e-07 5.7103991761969028e-09 -9.1897548644279956e-09 -7.257155776972121e-08 5.3191271020013026e-08 -2.6642587289682492e-08 -0.00025019539493019183 -5.4681293730544241e-08 1.3878495902307521e-08 -0.00025020481899142624 -4.0157084189134517e-08 -5.0912315914330295e-08 -0.00025020398668889921 -2.6317440650810299e-09 1.133213671713088e-08 -2.1468366431771575e-07 3.7897891307484219e-09 2.5030884340566907e-09 -1.8649049483751999e-07 -5.4681293730544241e-08 1.3878495902307521e-08 -0.00025020481899142624 4.6049871340832291e-09 -1.6664806845841655e-10 -0.00025019722130686115 3.7897891307484012e-09 2.5030884340567081e-09 -1.8649049483751054e-07 -6.1942140560595971e-09 8.8918341075119741e-09 -6.9361775511668516e-08 3.7897891307484161e-09 2.5030884340567081e-09 -1.8649049483752121e-07 -4.0157084189134517e-08 -5.0912315914330295e-08 -0.00025020398668889915 5.7103991761969028e-09 -9.1897548644279956e-09 -7.257155776972121e-08 4.6049871340832291e-09 -1.6664806845841655e-10 -0.00025019722130686115 4.6049871340832291e-09 -1.6664806845841655e-10 -0.00025019722130686115 3.7098911435264015e-08 5.4395735284867031e-08 -0.00025020751472150182 -6.1794431233151599e-10 -1.3447579236261051e-08 -1.8495016390483308e-07 -6.1942140560595772e-09 8.8918341075120436e-09 -6.9361775511744577e-08 -6.1942140560595971e-09 8.8918341075119741e-09 -6.9361775511668516e-08 -6.1794431233150938e-10 -1.3447579236261003e-08 -1.8495016390480714e-07 5.4298372607419716e-09 -1.6140607097900722e-08 -8.8469819180809892e-08 3.7098911435264008e-08 5.4395735284867011e-08 -0.00025020751472150182 -6.1942140560595971e-09 8.8918341075119741e-09 -6.9361775511668516e-08 3.7098911435264008e-08 5.4395735284867011e-08 -0.00025020751472150182 5.4298372607419692e-09 -1.6140607097900722e-08 -8.8469819180812844e-08 -7.0313969834247955e-09 4.0878661183756611e-08 -0.00025017991926912892 3.7897891307484161e-09 2.5030884340567081e-09 -1.8649049483752121e-07 -6.1794431233151186e-10 -1.3447579236260998e-08 -1.8495016390480711e-07 -6.1942140560595971e-09 8.8918341075119741e-09 -6.9361775511668516e-08 4.6049871340832291e-09 -1.6664806845841655e-10 -0.00025019722130686115 -5.4681293730544241e-08 1.3878495902307521e-08 -0.00025020481899142624 -7.0313969834247955e-09 4.0878661183756611e-08 -0.00025017991926912892 -6.1942140560595971e-09 8.8918341075119741e-09 -6.9361775511668516e-08 1.3274555724781466e-08 -1.1032833996613996e-08 -1.0743404880337303e-07 9.3687532004243107e-09 -6.9492358999224012e-09 -2.3280771140917246e-07 -6.1942140560595971e-09 8.8918341075119741e-09 -6.9361775511668516e-08 1.3274555724781466e-08 -1.1032833996613996e-08 -1.0743404880337303e-07 -5.4681293730544241e-08 1.3878495902307521e-08 -0.00025020481899142624 -8.5148325784795855e-08 1.0636635324408341e-07 -0.00025022554003300402 -5.4681293730544241e-08 1.3878495902307521e-08 -0.00025020481899142624 9.3687532004243107e-09 -6.9492358999224012e-09 -2.3280771140917246e-07 1.3274555724781466e-08 -1.1032833996613996e-08 -1.0743404880337303e-07 -6.1942140560595971e-09 8.8918341075119741e-09 -6.9361775511668516e-08 5.4298372607419716e-09 -1.6140607097900722e-08 -8.8469819180809892e-08 1.3274555724781466e-08 -1.1032833996613996e-08 -1.0743404880337303e-07 -7.0313969834247955e-09 4.0878661183756611e-08 -0.00025017991926912892 -7.0313969834247955e-09 4.0878661183756611e-08 -0.00025017991926912892 -5.4681293730544241e-08 1.3878495902307521e-08 -0.00025020481899142624 -3.5775643801775108e-08 6.6278640758647744e-08 -0.00025019369378573373 1.3274555724781466e-08 -1.1032833996613996e-08 -1.0743404880337303e-07 -5.4681293730544241e-08 1.3878495902307521e-08 -0.00025020481899142624 -8.5148325784795842e-08 1.0636635324408341e-07 -0.00025022554003300402 -3.5775643801775108e-08 6.6278640758647744e-08 -0.00025019369378573373 1.3274555724781466e-08 -1.1032833996613996e-08 -1.0743404880337303e-07 -5.4985924832599103e-10 8.0959204062900749e-08 -0.00025019045325711268 -7.0313969834247955e-09 4.0878661183756611e-08 -0.00025017991926912892 -3.5775643801775108e-08 6.6278640758647744e-08 -0.00025019369378573373 1.3274555724781466e-08 -1.1032833996613996e-08 -1.0743404880337303e-07 -2.6317440650810294e-09 1.1332136717130827e-08 -2.1468366431778986e-07 9.3687532004243041e-09 -6.949235899922407e-09 -2.3280771140917249e-07 2.4515325480314466e-08 1.6152693274787213e-08 -1.8749940775723422e-07 -5.4681293730544274e-08 1.3878495902307531e-08 -0.00025020481899142634 9.3687532004243107e-09 -6.9492358999224012e-09 -2.3280771140917246e-07 3.7897891307484161e-09 2.5030884340567081e-09 -1.8649049483752121e-07 -6.1942140560595971e-09 8.8918341075119741e-09 -6.9361775511668516e-08 -5.4681293730544241e-08 1.3878495902307521e-08 -0.00025020481899142624 9.3687532004243107e-09 -6.9492358999224012e-09 -2.3280771140917246e-07 -2.6317440650810294e-09 1.1332136717130827e-08 -2.1468366431778986e-07 3.7897891307484161e-09 2.5030884340567081e-09 -1.8649049483752121e-07 -5.4681293730544241e-08 1.3878495902307521e-08 -0.00025020481899142624 -5.2296049020615822e-08 -4.3714243651273785e-09 -2.45359990925853e-07 -1.3343361732194591e-07 -1.9517228943777194e-08 -0.00025021886095124619 2.4515325480314449e-08 1.615269327478719e-08 -1.8749940775722355e-07 -1.2759872420798053e-07 4.9916602955362209e-08 -0.0002502383754837724 9.3687532004243107e-09 -6.9492358999224012e-09 -2.3280771140917246e-07 -1.2759872420798053e-07 4.9916602955362209e-08 -0.0002502383754837724 2.4515325480314466e-08 1.6152693274787213e-08 -1.8749940775722601e-07 -5.4681293730544241e-08 1.3878495902307521e-08 -0.00025020481899142624 9.3687532004243107e-09 -6.9492358999224012e-09 -2.3280771140917246e-07 -5.2296049020615822e-08 -4.3714243651273785e-09 -2.45359990925853e-07 2.4515325480314466e-08 1.6152693274787213e-08 -1.8749940775723422e-07 -1.2759872420798053e-07 4.9916602955362209e-08 -0.0002502383754837724 -1.2759872420798053e-07 4.9916602955362209e-08 -0.0002502383754837724 -5.4681293730544241e-08 1.3878495902307521e-08 -0.00025020481899142624 -8.4334850803019559e-08 -2.3212616966489892e-08 -0.00025021819016786336 2.4515325480314466e-08 1.6152693274787213e-08 -1.8749940775723422e-07 -1.2759872420798053e-07 4.9916602955362209e-08 -0.0002502383754837724 -8.5148325784795855e-08 1.0636635324408341e-07 -0.00025022554003300402 -5.4681293730544241e-08 1.3878495902307521e-08 -0.00025020481899142624 9.3687532004243107e-09 -6.9492358999224012e-09 -2.3280771140917246e-07 -4.6484177716636203e-08 2.5656671934354828e-08 -2.4541159088972459e-07 -5.2296049020615822e-08 -4.3714243651273735e-09 -2.4535999092587767e-07 9.3687532004243107e-09 -6.9492358999224012e-09 -2.3280771140917246e-07 -1.2759872420798053e-07 4.9916602955362209e-08 -0.0002502383754837724 -4.6484177716636203e-08 2.5656671934354828e-08 -2.4541159088972459e-07 -1.2759872420798053e-07 4.9916602955362209e-08 -0.0002502383754837724 9.3687532004243107e-09 -6.9492358999224012e-09 -2.3280771140917246e-07 -8.5148325784795855e-08 1.0636635324408341e-07 -0.00025022554003300402 -4.6484177716636203e-08 2.5656671934354828e-08 -2.4541159088972459e-07 9.3687532004243107e-09 -6.9492358999224012e-09 -2.3280771140917246e-07 1.3274555724781466e-08 -1.1032833996613996e-08 -1.0743404880337303e-07 -8.5148325784795855e-08 1.0636635324408341e-07 -0.00025022554003300402 -2.9779774567423639e-08 4.4554548271677896e-08 -1.4612564754122069e-07 -4.6484177716636203e-08 2.5656671934354828e-08 -2.4541159088972459e-07 1.3274555724781466e-08 -1.1032833996613996e-08 -1.0743404880337303e-07 -8.5148325784795855e-08 1.0636635324408341e-07 -0.00025022554003300402 -7.0313969834247955e-09 4.0878661183756611e-08 -0.00025017991926912892 -5.4985924832599227e-10 8.0959204062900749e-08 -0.00025019045325711268 5.4298372607419716e-09 -1.6140607097900722e-08 -8.8469819180809892e-08 1.3274555724781466e-08 -1.1032833996613996e-08 -1.0743404880337303e-07 -2.9779774567423639e-08 4.4554548271677896e-08 -1.4612564754122069e-07 -8.5148325784795815e-08 1.0636635324408341e-07 -0.00025022554003300407 1.3274555724781466e-08 -1.1032833996613996e-08 -1.0743404880337303e-07 -1.950333969232611e-08 1.3539521337319775e-07 -0.00025020222795636455 5.4298372607419716e-09 -1.6140607097900722e-08 -8.8469819180809892e-08 -2.9779774567423639e-08 4.4554548271677896e-08 -1.4612564754122069e-07 1.3274555724781466e-08 -1.1032833996613996e-08 -1.0743404880337303e-07 -1.950333969232611e-08 1.3539521337319775e-07 -0.00025020222795636455 5.4298372607419716e-09 -1.6140607097900722e-08 -8.8469819180809892e-08 -1.950333969232611e-08 1.3539521337319775e-07 -0.00025020222795636455 1.3274555724781466e-08 -1.1032833996613996e-08 -1.0743404880337303e-07 -5.4985924832599103e-10 8.0959204062900749e-08 -0.00025019045325711268 -3.9995655248453713e-09 5.3151283458799629e-08 -2.0220333565504414e-07 -2.9779774567423639e-08 4.4554548271677896e-08 -1.4612564754122069e-07 5.4298372607419716e-09 -1.6140607097900722e-08 -8.8469819180809892e-08 -1.950333969232611e-08 1.3539521337319775e-07 -0.00025020222795636455 -1.950333969232611e-08 1.3539521337319775e-07 -0.00025020222795636455 -5.4985924832599103e-10 8.0959204062900749e-08 -0.00025019045325711268 -3.5775643801775108e-08 6.6278640758647744e-08 -0.00025019369378573373 1.3274555724781466e-08 -1.1032833996613996e-08 -1.0743404880337303e-07 -8.5148325784795855e-08 1.0636635324408341e-07 -0.00025022554003300402 -1.950333969232611e-08 1.3539521337319775e-07 -0.00025020222795636455 -3.5775643801775108e-08 6.6278640758647744e-08 -0.00025019369378573373 1.3274555724781466e-08 -1.1032833996613996e-08 -1.0743404880337303e-07 -1.950333969232611e-08 1.3539521337319775e-07 -0.00025020222795636455 -8.5148325784795855e-08 1.0636635324408341e-07 -0.00025022554003300402 -3.5775643801775108e-08 6.6278640758647744e-08 -0.00025019369378573373 -1.0132651338384263e-07 4.3164032121482219e-08 -0.00050024815173481038 5.2027526319693543e-08 1.2723519616178314e-07 -0.00025022351797788177 -1.950333969232611e-08 1.3539521337319775e-07 -0.00025020222795636455 -5.4985924832599103e-10 8.0959204062900749e-08 -0.00025019045325711268 -6.6338838256747019e-08 8.7950531112843566e-08 -0.00050024100567435759 -1.9839430865784031e-08 3.6185946768023937e-08 -0.00050023853632978426 -2.5386091940800526e-08 6.9258134957605747e-08 -0.00050024056826675808 -5.4985924832599103e-10 8.0959204062900749e-08 -0.00025019045325711268 -3.5775643801775108e-08 6.6278640758647744e-08 -0.00025019369378573373 -1.950333969232611e-08 1.3539521337319775e-07 -0.00025020222795636455 -1.0132651338384263e-07 4.3164032121482205e-08 -0.00050024815173481049 -3.5775643801775108e-08 6.6278640758647744e-08 -0.00025019369378573373 -6.6338838256747019e-08 8.7950531112843566e-08 -0.00050024100567435759 -1.0132651338384263e-07 4.3164032121482219e-08 -0.00050024815173481038 -6.6338838256747019e-08 8.7950531112843566e-08 -0.00050024100567435759 -5.1284875860602272e-08 5.0052426180973176e-08 -0.00050023973439035265 -3.5775643801775108e-08 6.6278640758647744e-08 -0.00025019369378573373 -6.6338838256747019e-08 8.7950531112843566e-08 -0.00050024100567435759 -2.5386091940800532e-08 6.9258134957605747e-08 -0.00050024056826675808 -5.1284875860602272e-08 5.0052426180973176e-08 -0.00050023973439035265 -3.5775643801775108e-08 6.6278640758647744e-08 -0.00025019369378573373 -5.4985924832599103e-10 8.0959204062900749e-08 -0.00025019045325711268 -1.950333969232611e-08 1.3539521337319775e-07 -0.00025020222795636455 -3.5775643801775108e-08 6.6278640758647744e-08 -0.00025019369378573373 -6.6338838256747019e-08 8.7950531112843566e-08 -0.00050024100567435759 -5.4985924832599103e-10 8.0959204062900749e-08 -0.00025019045325711268 -6.6338838256747019e-08 8.7950531112843566e-08 -0.00050024100567435759 -3.5775643801775108e-08 6.6278640758647744e-08 -0.00025019369378573373 -2.5386091940800532e-08 6.9258134957605747e-08 -0.00050024056826675808 -1.3462608655716602e-08 1.092800154529954e-07 -0.00050025034956006746 -6.6338838256747019e-08 8.7950531112843566e-08 -0.00050024100567435759 -2.5386091940800532e-08 6.9258134957605747e-08 -0.00050024056826675808 -5.4063898771253569e-08 9.7721118379604297e-08 -0.00075027604354485752 -2.5386091940800532e-08 6.9258134957605747e-08 -0.00050024056826675808 -6.6338838256747019e-08 8.7950531112843566e-08 -0.00050024100567435759 -5.1284875860602272e-08 5.0052426180973176e-08 -0.00050023973439035265 -5.4063898771253569e-08 9.7721118379604297e-08 -0.00075027604354485752 -6.6338838256747019e-08 8.7950531112843566e-08 -0.00050024100567435759 -1.0132651338384263e-07 4.3164032121482219e-08 -0.00050024815173481038 -5.1284875860602272e-08 5.0052426180973176e-08 -0.00050023973439035265 -9.5744675233299503e-08 5.7470418784881308e-08 -0.00075027825011895588 5.2027526319693543e-08 1.2723519616178314e-07 -0.00025022351797788177 -6.6338838256747033e-08 8.795053111284354e-08 -0.00050024100567435748 -5.4985924832599103e-10 8.0959204062900749e-08 -0.00025019045325711268 -1.3462608655716602e-08 1.092800154529954e-07 -0.00050025034956006746 4.4878045431842296e-08 1.0091057764075303e-07 -0.0005002655202099353 -1.3462608655716602e-08 1.092800154529954e-07 -0.00050025034956006746 1.2954610731181802e-08 5.6980233314949213e-08 -0.00050024586184243343 1.9989609863720172e-09 1.1165766193876068e-07 -0.00075027973381868287 4.4878045431842296e-08 1.0091057764075303e-07 -0.0005002655202099353 1.2954610731181807e-08 5.6980233314949206e-08 -0.00050024586184243343 5.7241913882712661e-08 3.4702006977962943e-08 -0.00050025569006567541 5.7209558132393512e-08 9.579612853623236e-08 -0.00075028569304356389 1.2954610731181802e-08 5.6980233314949213e-08 -0.00050024586184243343 -1.3462608655716602e-08 1.092800154529954e-07 -0.00050025034956006746 -2.5386091940800532e-08 6.9258134957605747e-08 -0.00050024056826675808 1.9989609863720214e-09 1.1165766193876068e-07 -0.00075027973381868297 1.2954610731181802e-08 5.6980233314949213e-08 -0.00050024586184243343 -1.9839430865784034e-08 3.6185946768023937e-08 -0.00050023853632978426 -2.5386091940800532e-08 6.9258134957605747e-08 -0.00050024056826675808 -5.4985924832599103e-10 8.0959204062900749e-08 -0.00025019045325711268 3.7098911435264008e-08 5.4395735284867011e-08 -0.00025020751472150182 -1.3462608655716612e-08 1.092800154529954e-07 -0.00050025034956006746 -5.4985924832599103e-10 8.0959204062900749e-08 -0.00025019045325711268 1.2954610731181802e-08 5.6980233314949213e-08 -0.00050024586184243343 3.7098911435264008e-08 5.4395735284867011e-08 -0.00025020751472150182 5.2027526319693543e-08 1.2723519616178314e-07 -0.00025022351797788177 -5.4985924832599103e-10 8.0959204062900749e-08 -0.00025019045325711268 -1.3462608655716602e-08 1.092800154529954e-07 -0.00050025034956006746 -6.6338838256747019e-08 8.7950531112843566e-08 -0.00050024100567435759 -1.3462608655716599e-08 1.0928001545299542e-07 -0.00050025034956006746 -2.5386091940800532e-08 6.9258134957605747e-08 -0.00050024056826675808 -5.4985924832599103e-10 8.0959204062900749e-08 -0.00025019045325711268 -1.3462608655716602e-08 1.092800154529954e-07 -0.00050025034956006746 1.2954610731181802e-08 5.6980233314949213e-08 -0.00050024586184243343 -2.5386091940800532e-08 6.9258134957605747e-08 -0.00050024056826675808 -5.4985924832599103e-10 8.0959204062900749e-08 -0.00025019045325711268 1.0163473535669872e-07 8.6141546510207859e-08 -0.00025025732167856355 3.7098911435264008e-08 5.4395735284867005e-08 -0.00025020751472150182 6.9849444674425713e-08 1.9623138307263661e-08 -0.00025024114380258936 4.4878045431842296e-08 1.0091057764075303e-07 -0.0005002655202099353 -1.3462608655716602e-08 1.092800154529954e-07 -0.00050025034956006746 4.4878045431842296e-08 1.0091057764075303e-07 -0.0005002655202099353 1.2954610731181802e-08 5.6980233314949213e-08 -0.00050024586184243343 3.7098911435264008e-08 5.4395735284867011e-08 -0.00025020751472150182 1.0163473535669872e-07 8.6141546510207859e-08 -0.00025025732167856355 5.2027526319693543e-08 1.2723519616178314e-07 -0.00025022351797788177 3.7098911435264008e-08 5.4395735284867011e-08 -0.00025020751472150182 -1.3462608655716585e-08 1.0928001545299542e-07 -0.00050025034956006746 1.0163473535669872e-07 8.6141546510207859e-08 -0.00025025732167856355 -1.3462608655716589e-08 1.092800154529954e-07 -0.00050025034956006735 3.7098911435264008e-08 5.4395735284867011e-08 -0.00025020751472150182 4.4878045431842296e-08 1.0091057764075303e-07 -0.0005002655202099353 4.4878045431842296e-08 1.0091057764075303e-07 -0.0005002655202099353 1.2954610731181803e-08 5.6980233314949213e-08 -0.00050024586184243332 3.7098911435264002e-08 5.4395735284867045e-08 -0.00025020751472150171 6.9849444674425713e-08 1.9623138307263661e-08 -0.00025024114380258936 5.2027526319693543e-08 1.2723519616178314e-07 -0.00025022351797788177 1.0163473535669872e-07 8.6141546510207859e-08 -0.00025025732167856355 3.7098911435264008e-08 5.4395735284867011e-08 -0.00025020751472150182 -6.1794431233150938e-10 -1.3447579236261003e-08 -1.8495016390480714e-07 -1.950333969232611e-08 1.3539521337319775e-07 -0.00025020222795636455 5.2027526319693556e-08 1.2723519616178314e-07 -0.00025022351797788177 -5.4985924832599103e-10 8.0959204062900749e-08 -0.00025019045325711268 5.4298372607419716e-09 -1.6140607097900722e-08 -8.8469819180809892e-08 3.7098911435264008e-08 5.4395735284867011e-08 -0.00025020751472150182 -7.0313969834247996e-09 4.0878661183756611e-08 -0.00025017991926912892 -5.4985924832599103e-10 8.0959204062900749e-08 -0.00025019045325711268 5.4298372607419716e-09 -1.6140607097900722e-08 -8.8469819180809892e-08 5.2027526319693543e-08 1.2723519616178314e-07 -0.00025022351797788177 3.7098911435264008e-08 5.4395735284867011e-08 -0.00025020751472150182 -5.4985924832599103e-10 8.0959204062900749e-08 -0.00025019045325711268 5.4298372607419716e-09 -1.6140607097900722e-08 -8.8469819180809892e-08 -6.1794431233150938e-10 -1.3447579236261003e-08 -1.8495016390480714e-07 5.2027526319693543e-08 1.2723519616178314e-07 -0.00025022351797788177 5.4298372607419716e-09 -1.6140607097900722e-08 -8.8469819180809892e-08 3.7098911435264008e-08 5.4395735284867011e-08 -0.00025020751472150182 -6.1794431233150938e-10 -1.3447579236261003e-08 -1.8495016390480714e-07 -3.9995655248453713e-09 5.3151283458799629e-08 -2.0220333565504414e-07 5.4298372607419716e-09 -1.6140607097900722e-08 -8.8469819180809892e-08 5.2027526319693543e-08 1.2723519616178314e-07 -0.00025022351797788177 -3.9995655248453713e-09 5.3151283458799629e-08 -2.0220333565504414e-07 -1.9503339692326054e-08 1.3539521337319775e-07 -0.00025020222795636455 5.4298372607419716e-09 -1.6140607097900722e-08 -8.8469819180809892e-08 5.2027526319693543e-08 1.2723519616178314e-07 -0.00025022351797788177 2.4287447426400017e-08 4.6341707132584256e-08 -2.7341332436478713e-07 5.2027526319693536e-08 1.2723519616178312e-07 -0.00025022351797788172 -6.1794431233150938e-10 -1.3447579236261003e-08 -1.8495016390480714e-07 1.0163473535669872e-07 8.6141546510207859e-08 -0.00025025732167856355 1.0163473535669872e-07 8.6141546510207859e-08 -0.00025025732167856355 3.7098911435264002e-08 5.4395735284867005e-08 -0.00025020751472150176 -6.1794431233149263e-10 -1.3447579236261021e-08 -1.8495016390470497e-07 -1.9810297649676433e-08 -1.3053250391282737e-08 -2.5384930960223343e-07 2.4287447426400017e-08 4.6341707132584256e-08 -2.7341332436478713e-07 -6.1794431233151465e-10 -1.3447579236261006e-08 -1.8495016390480714e-07 -1.9810297649676433e-08 -1.3053250391282737e-08 -2.5384930960223343e-07 1.0163473535669872e-07 8.6141546510207859e-08 -0.00025025732167856355 2.4287447426400017e-08 4.6341707132584256e-08 -2.7341332436478713e-07 -3.9995655248453713e-09 5.3151283458799629e-08 -2.0220333565504414e-07 -6.1794431233150938e-10 -1.3447579236261003e-08 -1.8495016390480714e-07 5.202752631969353e-08 1.2723519616178314e-07 -0.00025022351797788172 5.3715555669697901e-08 3.4992231681668569e-08 -1.8640961906297606e-07 1.0163473535669872e-07 8.6141546510207859e-08 -0.00025025732167856355 -1.9810297649676433e-08 -1.3053250391282737e-08 -2.5384930960223343e-07 1.3377332854173566e-07 1.9292427447989914e-08 -0.0002502472096882366 5.3715555669697901e-08 3.4992231681668569e-08 -1.8640961906297606e-07 2.4287447426400017e-08 4.6341707132584256e-08 -2.7341332436478713e-07 -1.9810297649676433e-08 -1.3053250391282737e-08 -2.5384930960223343e-07 1.0163473535669872e-07 8.6141546510207859e-08 -0.00025025732167856355 1.3377332854173566e-07 1.9292427447989914e-08 -0.0002502472096882366 4.4878045431842296e-08 1.0091057764075303e-07 -0.0005002655202099353 6.9849444674425713e-08 1.9623138307263661e-08 -0.00025024114380258936 8.7884127591239167e-08 6.6381865079166669e-08 -0.00050026243154628722 1.3377332854173566e-07 1.9292427447989914e-08 -0.0002502472096882366 1.0163473535669872e-07 8.6141546510207859e-08 -0.00025025732167856355 6.9849444674425713e-08 1.9623138307263661e-08 -0.00025024114380258936 4.4878045431842296e-08 1.0091057764075303e-07 -0.0005002655202099353 8.7884127591239167e-08 6.6381865079166669e-08 -0.00050026243154628722 4.4878045431842296e-08 1.0091057764075303e-07 -0.0005002655202099353 5.7241913882712661e-08 3.4702006977962943e-08 -0.00050025569006567541 5.7209558132393512e-08 9.579612853623236e-08 -0.00075028569304356389 2.9118623099787909e-08 -4.4973803751509392e-08 -1.3795280499339997e-07 8.4821266614025275e-08 -1.0696125705652226e-07 -0.00025021793342083862 -1.2701597023715064e-08 1.1314999334876794e-08 -9.8543763430473803e-08 1.9424314648141098e-08 -1.3542569447092323e-07 -0.0002501974593498796 8.4821266614025342e-08 -1.0696125705652226e-07 -0.00025021793342083857 1.9424314648141098e-08 -1.3542569447092323e-07 -0.0002501974593498796 3.6405689352046989e-08 -7.037516748364634e-08 -0.00025018848982403337 -1.2701597023715064e-08 1.1314999334876794e-08 -9.8543763430473803e-08 5.3191271020013026e-08 -2.6642587289682492e-08 -0.00025019539493019183 8.4821266614025342e-08 -1.0696125705652226e-07 -0.00025021793342083857 3.6405689352046989e-08 -7.037516748364634e-08 -0.00025018848982403337 -1.2701597023715064e-08 1.1314999334876794e-08 -9.8543763430473803e-08 2.9118623099787909e-08 -4.4973803751509392e-08 -1.3795280499339997e-07 4.7289759374234179e-08 -2.4815517663352258e-08 -2.0212897066490077e-07 -1.2701597023715064e-08 1.1314999334876794e-08 -9.8543763430473803e-08 8.4821266614025342e-08 -1.0696125705652226e-07 -0.00025021793342083857 8.4821266614025342e-08 -1.0696125705652226e-07 -0.00025021793342083857 5.319127102001302e-08 -2.6642587289682472e-08 -0.00025019539493019183 -1.2601065194127133e-08 4.7781306176199381e-09 -1.7697879196408146e-07 -1.2701597023715064e-08 1.1314999334876794e-08 -9.8543763430473803e-08 4.7289759374234179e-08 -2.4815517663352258e-08 -2.0212897066490077e-07 -1.2601065194127141e-08 4.7781306176199431e-09 -1.7697879196408143e-07 -1.2701597023715064e-08 1.1314999334876794e-08 -9.8543763430473803e-08 8.4821266614025342e-08 -1.0696125705652226e-07 -0.00025021793342083857 4.7289759374234179e-08 -2.4815517663352258e-08 -2.0212897066490077e-07 1.2751890265376664e-07 -4.9479614936572277e-08 -0.0002502524763186454 -1.2601065194127131e-08 4.7781306176199414e-09 -1.7697879196407249e-07 8.4821266614025342e-08 -1.0696125705652226e-07 -0.00025021793342083857 4.7289759374234179e-08 -2.4815517663352258e-08 -2.0212897066490077e-07 5.2083115532666917e-08 4.0616451232475253e-09 -2.7385057477551748e-07 -1.2601065194127133e-08 4.7781306176199381e-09 -1.7697879196408146e-07 1.2751890265376664e-07 -4.9479614936572277e-08 -0.0002502524763186454 -1.2601065194127133e-08 4.7781306176199381e-09 -1.7697879196408146e-07 5.2083115532666917e-08 4.0616451232475253e-09 -2.7385057477551748e-07 -1.9810297649676433e-08 -1.3053250391282737e-08 -2.5384930960223343e-07 1.2751890265376666e-07 -4.9479614936572297e-08 -0.00025025247631864551 -1.2601065194127133e-08 4.7781306176199381e-09 -1.7697879196408146e-07 1.2751890265376666e-07 -4.9479614936572284e-08 -0.0002502524763186454 -1.9810297649676433e-08 -1.3053250391282737e-08 -2.5384930960223343e-07 5.3191271020013026e-08 -2.6642587289682492e-08 -0.00025019539493019183 5.2083115532666917e-08 4.0616451232475253e-09 -2.7385057477551748e-07 5.3715555669697908e-08 3.4992231681668562e-08 -1.8640961906300073e-07 -1.9810297649676433e-08 -1.3053250391282737e-08 -2.5384930960223343e-07 1.3377332854173566e-07 1.9292427447989914e-08 -0.0002502472096882366 5.2083115532666917e-08 4.0616451232475253e-09 -2.7385057477551748e-07 1.3377332854173566e-07 1.9292427447989914e-08 -0.0002502472096882366 -1.9810297649676433e-08 -1.3053250391282737e-08 -2.5384930960223343e-07 1.2751890265376664e-07 -4.9479614936572277e-08 -0.0002502524763186454 1.0163473535669872e-07 8.6141546510207859e-08 -0.00025025732167856355 1.3377332854173566e-07 1.9292427447989914e-08 -0.0002502472096882366 6.9849444674425713e-08 1.9623138307263661e-08 -0.00025024114380258936 -1.9810297649676433e-08 -1.3053250391282737e-08 -2.5384930960223343e-07 1.3377332854173566e-07 1.9292427447989914e-08 -0.0002502472096882366 1.2751890265376664e-07 -4.9479614936572277e-08 -0.0002502524763186454 6.9849444674425713e-08 1.9623138307263661e-08 -0.00025024114380258936 -1.9810297649676433e-08 -1.3053250391282737e-08 -2.5384930960223343e-07 1.2751890265376664e-07 -4.9479614936572277e-08 -0.0002502524763186454 8.4821266614025342e-08 -1.0696125705652226e-07 -0.00025021793342083857 5.3191271020013026e-08 -2.6642587289682492e-08 -0.00025019539493019183 -1.2601065194127161e-08 4.7781306176199489e-09 -1.7697879196396558e-07 1.2751890265376664e-07 -4.9479614936572277e-08 -0.0002502524763186454 5.3191271020013026e-08 -2.6642587289682492e-08 -0.00025019539493019183 6.9849444674425713e-08 1.9623138307263661e-08 -0.00025024114380258936 -1.9810297649676433e-08 -1.3053250391282737e-08 -2.5384930960223343e-07 1.0922076905052532e-07 1.3357978226887613e-08 -0.00050026178480068462 1.0146936141131488e-07 -4.2926595463224026e-08 -0.00050024699363554795 5.4737282952888276e-08 -1.5672700464668267e-08 -0.00050024194754310931 5.3191271020013033e-08 -2.6642587289682498e-08 -0.00025019539493019173 8.4821266614025342e-08 -1.0696125705652226e-07 -0.00025021793342083857 1.2751890265376664e-07 -4.9479614936572277e-08 -0.0002502524763186454 5.3191271020013026e-08 -2.6642587289682492e-08 -0.00025019539493019183 1.0922076905052532e-07 1.3357978226887613e-08 -0.00050026178480068462 5.3191271020013026e-08 -2.6642587289682492e-08 -0.00025019539493019183 1.0922076905052535e-07 1.3357978226887618e-08 -0.00050026178480068473 6.9849444674425713e-08 1.9623138307263661e-08 -0.00025024114380258936 5.4737282952888276e-08 -1.5672700464668267e-08 -0.00050024194754310931 1.0922076905052532e-07 1.3357978226887613e-08 -0.00050026178480068462 5.4737282952888276e-08 -1.5672700464668267e-08 -0.00050024194754310931 5.7241913882712661e-08 3.4702006977962943e-08 -0.00050025569006567541 6.9849444674425713e-08 1.9623138307263661e-08 -0.00025024114380258936 5.3191271020013026e-08 -2.6642587289682492e-08 -0.00025019539493019183 1.2751890265376664e-07 -4.9479614936572277e-08 -0.0002502524763186454 6.9849444674425713e-08 1.9623138307263661e-08 -0.00025024114380258936 1.0922076905052532e-07 1.3357978226887642e-08 -0.00050026178480068473 4.4878045431842296e-08 1.0091057764075303e-07 -0.0005002655202099353 8.7884127591239167e-08 6.6381865079166669e-08 -0.00050026243154628722 5.7241913882712661e-08 3.4702006977962943e-08 -0.00050025569006567541 6.9849444674425713e-08 1.9623138307263661e-08 -0.00025024114380258936 1.2751890265376664e-07 -4.9479614936572277e-08 -0.0002502524763186454 8.7884127591239167e-08 6.6381865079166669e-08 -0.00050026243154628722 6.9849444674425713e-08 1.9623138307263661e-08 -0.00025024114380258936 1.0922076905052532e-07 1.3357978226887613e-08 -0.00050026178480068462 1.2751890265376664e-07 -4.9479614936572277e-08 -0.0002502524763186454 1.3377332854173563e-07 1.9292427447989918e-08 -0.0002502472096882366 6.9849444674425713e-08 1.9623138307263661e-08 -0.00025024114380258936 8.7884127591239167e-08 6.6381865079166669e-08 -0.00050026243154628722 8.7884127591239167e-08 6.6381865079166669e-08 -0.00050026243154628722 1.0922076905052532e-07 1.3357978226887613e-08 -0.00050026178480068462 5.7241913882712661e-08 3.4702006977962943e-08 -0.00050025569006567541 6.9849444674425713e-08 1.9623138307263661e-08 -0.00025024114380258936 1.0922076905052532e-07 1.3357978226887613e-08 -0.00050026178480068462 8.7884127591239167e-08 6.6381865079166656e-08 -0.00050026243154628722 5.7241913882712661e-08 3.4702006977962943e-08 -0.00050025569006567541 9.7731787705395009e-08 5.4131052639961463e-08 -0.00075028441377514483 1.0146936141131488e-07 -4.2926595463224026e-08 -0.00050024699363554795 1.0922076905052532e-07 1.3357978226887613e-08 -0.00050026178480068462 5.4737282952888276e-08 -1.5672700464668267e-08 -0.00050024194754310931 1.1166279266903386e-07 -1.8633099581675696e-09 -0.00075028414721183207 5.4737282952888276e-08 -1.5672700464668267e-08 -0.00050024194754310931 1.0922076905052532e-07 1.3357978226887613e-08 -0.00050026178480068462 5.7241913882712661e-08 3.4702006977962943e-08 -0.00050025569006567541 1.1166279266903386e-07 -1.8633099581675766e-09 -0.00075028414721183218 1.0146936141131488e-07 -4.2926595463224026e-08 -0.00050024699363554795 5.4737282952888269e-08 -1.567270046466827e-08 -0.0005002419475431092 5.1804561556865892e-08 -5.3006081232249176e-08 -0.00050023741580112731 9.5731077804358991e-08 -5.7489129914196735e-08 -0.0007502784565958352 6.6421010715166427e-08 -8.7910667705722555e-08 -0.00050023805665004334 1.0146936141131488e-07 -4.2926595463224026e-08 -0.00050024699363554795 5.1804561556865892e-08 -5.3006081232249176e-08 -0.00050023741580112731 9.5731077804358991e-08 -5.7489129914196735e-08 -0.0007502784565958352 8.4821266614025342e-08 -1.0696125705652226e-07 -0.00025021793342083857 5.3191271020013013e-08 -2.6642587289682492e-08 -0.00025019539493019178 3.6405689352046989e-08 -7.037516748364634e-08 -0.00025018848982403337 1.0146936141131488e-07 -4.2926595463224026e-08 -0.00050024699363554795 5.4737282952888276e-08 -1.5672700464668267e-08 -0.00050024194754310931 1.0146936141131488e-07 -4.2926595463224026e-08 -0.00050024699363554795 5.1804561556865892e-08 -5.3006081232249176e-08 -0.00050023741580112731 3.6405689352046989e-08 -7.037516748364634e-08 -0.00025018848982403337 8.4821266614025342e-08 -1.0696125705652226e-07 -0.00025021793342083857 1.0922076905052532e-07 1.3357978226887613e-08 -0.00050026178480068462 5.3191271020013026e-08 -2.6642587289682495e-08 -0.00025019539493019183 1.0146936141131488e-07 -4.2926595463224026e-08 -0.00050024699363554795 1.0146936141131488e-07 -4.2926595463224026e-08 -0.00050024699363554795 5.4737282952888262e-08 -1.567270046466827e-08 -0.00050024194754310931 5.3191271020013026e-08 -2.6642587289682492e-08 -0.00025019539493019183 3.6405689352046989e-08 -7.037516748364634e-08 -0.00025018848982403337 1.0146936141131488e-07 -4.2926595463224026e-08 -0.00050024699363554795 6.6421010715166427e-08 -8.7910667705722555e-08 -0.00050023805665004334 5.1804561556865892e-08 -5.3006081232249176e-08 -0.00050023741580112731 3.6405689352046989e-08 -7.037516748364634e-08 -0.00025018848982403337 1.9424314648141098e-08 -1.3542569447092323e-07 -0.0002501974593498796 8.4821266614025342e-08 -1.0696125705652226e-07 -0.00025021793342083857 3.6405689352046989e-08 -7.037516748364634e-08 -0.00025018848982403337 1.0146936141131488e-07 -4.2926595463224026e-08 -0.00050024699363554795 1.9424314648141098e-08 -1.3542569447092323e-07 -0.0002501974593498796 1.0146936141131489e-07 -4.2926595463224e-08 -0.00050024699363554795 3.6405689352046989e-08 -7.037516748364634e-08 -0.00025018848982403337 6.6421010715166427e-08 -8.7910667705722555e-08 -0.00050023805665004334 6.6421010715166427e-08 -8.7910667705722555e-08 -0.00050023805665004334 9.5731077804358964e-08 -5.7489129914196728e-08 -0.00075027845659583531 5.1804561556865892e-08 -5.3006081232249176e-08 -0.00050023741580112731 5.4070236636992893e-08 -9.7714493793771091e-08 -0.0007502744935267158 5.4070236636992893e-08 -9.7714493793771091e-08 -0.0007502744935267158 9.6706287471431594e-08 -5.5722173324280648e-08 -0.0010003104456619855 4.9127849002676746e-08 -5.6860671828054658e-08 -0.00075027501178933904 5.5908109735413373e-08 -9.659425591930922e-08 -0.0010003084806338319 9.6706287471431607e-08 -5.5722173324280654e-08 -0.0010003104456619855 5.3647496873496007e-08 -2.0497250066967151e-08 -0.001000310103355934 5.3659635500081282e-08 -1.9712139893444383e-08 -0.00075027713252303458 4.9127849002676746e-08 -5.6860671828054658e-08 -0.00075027501178933904 9.5731077804358991e-08 -5.7489129914196735e-08 -0.0007502784565958352 5.3659635500081275e-08 -1.9712139893444387e-08 -0.00075027713252303458 4.9127849002676746e-08 -5.6860671828054658e-08 -0.00075027501178933904 9.6706287471431607e-08 -5.5722173324280654e-08 -0.0010003104456619855 9.5731077804358991e-08 -5.7489129914196735e-08 -0.0007502784565958352 1.1161036889740853e-07 1.0760809476901729e-10 -0.0010003130226802193 5.3659635500081282e-08 -1.9712139893444383e-08 -0.00075027713252303458 9.6706287471431607e-08 -5.5722173324280654e-08 -0.0010003104456619855 5.4070236636992893e-08 -9.7714493793771091e-08 -0.0007502744935267158 9.5731077804358991e-08 -5.7489129914196735e-08 -0.0007502784565958352 4.9127849002676746e-08 -5.6860671828054658e-08 -0.00075027501178933904 9.6706287471431607e-08 -5.5722173324280654e-08 -0.0010003104456619855 9.5731077804358991e-08 -5.7489129914196735e-08 -0.0007502784565958352 5.4070236636992893e-08 -9.7714493793771091e-08 -0.0007502744935267158 4.9127849002676746e-08 -5.6860671828054658e-08 -0.00075027501178933904 5.1804561556865892e-08 -5.3006081232249176e-08 -0.00050023741580112731 5.3659635500081282e-08 -1.9712139893444383e-08 -0.00075027713252303458 9.5731077804358991e-08 -5.7489129914196735e-08 -0.0007502784565958352 4.9127849002676746e-08 -5.6860671828054658e-08 -0.00075027501178933904 5.1804561556865892e-08 -5.3006081232249176e-08 -0.00050023741580112731 1.0146936141131488e-07 -4.2926595463224026e-08 -0.00050024699363554795 1.1166279266903386e-07 -1.8633099581675696e-09 -0.00075028414721183207 5.4737282952888276e-08 -1.5672700464668267e-08 -0.00050024194754310931 9.5731077804358991e-08 -5.7489129914196735e-08 -0.0007502784565958352 9.5731077804358991e-08 -5.7489129914196735e-08 -0.0007502784565958352 5.3659635500081275e-08 -1.9712139893444383e-08 -0.00075027713252303458 5.4737282952888276e-08 -1.5672700464668267e-08 -0.00050024194754310931 5.1804561556865892e-08 -5.3006081232249176e-08 -0.00050023741580112731 5.4737282952888276e-08 -1.5672700464668267e-08 -0.00050024194754310931 1.1166279266903388e-07 -1.8633099581675721e-09 -0.00075028414721183207 5.7241913882712661e-08 3.4702006977962943e-08 -0.00050025569006567541 5.3659635500081282e-08 -1.9712139893444383e-08 -0.00075027713252303458 1.1166279266903386e-07 -1.8633099581675696e-09 -0.00075028414721183207 9.5731077804358991e-08 -5.7489129914196735e-08 -0.0007502784565958352 5.3659635500081282e-08 -1.9712139893444383e-08 -0.00075027713252303458 5.4737282952888282e-08 -1.5672700464668267e-08 -0.0005002419475431092 1.1166279266903386e-07 -1.8633099581675696e-09 -0.00075028414721183207 5.3659635500081282e-08 -1.9712139893444383e-08 -0.00075027713252303458 5.6585132455592098e-08 3.2001109325794112e-08 -0.00075028200690552792 5.7241913882712661e-08 3.4702006977962943e-08 -0.00050025569006567541 1.0922076905052532e-07 1.3357978226887613e-08 -0.00050026178480068462 9.7731787705395009e-08 5.4131052639961463e-08 -0.00075028441377514483 5.7241913882712661e-08 3.4702006977962943e-08 -0.00050025569006567541 1.1166279266903386e-07 -1.8633099581675696e-09 -0.00075028414721183207 9.7731787705395009e-08 5.4131052639961463e-08 -0.00075028441377514483 1.1166279266903386e-07 -1.8633099581675696e-09 -0.00075028414721183207 5.6585132455592098e-08 3.2001109325794112e-08 -0.00075028200690552792 5.7241913882712661e-08 3.4702006977962943e-08 -0.00050025569006567541 5.7209558132393512e-08 9.579612853623236e-08 -0.00075028569304356389 9.7731787705395009e-08 5.4131052639961463e-08 -0.00075028441377514483 5.6585132455592098e-08 3.2001109325794112e-08 -0.00075028200690552792 5.7241913882712661e-08 3.4702006977962943e-08 -0.00050025569006567541 1.1166279266903386e-07 -1.8633099581675696e-09 -0.00075028414721183207 9.6580496771849675e-08 5.5898859697875886e-08 -0.0010003132215785806 5.6585132455592098e-08 3.2001109325794112e-08 -0.00075028200690552792 1.1161036889740853e-07 1.0760809476901729e-10 -0.0010003130226802193 1.1166279266903386e-07 -1.8633099581675696e-09 -0.00075028414721183207 9.7731787705395009e-08 5.4131052639961463e-08 -0.00075028441377514483 5.6585132455592098e-08 3.2001109325794112e-08 -0.00075028200690552792 9.6580496771849675e-08 5.5898859697875886e-08 -0.0010003132215785806 5.3659635500081282e-08 -1.9712139893444383e-08 -0.00075027713252303458 1.1166279266903386e-07 -1.8633099581675696e-09 -0.00075028414721183207 5.6585132455592098e-08 3.2001109325794112e-08 -0.00075028200690552792 1.1161036889740853e-07 1.076080947690182e-10 -0.0010003130226802193 5.3659635500081282e-08 -1.9712139893444383e-08 -0.00075027713252303458 1.1161036889740855e-07 1.0760809476901565e-10 -0.0010003130226802193 5.6585132455592098e-08 3.2001109325794112e-08 -0.00075028200690552792 5.3647496873496013e-08 -2.0497250066967151e-08 -0.001000310103355934 9.5731077804358991e-08 -5.7489129914196735e-08 -0.0007502784565958352 1.1166279266903386e-07 -1.8633099581675696e-09 -0.00075028414721183207 5.3659635500081282e-08 -1.9712139893444383e-08 -0.00075027713252303458 1.1161036889740853e-07 1.0760809476901729e-10 -0.0010003130226802193 1.1161036889740853e-07 1.0760809476901729e-10 -0.0010003130226802193 5.3647496873496013e-08 -2.0497250066967151e-08 -0.001000310103355934 5.5700669422245859e-08 3.186630533894702e-08 -0.0010003118905836858 5.6585132455592098e-08 3.2001109325794112e-08 -0.00075028200690552792 5.3647496873496013e-08 -2.0497250066967151e-08 -0.001000310103355934 1.1161036889740853e-07 1.0760809476901729e-10 -0.0010003130226802193 5.5700669422245859e-08 3.186630533894702e-08 -0.0010003118905836858 1.115207551770545e-07 5.1525509907389228e-11 -0.0012503460414867637 9.6706287471431607e-08 -5.5722173324280654e-08 -0.0010003104456619855 1.1161036889740853e-07 1.0760809476901729e-10 -0.0010003130226802193 5.3647496873496013e-08 -2.0497250066967151e-08 -0.001000310103355934 1.115207551770545e-07 5.1525509907389254e-11 -0.0012503460414867635 1.1161036889740853e-07 1.0760809476901729e-10 -0.0010003130226802193 9.6706287471431607e-08 -5.5722173324280654e-08 -0.0010003104456619855 5.3647496873496013e-08 -2.0497250066967151e-08 -0.001000310103355934 5.3659635500081289e-08 -1.9712139893444387e-08 -0.00075027713252303447 1.1161036889740853e-07 1.0760809476901729e-10 -0.0010003130226802193 9.6580496771849675e-08 5.5898859697875886e-08 -0.0010003132215785806 5.5700669422245859e-08 3.186630533894702e-08 -0.0010003118905836858 9.6563145281628766e-08 5.5803618415139098e-08 -0.0012503466130465337 9.6580496771849675e-08 5.5898859697875886e-08 -0.0010003132215785806 1.1161036889740853e-07 1.0760809476901729e-10 -0.0010003130226802193 5.5700669422245859e-08 3.186630533894702e-08 -0.0010003118905836858 5.6585132455592098e-08 3.2001109325794112e-08 -0.00075028200690552792 5.5759784546415053e-08 9.6692996491408378e-08 -0.0010003137506441222 9.6580496771849675e-08 5.5898859697875886e-08 -0.0010003132215785806 5.5700669422245859e-08 3.186630533894702e-08 -0.0010003118905836858 5.6585132455592098e-08 3.2001109325794112e-08 -0.00075028200690552792 5.5724682140336401e-08 9.6603660050619304e-08 -0.0012503465007591896 9.6563145281628766e-08 5.5803618415139098e-08 -0.0012503466130465337 5.5588811160622717e-08 3.1955843373099846e-08 -0.0012503479267366904 5.5700669422245859e-08 3.186630533894702e-08 -0.0010003118905836858 1.1161036889740853e-07 1.0760809476901729e-10 -0.0010003130226802193 9.6563145281628766e-08 5.5803618415139098e-08 -0.0012503466130465337 5.5700669422245859e-08 3.186630533894702e-08 -0.0010003118905836858 1.115207551770545e-07 5.1525509907389254e-11 -0.0012503460414867635 9.6563145281628766e-08 5.5803618415139098e-08 -0.0012503466130465337 1.115207551770545e-07 5.1525509907389254e-11 -0.0012503460414867635 5.5588811160622717e-08 3.1955843373099846e-08 -0.0012503479267366904 5.5700669422245859e-08 3.186630533894702e-08 -0.0010003118905836858 1.115207551770545e-07 5.1525509907389254e-11 -0.0012503460414867635 9.6617323347648836e-08 -5.5697257867832978e-08 -0.0012503445393630612 5.3697367465706406e-08 -2.0389796847820222e-08 -0.00125034511346316 5.364749687349602e-08 -2.0497250066967155e-08 -0.0010003101033559338 1.115207551770545e-07 5.1525509907389254e-11 -0.0012503460414867635 5.3697367465706406e-08 -2.0389796847820222e-08 -0.00125034511346316 5.5588811160622717e-08 3.1955843373099846e-08 -0.0012503479267366904 5.5700669422245859e-08 3.186630533894702e-08 -0.0010003118905836858 5.3647496873496013e-08 -2.0497250066967151e-08 -0.001000310103355934 1.1152075517705452e-07 5.1525509907387354e-11 -0.0012503460414867635 5.5700669422245859e-08 3.186630533894702e-08 -0.0010003118905836858 5.3697367465706406e-08 -2.0389796847820222e-08 -0.00125034511346316 9.6617323347648836e-08 -5.5697257867832978e-08 -0.0012503445393630612 5.579505639363991e-08 -9.6561378185410425e-08 -0.001250343387707092 4.9624511171449457e-08 -5.6830243753341668e-08 -0.0012503452093417153 4.9635755854076906e-08 -5.7089733852012735e-08 -0.0010003085425841539 5.3697367465706406e-08 -2.0389796847820222e-08 -0.00125034511346316 9.6617323347648836e-08 -5.5697257867832978e-08 -0.0012503445393630612 4.9624511171449457e-08 -5.6830243753341668e-08 -0.0012503452093417153 4.9635755854076906e-08 -5.7089733852012735e-08 -0.0010003085425841539 9.6617323347648836e-08 -5.5697257867832978e-08 -0.0012503445393630612 5.3697367465706399e-08 -2.0389796847820222e-08 -0.00125034511346316 5.3647496873496013e-08 -2.0497250066967151e-08 -0.001000310103355934 4.9635755854076906e-08 -5.7089733852012735e-08 -0.0010003085425841539 9.6706287471431607e-08 -5.5722173324280654e-08 -0.0010003104456619855 1.115207551770545e-07 5.1525509907389254e-11 -0.0012503460414867635 5.3647496873496013e-08 -2.0497250066967151e-08 -0.001000310103355934 9.6617323347648836e-08 -5.5697257867832978e-08 -0.0012503445393630612 9.6706287471431607e-08 -5.5722173324280654e-08 -0.0010003104456619855 5.5908109735413373e-08 -9.659425591930922e-08 -0.0010003084806338319 4.9635755854076906e-08 -5.7089733852012735e-08 -0.0010003085425841539 4.9127849002676746e-08 -5.6860671828054658e-08 -0.00075027501178933904 9.6706287471431607e-08 -5.5722173324280654e-08 -0.0010003104456619855 5.3647496873496007e-08 -2.0497250066967155e-08 -0.0010003101033559338 4.9635755854076906e-08 -5.7089733852012735e-08 -0.0010003085425841539 9.6617323347648836e-08 -5.5697257867832978e-08 -0.0012503445393630612 5.3647496873496013e-08 -2.0497250066967151e-08 -0.001000310103355934 9.6706287471431607e-08 -5.5722173324280654e-08 -0.0010003104456619855 4.9635755854076906e-08 -5.7089733852012735e-08 -0.0010003085425841539 4.9127849002676746e-08 -5.6860671828054658e-08 -0.00075027501178933904 5.5908109735413373e-08 -9.659425591930922e-08 -0.0010003084806338319 9.6706287471431607e-08 -5.5722173324280654e-08 -0.0010003104456619855 4.9635755854076906e-08 -5.7089733852012735e-08 -0.0010003085425841539 9.6617323347648836e-08 -5.5697257867832978e-08 -0.0012503445393630612 5.5908109735413373e-08 -9.659425591930922e-08 -0.0010003084806338319 9.6617323347648822e-08 -5.5697257867832971e-08 -0.0012503445393630612 4.9635755854076906e-08 -5.7089733852012735e-08 -0.0010003085425841539 5.579505639363991e-08 -9.6561378185410425e-08 -0.001250343387707092 8.7884127591239167e-08 6.6381865079166669e-08 -0.00050026243154628722 5.7209558132393512e-08 9.579612853623236e-08 -0.00075028569304356389 5.7241913882712661e-08 3.4702006977962943e-08 -0.00050025569006567541 9.7731787705395009e-08 5.4131052639961463e-08 -0.00075028441377514483 9.7731787705395009e-08 5.4131052639961463e-08 -0.00075028441377514483 5.7209558132393512e-08 9.579612853623236e-08 -0.00075028569304356389 5.6585132455592098e-08 3.2001109325794112e-08 -0.00075028200690552792 5.5759784546415053e-08 9.6692996491408378e-08 -0.0010003137506441222 9.7731787705395009e-08 5.4131052639961463e-08 -0.00075028441377514483 5.5759784546415053e-08 9.6692996491408378e-08 -0.0010003137506441222 5.6585132455592098e-08 3.2001109325794112e-08 -0.00075028200690552792 9.6580496771849675e-08 5.5898859697875886e-08 -0.0010003132215785806 9.6580496771849675e-08 5.5898859697875886e-08 -0.0010003132215785806 5.5759784546415053e-08 9.6692996491408378e-08 -0.0010003137506441222 5.5700669422245859e-08 3.186630533894702e-08 -0.0010003118905836858 5.5724682140336401e-08 9.6603660050619304e-08 -0.0012503465007591896 9.6580496771849675e-08 5.5898859697875886e-08 -0.0010003132215785806 5.5724682140336401e-08 9.6603660050619304e-08 -0.0012503465007591896 5.5700669422245859e-08 3.186630533894702e-08 -0.0010003118905836858 9.6563145281628766e-08 5.5803618415139098e-08 -0.0012503466130465337 -7.209793518715642e-12 1.1151688567225176e-07 -0.0012503449397440896 5.5724682140336401e-08 9.6603660050619304e-08 -0.0012503465007591896 9.1395822009538785e-09 5.7056244769154888e-08 -0.0012503457480731422 9.284177950480885e-09 5.7052968844880945e-08 -0.0010003108655309203 5.5724682140336401e-08 9.6603660050619304e-08 -0.0012503465007591896 9.1395822009538785e-09 5.7056244769154888e-08 -0.001250345748073142 9.2841779504808652e-09 5.7052968844880978e-08 -0.0010003108655309203 5.5700669422245859e-08 3.186630533894702e-08 -0.0010003118905836858 5.5759784546415053e-08 9.6692996491408378e-08 -0.0010003137506441222 -7.2097935187094503e-12 1.1151688567225176e-07 -0.0012503449397440896 9.284177950480885e-09 5.7052968844880945e-08 -0.0010003108655309203 5.5724682140336401e-08 9.6603660050619304e-08 -0.0012503465007591896 -8.4418387284624044e-11 1.1160851418170779e-07 -0.0010003111216717513 -5.5767148648880925e-08 9.6576361621654146e-08 -0.0012503441414195259 -2.4316836452686779e-08 7.1462615453391315e-08 -0.0010003097077927188 -7.209793518715642e-12 1.1151688567225176e-07 -0.0012503449397440896 -7.209793518715642e-12 1.1151688567225176e-07 -0.0012503449397440896 9.1395822009538785e-09 5.7056244769154888e-08 -0.0012503457480731422 -2.4204763573174991e-08 7.140402207127488e-08 -0.0012503455722689863 -2.4316836452686779e-08 7.1462615453391315e-08 -0.0010003097077927188 -5.5767148648880945e-08 9.6576361621654159e-08 -0.0012503441414195259 -7.2097935187098324e-12 1.1151688567225177e-07 -0.0012503449397440896 -2.4204763573174991e-08 7.140402207127488e-08 -0.0012503455722689863 -2.4316836452686779e-08 7.1462615453391315e-08 -0.0010003097077927188 9.284177950480885e-09 5.7052968844880945e-08 -0.0010003108655309203 -7.209793518723623e-12 1.1151688567225176e-07 -0.0012503449397440896 -2.4316836452686779e-08 7.1462615453391315e-08 -0.0010003097077927188 9.1395822009538785e-09 5.7056244769154888e-08 -0.0012503457480731422 9.1395822009538785e-09 5.7056244769154888e-08 -0.0012503457480731422 -1.9819443785813604e-08 3.5827338363290389e-08 -0.0012503451392374253 -2.4204763573174991e-08 7.140402207127488e-08 -0.0012503455722689863 -2.4316836452686779e-08 7.1462615453391315e-08 -0.0010003097077927188 9.284177950480885e-09 5.7052968844880945e-08 -0.0010003108655309203 -8.4418387284624044e-11 1.1160851418170779e-07 -0.0010003111216717513 -2.4316836452686779e-08 7.1462615453391315e-08 -0.0010003097077927188 -7.209793518715642e-12 1.1151688567225176e-07 -0.0012503449397440896 5.5759784546415053e-08 9.6692996491408378e-08 -0.0010003137506441222 -8.4418387284624044e-11 1.1160851418170779e-07 -0.0010003111216717513 9.284177950480885e-09 5.7052968844880945e-08 -0.0010003108655309203 -7.209793518715663e-12 1.1151688567225176e-07 -0.0012503449397440896 5.5759784546415053e-08 9.6692996491408378e-08 -0.0010003137506441222 9.28417795048089e-09 5.7052968844880939e-08 -0.0010003108655309203 5.5700669422245859e-08 3.186630533894702e-08 -0.0010003118905836858 5.5724682140336401e-08 9.6603660050619304e-08 -0.0012503465007591896 5.5759784546415053e-08 9.6692996491408378e-08 -0.0010003137506441222 9.284177950480885e-09 5.7052968844880945e-08 -0.0010003108655309201 1.0870337231626439e-08 5.702820494512973e-08 -0.00075027890328414903 5.6585132455592098e-08 3.2001109325794112e-08 -0.00075028200690552792 5.7209558132393512e-08 9.579612853623236e-08 -0.00075028569304356389 1.0870337231626464e-08 5.7028204945129697e-08 -0.00075027890328414914 5.6585132455592098e-08 3.2001109325794112e-08 -0.00075028200690552792 5.5759784546415053e-08 9.6692996491408378e-08 -0.0010003137506441222 5.7209558132393512e-08 9.579612853623236e-08 -0.00075028569304356389 -8.4418387284617685e-11 1.1160851418170779e-07 -0.0010003111216717511 1.0870337231626459e-08 5.7028204945129704e-08 -0.00075027890328414914 5.5759784546415053e-08 9.6692996491408378e-08 -0.0010003137506441222 5.7209558132393512e-08 9.579612853623236e-08 -0.00075028569304356389 1.9989609863720214e-09 1.1165766193876068e-07 -0.00075027973381868297 1.0870337231626459e-08 5.7028204945129704e-08 -0.00075027890328414914 -8.4418387284623501e-11 1.1160851418170779e-07 -0.0010003111216717513 -8.4418387284624044e-11 1.1160851418170779e-07 -0.0010003111216717513 5.5759784546415053e-08 9.6692996491408378e-08 -0.0010003137506441222 9.284177950480885e-09 5.7052968844880945e-08 -0.0010003108655309203 1.0870337231626459e-08 5.7028204945129704e-08 -0.00075027890328414914 9.284177950480885e-09 5.7052968844880945e-08 -0.0010003108655309203 -2.0028507817941e-08 3.5794560738309409e-08 -0.0010003093960996442 -2.4316836452686779e-08 7.1462615453391315e-08 -0.0010003097077927188 -2.3150430246047203e-08 7.1581218288240939e-08 -0.00075027681421654978 -8.4418387284624044e-11 1.1160851418170779e-07 -0.0010003111216717513 9.284177950480885e-09 5.7052968844880945e-08 -0.0010003108655309203 -2.4316836452686779e-08 7.1462615453391315e-08 -0.0010003097077927188 -2.3150430246047203e-08 7.1581218288240939e-08 -0.00075027681421654978 1.0870337231626459e-08 5.7028204945129704e-08 -0.00075027890328414914 1.9989609863720214e-09 1.1165766193876068e-07 -0.00075027973381868297 -2.3150430246047203e-08 7.1581218288240939e-08 -0.00075027681421654978 -8.4418387284624044e-11 1.1160851418170779e-07 -0.0010003111216717513 1.0870337231626459e-08 5.7028204945129704e-08 -0.00075027890328414914 -8.4418387284632251e-11 1.1160851418170779e-07 -0.0010003111216717513 -2.3150430246047203e-08 7.1581218288240939e-08 -0.00075027681421654978 9.284177950480885e-09 5.7052968844880945e-08 -0.0010003108655309203 -5.5890108164889939e-08 9.660549971492464e-08 -0.0010003094588849645 -8.4418387284618215e-11 1.116085141817078e-07 -0.0010003111216717513 -2.4316836452686779e-08 7.1462615453391315e-08 -0.0010003097077927188 -2.3150430246047203e-08 7.1581218288240939e-08 -0.00075027681421654978 1.9989609863720214e-09 1.1165766193876068e-07 -0.00075027973381868297 1.0870337231626459e-08 5.7028204945129704e-08 -0.00075027890328414914 -2.3150430246047203e-08 7.1581218288240939e-08 -0.00075027681421654978 -2.5386091940800532e-08 6.9258134957605747e-08 -0.00050024056826675808 -5.4063898771253569e-08 9.7721118379604297e-08 -0.00075027604354485752 1.9989609863720276e-09 1.1165766193876069e-07 -0.00075027973381868308 -2.3150430246047203e-08 7.1581218288240939e-08 -0.00075027681421654978 -2.5386091940800532e-08 6.9258134957605747e-08 -0.00050024056826675808 1.2954610731181802e-08 5.6980233314949213e-08 -0.00050024586184243343 1.9989609863720118e-09 1.1165766193876068e-07 -0.00075027973381868308 -2.5386091940800532e-08 6.9258134957605747e-08 -0.00050024056826675808 1.0870337231626459e-08 5.7028204945129704e-08 -0.00075027890328414914 1.0870337231626459e-08 5.7028204945129704e-08 -0.00075027890328414914 -1.9290632850542045e-08 3.6142341115454898e-08 -0.00075027598246761476 -2.3150430246047203e-08 7.1581218288240939e-08 -0.00075027681421654978 -2.5386091940800532e-08 6.9258134957605747e-08 -0.00050024056826675808 4.4878045431842296e-08 1.0091057764075303e-07 -0.0005002655202099353 1.9989609863720259e-09 1.1165766193876068e-07 -0.00075027973381868297 1.2954610731181802e-08 5.6980233314949213e-08 -0.00050024586184243343 5.7209558132393512e-08 9.579612853623236e-08 -0.00075028569304356389 1.9989609863720214e-09 1.1165766193876068e-07 -0.00075027973381868297 5.7209558132393512e-08 9.579612853623236e-08 -0.00075028569304356389 1.0870337231626459e-08 5.7028204945129704e-08 -0.00075027890328414914 1.2954610731181802e-08 5.6980233314949213e-08 -0.00050024586184243343 5.7209558132393512e-08 9.579612853623236e-08 -0.00075028569304356389 1.0870337231626459e-08 5.7028204945129704e-08 -0.00075027890328414903 1.2954610731181783e-08 5.6980233314949239e-08 -0.00050024586184243332 5.7241913882712661e-08 3.4702006977962943e-08 -0.00050025569006567541 -1.3462608655716602e-08 1.092800154529954e-07 -0.00050025034956006746 -5.4063898771253542e-08 9.7721118379604284e-08 -0.00075027604354485752 -2.5386091940800532e-08 6.9258134957605747e-08 -0.00050024056826675808 1.9989609863720214e-09 1.1165766193876068e-07 -0.00075027973381868297 1.9989609863720214e-09 1.1165766193876068e-07 -0.00075027973381868297 -5.5890108164889919e-08 9.6605499714924627e-08 -0.0010003094588849645 -2.3150430246047203e-08 7.1581218288240939e-08 -0.00075027681421654978 -8.4418387284624044e-11 1.1160851418170779e-07 -0.0010003111216717513 -5.4063898771253569e-08 9.7721118379604297e-08 -0.00075027604354485752 -2.3150430246047203e-08 7.1581218288240939e-08 -0.00075027681421654978 -4.8816830427865556e-08 5.3218745125025315e-08 -0.00075027600863019402 -5.1284875860602272e-08 5.0052426180973176e-08 -0.00050023973439035265 -1.9290632850542042e-08 3.6142341115454898e-08 -0.00075027598246761476 -2.3150430246047199e-08 7.1581218288240939e-08 -0.00075027681421654978 -2.5386091940800532e-08 6.9258134957605747e-08 -0.00050024056826675808 -5.1284875860602272e-08 5.0052426180973176e-08 -0.00050023973439035265 -2.5386091940800532e-08 6.9258134957605747e-08 -0.00050024056826675808 -5.4063898771253569e-08 9.7721118379604297e-08 -0.00075027604354485752 -5.1284875860602272e-08 5.0052426180973176e-08 -0.00050023973439035265 -2.3150430246047203e-08 7.1581218288240939e-08 -0.00075027681421654978 -6.6338838256747019e-08 8.7950531112843566e-08 -0.00050024100567435759 -9.5744675233299489e-08 5.7470418784881308e-08 -0.00075027825011895598 -5.1284875860602272e-08 5.0052426180973176e-08 -0.00050023973439035265 -5.4063898771253569e-08 9.7721118379604297e-08 -0.00075027604354485752 -9.5744675233299503e-08 5.7470418784881308e-08 -0.00075027825011895588 -5.4063898771253569e-08 9.7721118379604297e-08 -0.00075027604354485752 -4.8816830427865556e-08 5.3218745125025315e-08 -0.00075027600863019402 -5.1284875860602272e-08 5.0052426180973176e-08 -0.00050023973439035265 -2.0028507817940997e-08 3.5794560738309409e-08 -0.0010003093960996442 -2.4316836452686776e-08 7.1462615453391315e-08 -0.0010003097077927188 -2.3150430246047203e-08 7.1581218288240939e-08 -0.00075027681421654978 -4.8816830427865556e-08 5.3218745125025315e-08 -0.00075027600863019402 -2.3150430246047203e-08 7.1581218288240939e-08 -0.00075027681421654978 -5.4063898771253569e-08 9.7721118379604297e-08 -0.00075027604354485752 -4.8816830427865556e-08 5.3218745125025315e-08 -0.00075027600863019402 -5.5890108164889939e-08 9.660549971492464e-08 -0.0010003094588849645 1.9989609863720214e-09 1.1165766193876068e-07 -0.00075027973381868297 -5.4063898771253569e-08 9.7721118379604297e-08 -0.00075027604354485752 -2.3150430246047203e-08 7.1581218288240939e-08 -0.00075027681421654978 -5.5890108164889939e-08 9.660549971492464e-08 -0.0010003094588849645 -5.5890108164889939e-08 9.660549971492464e-08 -0.0010003094588849645 -2.4316836452686779e-08 7.1462615453391315e-08 -0.0010003097077927188 -4.9575945300376001e-08 5.2973369267831489e-08 -0.0010003090191563362 -4.8816830427865556e-08 5.3218745125025315e-08 -0.00075027600863019402 -2.3150430246047203e-08 7.1581218288240939e-08 -0.00075027681421654978 -5.5890108164889939e-08 9.660549971492464e-08 -0.0010003094588849645 -4.8816830427865556e-08 5.3218745125025315e-08 -0.00075027600863019402 -2.4316836452686779e-08 7.1462615453391315e-08 -0.0010003097077927188 -5.4063898771253569e-08 9.7721118379604297e-08 -0.00075027604354485752 -9.6699058604711601e-08 5.5734645664846985e-08 -0.0010003099531871499 -4.8816830427865556e-08 5.3218745125025315e-08 -0.00075027600863019402 -5.5890108164889939e-08 9.660549971492464e-08 -0.0010003094588849645 -9.6699058604711614e-08 5.5734645664846978e-08 -0.0010003099531871499 -5.5890108164889939e-08 9.660549971492464e-08 -0.0010003094588849645 -4.9575945300376001e-08 5.2973369267831489e-08 -0.0010003090191563362 -4.8816830427865556e-08 5.3218745125025315e-08 -0.00075027600863019402 -5.4063898771253569e-08 9.7721118379604297e-08 -0.00075027604354485752 -9.5744675233299503e-08 5.7470418784881308e-08 -0.00075027825011895588 -4.8816830427865556e-08 5.3218745125025315e-08 -0.00075027600863019402 -9.6699058604711614e-08 5.5734645664846978e-08 -0.0010003099531871499 -5.5890108164889939e-08 9.660549971492464e-08 -0.0010003094588849645 -9.6699058604711614e-08 5.5734645664846978e-08 -0.0010003099531871499 -4.9575945300376001e-08 5.2973369267831489e-08 -0.0010003090191563362 -9.6597270730049281e-08 5.5728264358727757e-08 -0.0012503439263323974 -2.4316836452686779e-08 7.1462615453391315e-08 -0.0010003097077927188 -5.5890108164889939e-08 9.660549971492464e-08 -0.0010003094588849645 -4.9575945300376001e-08 5.2973369267831489e-08 -0.0010003090191563362 -5.5767148648880945e-08 9.6576361621654159e-08 -0.0012503441414195259 -8.4418387284624044e-11 1.1160851418170779e-07 -0.0010003111216717513 -5.5890108164889939e-08 9.660549971492464e-08 -0.0010003094588849645 -2.4316836452686779e-08 7.1462615453391315e-08 -0.0010003097077927188 -5.5767148648880945e-08 9.6576361621654159e-08 -0.0012503441414195259 -9.6597270730049281e-08 5.5728264358727757e-08 -0.0012503439263323974 -5.5767148648880945e-08 9.6576361621654159e-08 -0.0012503441414195259 -4.9223593654293397e-08 5.3022284923828793e-08 -0.0012503455686359364 -4.9575945300376001e-08 5.2973369267831489e-08 -0.0010003090191563362 -1.9819443785813601e-08 3.5827338363290389e-08 -0.0012503451392374253 -2.4204763573174987e-08 7.140402207127488e-08 -0.0012503455722689863 -2.4316836452686779e-08 7.1462615453391315e-08 -0.0010003097077927188 -4.9575945300376001e-08 5.2973369267831489e-08 -0.0010003090191563362 -5.5890108164889939e-08 9.660549971492464e-08 -0.0010003094588849645 -9.6597270730049268e-08 5.5728264358727763e-08 -0.0012503439263323976 -4.9575945300376001e-08 5.2973369267831489e-08 -0.0010003090191563362 -5.5767148648880945e-08 9.6576361621654159e-08 -0.0012503441414195259 -2.4316836452686779e-08 7.1462615453391315e-08 -0.0010003097077927188 -5.5767148648880945e-08 9.6576361621654159e-08 -0.0012503441414195259 -4.9575945300376001e-08 5.2973369267831489e-08 -0.0010003090191563362 -2.4204763573174991e-08 7.140402207127488e-08 -0.0012503455722689863 -5.5767148648880945e-08 9.6576361621654159e-08 -0.0012503441414195259 -2.4204763573174991e-08 7.140402207127488e-08 -0.0012503455722689863 -4.9223593654293397e-08 5.3022284923828793e-08 -0.0012503455686359364 -4.9575945300376001e-08 5.2973369267831489e-08 -0.0010003090191563362 -1.1151718968299669e-07 -4.2842114063874596e-12 -0.0012503436924650804 -9.6597270730049281e-08 5.5728264358727757e-08 -0.0012503439263323974 -5.0387799794210907e-08 5.461761565226737e-09 -0.0012503440847124248 -5.0682426578598333e-08 5.2364809251723881e-09 -0.0010003092099210552 -9.6699058604711614e-08 5.5734645664846978e-08 -0.0010003099531871499 -1.1151718968299669e-07 -4.2842114063874596e-12 -0.0012503436924650804 -5.0682426578598333e-08 5.2364809251723881e-09 -0.0010003092099210552 -9.6597270730049281e-08 5.5728264358727757e-08 -0.0012503439263323974 -9.6699058604711614e-08 5.5734645664846978e-08 -0.0010003099531871499 -5.0682426578598333e-08 5.2364809251723881e-09 -0.0010003092099210552 -4.9575945300376001e-08 5.2973369267831489e-08 -0.0010003090191563362 -9.6597270730049281e-08 5.5728264358727757e-08 -0.0012503439263323974 -9.6699058604711614e-08 5.5734645664846978e-08 -0.0010003099531871499 -1.1160525698441087e-07 -1.0668508948614167e-10 -0.0010003101361513948 -5.0682426578598333e-08 5.2364809251723881e-09 -0.0010003092099210552 -1.1151718968299669e-07 -4.2842114063874596e-12 -0.0012503436924650804 -5.0682426578598333e-08 5.2364809251723881e-09 -0.0010003092099210552 -1.1160525698441087e-07 -1.066850894861418e-10 -0.0010003101361513945 -6.6158895657155404e-08 -4.0524642604096274e-08 -0.0010003084963546161 -1.1151718968299669e-07 -4.2842114063874596e-12 -0.0012503436924650804 -1.1160525698441087e-07 -1.066850894861418e-10 -0.0010003101361513945 -9.6575161759217843e-08 -5.5782056826733406e-08 -0.0012503432487501261 -6.6158895657155418e-08 -4.052464260409628e-08 -0.0010003084963546161 -1.1151718968299669e-07 -4.2842114063874596e-12 -0.0012503436924650804 -5.0682426578598333e-08 5.2364809251723881e-09 -0.0010003092099210552 -1.1151718968299669e-07 -4.2842114063823042e-12 -0.0012503436924650804 -6.6158895657155404e-08 -4.0524642604096274e-08 -0.0010003084963546161 -5.0387799794210907e-08 5.461761565226737e-09 -0.0012503440847124248 -1.1151718968299669e-07 -4.2842114063874596e-12 -0.0012503436924650804 -5.0387799794210907e-08 5.461761565226737e-09 -0.0012503440847124248 -6.5824277718504876e-08 -4.0327441320853069e-08 -0.0012503449557537923 -6.6158895657155404e-08 -4.0524642604096274e-08 -0.0010003084963546161 -1.5339774106709629e-08 -5.5591866741165836e-08 -0.0010003084750256136 -5.0682426578598327e-08 5.2364809251723956e-09 -0.0010003092099210552 -6.6158895657155404e-08 -4.0524642604096274e-08 -0.0010003084963546161 -5.03877997942109e-08 5.461761565226737e-09 -0.001250344084712425 -5.0682426578598333e-08 5.2364809251723881e-09 -0.0010003092099210552 -1.5339774106709629e-08 -5.5591866741165836e-08 -0.0010003084750256136 4.8028579467860214e-09 1.393232411443055e-09 -0.0010003092096622925 -5.0387799794210907e-08 5.461761565226737e-09 -0.0012503440847124248 -5.0682426578598333e-08 5.2364809251723881e-09 -0.0010003092099210552 4.8028579467860214e-09 1.393232411443055e-09 -0.0010003092096622925 -2.0028507817940997e-08 3.5794560738309409e-08 -0.0010003093960996442 -5.0387799794210907e-08 5.461761565226737e-09 -0.0012503440847124248 -5.0682426578598333e-08 5.2364809251723881e-09 -0.0010003092099210552 -2.0028507817940997e-08 3.5794560738309409e-08 -0.0010003093960996442 -4.9575945300376001e-08 5.2973369267831489e-08 -0.0010003090191563362 -5.0387799794210907e-08 5.461761565226737e-09 -0.0012503440847124248 -2.0028507817940997e-08 3.5794560738309409e-08 -0.0010003093960996442 -2.4316836452686779e-08 7.1462615453391315e-08 -0.0010003097077927188 -4.9575945300376001e-08 5.2973369267831489e-08 -0.0010003090191563362 -1.9819443785813601e-08 3.5827338363290389e-08 -0.0012503451392374253 -5.0387799794210907e-08 5.461761565226737e-09 -0.0012503440847124248 -1.9819443785813601e-08 3.5827338363290389e-08 -0.0012503451392374253 -2.0028507817940997e-08 3.5794560738309409e-08 -0.0010003093960996442 -4.9575945300376001e-08 5.2973369267831489e-08 -0.0010003090191563362 -2.4204763573174991e-08 7.140402207127488e-08 -0.0012503455722689863 -1.9819443785813601e-08 3.5827338363290389e-08 -0.0012503451392374253 -4.9223593654293397e-08 5.3022284923828793e-08 -0.0012503455686359364 -4.9575945300376001e-08 5.2973369267831489e-08 -0.0010003090191563362 -9.6597270730049281e-08 5.5728264358727757e-08 -0.0012503439263323974 -5.0387799794210907e-08 5.461761565226737e-09 -0.0012503440847124248 -5.0682426578598333e-08 5.2364809251723881e-09 -0.0010003092099210552 -4.9575945300376001e-08 5.2973369267831489e-08 -0.0010003090191563362 -1.9819443785813601e-08 3.5827338363290389e-08 -0.0012503451392374253 -5.0387799794210907e-08 5.461761565226737e-09 -0.0012503440847124248 -4.9223593654293397e-08 5.3022284923828793e-08 -0.0012503455686359364 -4.9575945300376001e-08 5.2973369267831489e-08 -0.0010003090191563362 -5.0387799794210907e-08 5.461761565226737e-09 -0.0012503440847124248 -9.6597270730049268e-08 5.5728264358727763e-08 -0.0012503439263323974 -4.9223593654293397e-08 5.3022284923828793e-08 -0.0012503455686359364 -4.9575945300376001e-08 5.2973369267831489e-08 -0.0010003090191563362 -2.0028507817940997e-08 3.5794560738309409e-08 -0.0010003093960996442 9.1395822009538785e-09 5.7056244769154888e-08 -0.0012503457480731422 -2.4316836452686779e-08 7.1462615453391315e-08 -0.0010003097077927185 -1.9819443785813601e-08 3.5827338363290389e-08 -0.0012503451392374253 9.1395822009538785e-09 5.7056244769154888e-08 -0.0012503457480731422 4.9472447898573469e-09 1.4927605173930288e-09 -0.001250344505200864 -1.9819443785813601e-08 3.5827338363290389e-08 -0.0012503451392374253 -2.0028507817940997e-08 3.5794560738309409e-08 -0.0010003093960996442 4.9472447898573469e-09 1.4927605173930288e-09 -0.001250344505200864 -5.0387799794210907e-08 5.461761565226737e-09 -0.0012503440847124248 -1.9819443785813601e-08 3.5827338363290389e-08 -0.0012503451392374253 -2.0028507817940997e-08 3.5794560738309409e-08 -0.0010003093960996442 4.9472447898573469e-09 1.4927605173930288e-09 -0.001250344505200864 9.1395822009538686e-09 5.7056244769154895e-08 -0.0012503457480731422 9.2841779504809165e-09 5.7052968844880945e-08 -0.0010003108655309205 -2.0028507817941027e-08 3.5794560738309409e-08 -0.0010003093960996442 -1.4914730826481147e-08 -5.5373804701862836e-08 -0.0012503436630552061 -5.0387799794210907e-08 5.461761565226737e-09 -0.0012503440847124248 4.9472447898573469e-09 1.4927605173930288e-09 -0.001250344505200864 4.8028579467860214e-09 1.393232411443055e-09 -0.0010003092096622925 -5.0387799794210907e-08 5.461761565226737e-09 -0.0012503440847124248 4.9472447898573469e-09 1.4927605173930288e-09 -0.001250344505200864 4.8028579467860206e-09 1.3932324114430279e-09 -0.0010003092096622925 -2.0028507817940997e-08 3.5794560738309409e-08 -0.0010003093960996442 4.8028579467860214e-09 1.393232411443055e-09 -0.0010003092096622925 -1.491473082648115e-08 -5.5373804701862823e-08 -0.0012503436630552061 2.137121189518919e-08 -3.6561087917308899e-08 -0.0010003085992952153 4.9472447898573469e-09 1.4927605173930288e-09 -0.001250344505200864 -5.0387799794210907e-08 5.461761565226737e-09 -0.0012503440847124248 -1.4914730826481147e-08 -5.5373804701862836e-08 -0.0012503436630552061 -1.5339774106709659e-08 -5.5591866741165855e-08 -0.0010003084750256133 4.802857946786038e-09 1.3932324114430643e-09 -0.0010003092096622925 4.9472447898573469e-09 1.4927605173930288e-09 -0.001250344505200864 5.3697367465706406e-08 -2.0389796847820222e-08 -0.00125034511346316 2.1566939013963832e-08 -3.6366451685384152e-08 -0.0012503448469703624 2.137121189518919e-08 -3.6561087917308899e-08 -0.0010003085992952153 5.3697367465706406e-08 -2.0389796847820222e-08 -0.00125034511346316 4.9472447898573469e-09 1.4927605173930288e-09 -0.001250344505200864 4.8028579467860057e-09 1.3932324114430266e-09 -0.0010003092096622925 2.137121189518919e-08 -3.6561087917308899e-08 -0.0010003085992952153 4.8028579467860214e-09 1.393232411443055e-09 -0.0010003092096622925 5.3697367465706393e-08 -2.0389796847820195e-08 -0.0012503451134631602 5.5700669422245859e-08 3.186630533894702e-08 -0.0010003118905836858 4.9472447898573469e-09 1.4927605173930288e-09 -0.001250344505200864 5.3697367465706406e-08 -2.0389796847820222e-08 -0.00125034511346316 4.9472447898573469e-09 1.4927605173930288e-09 -0.001250344505200864 5.5588811160622717e-08 3.1955843373099846e-08 -0.0012503479267366904 5.5700669422245859e-08 3.186630533894702e-08 -0.0010003118905836858 9.1395822009538785e-09 5.7056244769154888e-08 -0.0012503457480731422 5.5724682140336401e-08 9.6603660050619304e-08 -0.0012503465007591896 5.5588811160622717e-08 3.1955843373099846e-08 -0.0012503479267366904 5.5700669422245859e-08 3.186630533894702e-08 -0.0010003118905836858 9.284177950480885e-09 5.7052968844880945e-08 -0.0010003108655309203 4.9472447898573469e-09 1.4927605173930288e-09 -0.001250344505200864 5.5700669422245859e-08 3.186630533894702e-08 -0.0010003118905836858 9.1395822009538785e-09 5.7056244769154888e-08 -0.0012503457480731422 4.9472447898573469e-09 1.4927605173930288e-09 -0.001250344505200864 9.1395822009538785e-09 5.7056244769154888e-08 -0.0012503457480731422 5.5588811160622711e-08 3.1955843373099846e-08 -0.0012503479267366902 5.5700669422245859e-08 3.186630533894702e-08 -0.0010003118905836858 9.284177950480885e-09 5.7052968844880945e-08 -0.0010003108655309203 4.8028579467860214e-09 1.393232411443055e-09 -0.0010003092096622925 5.5700669422245859e-08 3.186630533894702e-08 -0.0010003118905836858 4.9472447898573469e-09 1.4927605173930288e-09 -0.001250344505200864 4.8028579467860214e-09 1.393232411443055e-09 -0.0010003092096622925 5.3647496873496013e-08 -2.0497250066967151e-08 -0.001000310103355934 5.5700669422245859e-08 3.186630533894702e-08 -0.0010003118905836858 5.3697367465706399e-08 -2.0389796847820222e-08 -0.00125034511346316 5.3647496873496013e-08 -2.0497250066967151e-08 -0.001000310103355934 4.8028579467860214e-09 1.393232411443055e-09 -0.0010003092096622925 2.137121189518919e-08 -3.6561087917308899e-08 -0.0010003085992952153 5.3697367465706406e-08 -2.0389796847820222e-08 -0.00125034511346316 -2.0028507817940997e-08 3.5794560738309409e-08 -0.0010003093960996442 9.284177950480885e-09 5.7052968844880945e-08 -0.0010003108655309203 -2.4316836452686779e-08 7.1462615453391315e-08 -0.0010003097077927188 9.1395822009538785e-09 5.7056244769154888e-08 -0.0012503457480731422 4.8028579467860214e-09 1.393232411443055e-09 -0.0010003092096622925 9.2841779504808751e-09 5.7052968844880952e-08 -0.0010003108655309201 -2.0028507817940997e-08 3.5794560738309409e-08 -0.0010003093960996442 4.9472447898573469e-09 1.4927605173930288e-09 -0.001250344505200864 4.8028579467860214e-09 1.393232411443055e-09 -0.0010003092096622925 9.2841779504808767e-09 5.7052968844880952e-08 -0.0010003108655309203 1.0870337231626492e-08 5.7028204945129697e-08 -0.00075027890328414925 -1.9290632850542071e-08 3.6142341115454898e-08 -0.00075027598246761487 4.8976384996890843e-09 1.8458338046953867e-09 -0.00075027574667115363 1.0870337231626451e-08 5.7028204945129711e-08 -0.00075027890328414914 -1.9290632850542042e-08 3.6142341115454898e-08 -0.00075027598246761476 4.8028579467860214e-09 1.393232411443055e-09 -0.0010003092096622925 -1.9290632850542042e-08 3.6142341115454898e-08 -0.00075027598246761476 1.0870337231626459e-08 5.7028204945129704e-08 -0.00075027890328414914 -2.3150430246047203e-08 7.1581218288240939e-08 -0.00075027681421654978 9.284177950480885e-09 5.7052968844880945e-08 -0.0010003108655309203 4.8028579467860214e-09 1.393232411443055e-09 -0.0010003092096622925 -5.0682426578598333e-08 5.2364809251723881e-09 -0.0010003092099210552 -2.0028507817940997e-08 3.5794560738309409e-08 -0.0010003093960996442 -1.9290632850542042e-08 3.6142341115454898e-08 -0.00075027598246761476 -1.9290632850542042e-08 3.6142341115454898e-08 -0.00075027598246761476 9.284177950480885e-09 5.7052968844880945e-08 -0.0010003108655309203 -2.3150430246047203e-08 7.1581218288240939e-08 -0.00075027681421654978 -2.0028507817940997e-08 3.5794560738309409e-08 -0.0010003093960996442 9.284177950480885e-09 5.7052968844880945e-08 -0.0010003108655309203 4.8028579467860214e-09 1.393232411443055e-09 -0.0010003092096622925 -2.0028507817940997e-08 3.5794560738309409e-08 -0.0010003093960996442 -1.9290632850542042e-08 3.6142341115454898e-08 -0.00075027598246761476 4.8976384996890843e-09 1.8458338046953867e-09 -0.00075027574667115363 -1.5339774106709632e-08 -5.5591866741165822e-08 -0.0010003084750256133 2.0983291334622262e-08 -3.6311535105635903e-08 -0.00075027479642056892 4.8028579467860214e-09 1.393232411443055e-09 -0.0010003092096622925 -5.0682426578598333e-08 5.2364809251723881e-09 -0.0010003092099210552 -1.5339774106709629e-08 -5.5591866741165836e-08 -0.0010003084750256136 -1.6514619342314751e-08 -5.5258126423613285e-08 -0.00075027529645470953 4.8976384996891009e-09 1.845833804695396e-09 -0.00075027574667115363 -1.5339774106709629e-08 -5.5591866741165836e-08 -0.0010003084750256136 -5.0682426578598333e-08 5.2364809251723881e-09 -0.0010003092099210552 4.8028579467860214e-09 1.393232411443055e-09 -0.0010003092096622925 4.8976384996890843e-09 1.8458338046953867e-09 -0.00075027574667115363 -5.0682426578598333e-08 5.2364809251723881e-09 -0.0010003092099210552 4.8028579467860214e-09 1.393232411443055e-09 -0.0010003092096622925 4.8976384996890827e-09 1.8458338046953596e-09 -0.00075027574667115363 -1.9290632850542042e-08 3.6142341115454898e-08 -0.00075027598246761476 5.3647496873496013e-08 -2.0497250066967151e-08 -0.001000310103355934 4.8028579467860214e-09 1.393232411443055e-09 -0.0010003092096622925 4.8976384996890678e-09 1.845833804695358e-09 -0.00075027574667115373 2.0983291334622262e-08 -3.6311535105635903e-08 -0.00075027479642056892 5.3659635500081282e-08 -1.9712139893444383e-08 -0.00075027713252303458 4.8976384996890843e-09 1.8458338046953867e-09 -0.00075027574667115363 2.0983291334622262e-08 -3.6311535105635903e-08 -0.00075027479642056892 5.3647496873496013e-08 -2.0497250066967151e-08 -0.001000310103355934 4.8028579467860214e-09 1.393232411443055e-09 -0.0010003092096622925 5.3647496873496013e-08 -2.0497250066967151e-08 -0.001000310103355934 2.137121189518919e-08 -3.6561087917308899e-08 -0.0010003085992952153 2.0983291334622262e-08 -3.6311535105635903e-08 -0.00075027479642056892 4.8976384996890843e-09 1.8458338046953867e-09 -0.00075027574667115363 5.3647496873496e-08 -2.0497250066967125e-08 -0.0010003101033559338 5.6585132455592098e-08 3.2001109325794112e-08 -0.00075028200690552792 4.8028579467860214e-09 1.393232411443055e-09 -0.0010003092096622925 4.8976384996890843e-09 1.8458338046953867e-09 -0.00075027574667115363 5.3659635500081282e-08 -1.9712139893444383e-08 -0.00075027713252303458 5.6585132455592098e-08 3.2001109325794112e-08 -0.00075028200690552792 5.3647496873496007e-08 -2.0497250066967151e-08 -0.001000310103355934 5.3647496873496013e-08 -2.0497250066967151e-08 -0.001000310103355934 4.8028579467860214e-09 1.393232411443055e-09 -0.0010003092096622925 5.5700669422245859e-08 3.186630533894702e-08 -0.0010003118905836858 5.6585132455592098e-08 3.2001109325794112e-08 -0.00075028200690552792 9.284177950480885e-09 5.7052968844880945e-08 -0.0010003108655309203 5.5759784546415053e-08 9.6692996491408378e-08 -0.0010003137506441222 5.5700669422245859e-08 3.186630533894702e-08 -0.0010003118905836858 5.6585132455592098e-08 3.2001109325794112e-08 -0.00075028200690552792 1.0870337231626459e-08 5.7028204945129704e-08 -0.00075027890328414914 4.8028579467860214e-09 1.393232411443055e-09 -0.0010003092096622925 5.6585132455592098e-08 3.2001109325794112e-08 -0.00075028200690552792 9.284177950480885e-09 5.7052968844880945e-08 -0.0010003108655309203 1.0870337231626459e-08 5.7028204945129704e-08 -0.00075027890328414914 4.8976384996890843e-09 1.8458338046953867e-09 -0.00075027574667115363 5.6585132455592098e-08 3.2001109325794112e-08 -0.00075028200690552792 4.8028579467860214e-09 1.393232411443055e-09 -0.0010003092096622925 4.8028579467860214e-09 1.393232411443055e-09 -0.0010003092096622925 9.284177950480885e-09 5.7052968844880945e-08 -0.0010003108655309203 5.5700669422245852e-08 3.186630533894702e-08 -0.0010003118905836856 5.6585132455592098e-08 3.2001109325794112e-08 -0.00075028200690552792 1.2954610731181802e-08 5.6980233314949213e-08 -0.00050024586184243343 4.8976384996890843e-09 1.8458338046953867e-09 -0.00075027574667115363 5.7241913882712661e-08 3.4702006977962943e-08 -0.00050025569006567541 1.0870337231626459e-08 5.7028204945129704e-08 -0.00075027890328414914 1.0870337231626459e-08 5.7028204945129704e-08 -0.00075027890328414914 5.7209558132393512e-08 9.579612853623236e-08 -0.00075028569304356389 5.6585132455592098e-08 3.2001109325794112e-08 -0.00075028200690552792 5.7241913882712661e-08 3.4702006977962943e-08 -0.00050025569006567541 4.8976384996890843e-09 1.8458338046953867e-09 -0.00075027574667115363 1.0870337231626459e-08 5.7028204945129704e-08 -0.00075027890328414914 5.6585132455592092e-08 3.2001109325794119e-08 -0.00075028200690552781 5.7241913882712661e-08 3.4702006977962943e-08 -0.00050025569006567541 5.3659635500081282e-08 -1.9712139893444383e-08 -0.00075027713252303458 4.8976384996890843e-09 1.8458338046953867e-09 -0.00075027574667115363 5.2855182034478183e-09 3.3977405199377904e-09 -0.00050024015126508606 2.189696233078987e-08 -3.3945748206068674e-08 -0.00050023617907914001 4.8976384996890843e-09 1.8458338046953867e-09 -0.00075027574667115363 5.3659635500081282e-08 -1.9712139893444383e-08 -0.00075027713252303458 2.0983291334622262e-08 -3.6311535105635903e-08 -0.00075027479642056892 2.189696233078987e-08 -3.3945748206068674e-08 -0.00050023617907914001 5.285518203447834e-09 3.3977405199378185e-09 -0.00050024015126508606 5.3659635500081269e-08 -1.9712139893444357e-08 -0.00075027713252303469 5.7241913882712661e-08 3.4702006977962943e-08 -0.00050025569006567541 4.8976384996890843e-09 1.8458338046953867e-09 -0.00075027574667115363 5.3659635500081282e-08 -1.9712139893444383e-08 -0.00075027713252303458 4.8976384996890843e-09 1.8458338046953867e-09 -0.00075027574667115363 5.6585132455592098e-08 3.2001109325794112e-08 -0.00075028200690552792 5.7241913882712661e-08 3.4702006977962943e-08 -0.00050025569006567541 -5.0701442037429883e-08 5.2386630154358014e-09 -0.0007502763622866007 4.8976384996890843e-09 1.8458338046953867e-09 -0.00075027574667115363 5.285518203447834e-09 3.3977405199377924e-09 -0.00050024015126508606 -1.9839430865784031e-08 3.6185946768023937e-08 -0.00050023853632978426 -1.6514619342314717e-08 -5.5258126423613265e-08 -0.00075027529645470964 -5.0701442037429883e-08 5.2386630154358014e-09 -0.0007502763622866007 4.8976384996890843e-09 1.8458338046953867e-09 -0.00075027574667115363 5.285518203447834e-09 3.3977405199378185e-09 -0.00050024015126508606 -5.0701442037429883e-08 5.2386630154358014e-09 -0.0007502763622866007 -1.6514619342314717e-08 -5.5258126423613265e-08 -0.00075027529645470964 -1.7763088577255855e-08 -5.5698635138834054e-08 -0.0005002407269277593 5.2855182034478513e-09 3.3977405199378288e-09 -0.00050024015126508606 5.285518203447834e-09 3.3977405199378185e-09 -0.00050024015126508606 -1.6514619342314721e-08 -5.5258126423613258e-08 -0.00075027529645470964 2.189696233078987e-08 -3.3945748206068674e-08 -0.00050023617907914001 4.8976384996890843e-09 1.8458338046953867e-09 -0.00075027574667115363 -1.9839430865784031e-08 3.6185946768023937e-08 -0.00050023853632978426 1.0870337231626459e-08 5.7028204945129704e-08 -0.00075027890328414914 -2.5386091940800532e-08 6.9258134957605747e-08 -0.00050024056826675797 -1.9290632850542042e-08 3.6142341115454898e-08 -0.00075027598246761476 4.8976384996890843e-09 1.8458338046953867e-09 -0.00075027574667115363 -5.0701442037429883e-08 5.2386630154358014e-09 -0.0007502763622866007 -1.9290632850542042e-08 3.6142341115454898e-08 -0.00075027598246761476 -1.9839430865784031e-08 3.6185946768023937e-08 -0.00050023853632978426 4.8976384996890843e-09 1.8458338046953867e-09 -0.00075027574667115363 1.0870337231626449e-08 5.7028204945129711e-08 -0.00075027890328414914 1.2954610731181838e-08 5.6980233314949213e-08 -0.00050024586184243354 -1.9839430865784068e-08 3.6185946768023937e-08 -0.00050023853632978437 1.0870337231626459e-08 5.7028204945129704e-08 -0.00075027890328414914 4.8976384996890843e-09 1.8458338046953867e-09 -0.00075027574667115363 -1.9290632850542042e-08 3.6142341115454898e-08 -0.00075027598246761476 -1.9839430865784031e-08 3.6185946768023937e-08 -0.00050023853632978426 -5.0701442037429883e-08 5.2386630154358014e-09 -0.0007502763622866007 -9.5744675233299489e-08 5.7470418784881314e-08 -0.00075027825011895588 -4.8816830427865556e-08 5.3218745125025315e-08 -0.00075027600863019402 -5.1284875860602272e-08 5.0052426180973176e-08 -0.00050023973439035265 -2.3150430246047203e-08 7.1581218288240939e-08 -0.00075027681421654978 -1.9290632850542042e-08 3.6142341115454898e-08 -0.00075027598246761476 -4.8816830427865556e-08 5.3218745125025315e-08 -0.00075027600863019402 -5.1284875860602272e-08 5.0052426180973176e-08 -0.00050023973439035265 -9.5744675233299503e-08 5.7470418784881308e-08 -0.00075027825011895588 -5.0701442037429883e-08 5.2386630154358014e-09 -0.0007502763622866007 -5.0932247061277565e-08 3.0316840441076977e-09 -0.00050024263792332107 -5.1284875860602272e-08 5.0052426180973176e-08 -0.00050023973439035265 -5.0701442037429883e-08 5.2386630154358014e-09 -0.0007502763622866007 -1.9290632850542042e-08 3.6142341115454898e-08 -0.00075027598246761476 -1.9839430865784031e-08 3.6185946768023937e-08 -0.00050023853632978426 -5.1284875860602272e-08 5.0052426180973176e-08 -0.00050023973439035265 -1.9290632850542042e-08 3.6142341115454898e-08 -0.00075027598246761476 -5.0701442037429883e-08 5.2386630154358014e-09 -0.0007502763622866007 -4.8816830427865556e-08 5.3218745125025315e-08 -0.00075027600863019402 -5.1284875860602272e-08 5.0052426180973176e-08 -0.00050023973439035265 -1.1167803932503916e-07 1.9377224304718074e-09 -0.00075027954691670048 -9.5744675233299503e-08 5.7470418784881308e-08 -0.00075027825011895588 -5.0701442037429883e-08 5.2386630154358014e-09 -0.0007502763622866007 -5.0932247061277565e-08 3.0316840441076977e-09 -0.00050024263792332107 -1.0132651338384263e-07 4.3164032121482219e-08 -0.00050024815173481038 -1.1167803932503916e-07 1.9377224304718074e-09 -0.00075027954691670048 -5.0932247061277565e-08 3.0316840441076977e-09 -0.00050024263792332107 -9.5744675233299503e-08 5.7470418784881308e-08 -0.00075027825011895588 -1.1160525698441087e-07 -1.066850894861418e-10 -0.0010003101361513945 -9.6699058604711614e-08 5.5734645664846978e-08 -0.0010003099531871499 -5.0682426578598333e-08 5.2364809251723881e-09 -0.0010003092099210552 -5.0701442037429883e-08 5.2386630154358014e-09 -0.0007502763622866007 -9.5744675233299503e-08 5.7470418784881308e-08 -0.00075027825011895588 -5.0701442037429883e-08 5.2386630154358014e-09 -0.0007502763622866007 -4.8816830427865556e-08 5.3218745125025315e-08 -0.00075027600863019402 -9.6699058604711614e-08 5.5734645664846978e-08 -0.0010003099531871499 -9.5744675233299503e-08 5.7470418784881308e-08 -0.00075027825011895588 -1.1167803932503916e-07 1.9377224304718074e-09 -0.00075027954691670048 -5.0701442037429883e-08 5.2386630154358014e-09 -0.0007502763622866007 -1.1160525698441087e-07 -1.066850894861418e-10 -0.0010003101361513945 -9.5744675233299503e-08 5.7470418784881308e-08 -0.00075027825011895588 -1.1160525698441087e-07 -1.066850894861418e-10 -0.0010003101361513945 -5.0701442037429883e-08 5.2386630154358014e-09 -0.0007502763622866007 -9.6699058604711614e-08 5.5734645664846978e-08 -0.0010003099531871499 -2.4316836452686779e-08 7.1462615453391315e-08 -0.0010003097077927188 -2.0028507817940997e-08 3.5794560738309409e-08 -0.0010003093960996442 -4.9575945300376001e-08 5.2973369267831489e-08 -0.0010003090191563362 -4.8816830427865556e-08 5.3218745125025315e-08 -0.00075027600863019402 -5.0682426578598333e-08 5.2364809251723881e-09 -0.0010003092099210552 -9.6699058604711601e-08 5.5734645664846985e-08 -0.0010003099531871499 -4.9575945300376001e-08 5.2973369267831489e-08 -0.0010003090191563362 -4.8816830427865556e-08 5.3218745125025315e-08 -0.00075027600863019402 -1.9290632850542042e-08 3.6142341115454898e-08 -0.00075027598246761476 -2.3150430246047203e-08 7.1581218288240939e-08 -0.00075027681421654989 -4.8816830427865556e-08 5.3218745125025315e-08 -0.00075027600863019402 -2.0028507817940997e-08 3.5794560738309409e-08 -0.0010003093960996442 -2.0028507817940997e-08 3.5794560738309409e-08 -0.0010003093960996442 -5.0682426578598333e-08 5.2364809251723881e-09 -0.0010003092099210552 -4.9575945300376001e-08 5.2973369267831489e-08 -0.0010003090191563362 -4.8816830427865556e-08 5.3218745125025315e-08 -0.00075027600863019402 -5.0701442037429883e-08 5.2386630154358014e-09 -0.0007502763622866007 -1.9290632850542042e-08 3.6142341115454898e-08 -0.00075027598246761476 -4.8816830427865556e-08 5.3218745125025315e-08 -0.00075027600863019402 -5.0682426578598333e-08 5.2364809251723881e-09 -0.0010003092099210552 -5.0682426578598333e-08 5.2364809251723881e-09 -0.0010003092099210552 -2.0028507817940997e-08 3.5794560738309409e-08 -0.0010003093960996442 -1.9290632850542042e-08 3.6142341115454898e-08 -0.00075027598246761476 -4.8816830427865556e-08 5.3218745125025315e-08 -0.00075027600863019402 -9.6699058604711614e-08 5.5734645664846978e-08 -0.0010003099531871499 -5.0682426578598333e-08 5.2364809251723881e-09 -0.0010003092099210552 -5.0701442037429883e-08 5.2386630154358014e-09 -0.0007502763622866007 -4.8816830427865556e-08 5.3218745125025315e-08 -0.00075027600863019402 -5.0701442037429883e-08 5.2386630154358014e-09 -0.0007502763622866007 -1.6514619342314717e-08 -5.5258126423613265e-08 -0.00075027529645470964 4.8976384996890843e-09 1.8458338046953867e-09 -0.00075027574667115363 -5.0682426578598333e-08 5.2364809251723881e-09 -0.0010003092099210552 -5.0701442037429883e-08 5.2386630154358014e-09 -0.0007502763622866007 4.8976384996890843e-09 1.8458338046953867e-09 -0.00075027574667115363 -1.9290632850542042e-08 3.6142341115454898e-08 -0.00075027598246761476 -5.0682426578598333e-08 5.2364809251723881e-09 -0.0010003092099210552 -1.6514619342314717e-08 -5.5258126423613265e-08 -0.00075027529645470964 -5.0701442037429877e-08 5.2386630154358089e-09 -0.00075027636228660081 -6.6854302366604126e-08 -4.0015068631799725e-08 -0.0007502766404854916 -5.0682426578598327e-08 5.2364809251723881e-09 -0.0010003092099210552 -1.1167803932503916e-07 1.9377224304718074e-09 -0.00075027954691670048 -9.6578755874569107e-08 -5.590142817357365e-08 -0.0010003086428431358 -6.6854302366604139e-08 -4.0015068631799731e-08 -0.0007502766404854916 -1.1160525698441087e-07 -1.066850894861418e-10 -0.0010003101361513945 -1.1160525698441087e-07 -1.066850894861418e-10 -0.0010003101361513945 -5.0682426578598333e-08 5.2364809251723881e-09 -0.0010003092099210552 -6.6158895657155404e-08 -4.0524642604096274e-08 -0.0010003084963546161 -6.6854302366604126e-08 -4.0015068631799725e-08 -0.0007502766404854916 -5.0701442037429883e-08 5.2386630154358014e-09 -0.0007502763622866007 -1.1167803932503916e-07 1.9377224304718074e-09 -0.00075027954691670048 -6.6854302366604126e-08 -4.0015068631799725e-08 -0.0007502766404854916 -1.1160525698441087e-07 -1.066850894861418e-10 -0.0010003101361513945 -5.0701442037429883e-08 5.2386630154358014e-09 -0.0007502763622866007 -1.1160525698441087e-07 -1.0668508948613669e-10 -0.0010003101361513948 -6.6854302366604126e-08 -4.0015068631799725e-08 -0.0007502766404854916 -5.0682426578598333e-08 5.2364809251723881e-09 -0.0010003092099210552 -1.0916644725101987e-07 -1.3238989245604118e-08 -0.00050025386220564465 -9.7770367953496203e-08 -5.407697154602753e-08 -0.00075027636963193197 -6.5683348629617839e-08 -4.3493399709501798e-08 -0.00050024544105816023 -1.1167803932503916e-07 1.9377224304718074e-09 -0.00075027954691670048 -5.0932247061277565e-08 3.0316840441076977e-09 -0.00050024263792332107 -1.1167803932503916e-07 1.9377224304718127e-09 -0.00075027954691670048 -6.5683348629617826e-08 -4.3493399709501792e-08 -0.00050024544105816023 -5.0701442037429883e-08 5.2386630154358014e-09 -0.0007502763622866007 -1.1167803932503916e-07 1.9377224304718074e-09 -0.00075027954691670048 -5.0701442037429883e-08 5.2386630154358014e-09 -0.0007502763622866007 -6.6854302366604126e-08 -4.0015068631799725e-08 -0.0007502766404854916 -6.5683348629617826e-08 -4.3493399709501792e-08 -0.00050024544105816023 -1.7763088577255822e-08 -5.5698635138834034e-08 -0.00050024072692775941 -5.0701442037429883e-08 5.2386630154358246e-09 -0.0007502763622866007 -6.5683348629617826e-08 -4.3493399709501792e-08 -0.00050024544105816023 -1.6514619342314717e-08 -5.5258126423613265e-08 -0.00075027529645470964 -5.0701442037429883e-08 5.2386630154358014e-09 -0.0007502763622866007 -1.6514619342314717e-08 -5.5258126423613265e-08 -0.00075027529645470964 -6.6854302366604126e-08 -4.0015068631799725e-08 -0.0007502766404854916 -6.5683348629617826e-08 -4.3493399709501792e-08 -0.00050024544105816023 -5.7170960325582183e-08 -9.5808094099033693e-08 -0.00075027803755021798 -1.6514619342314717e-08 -5.5258126423613272e-08 -0.00075027529645470964 -1.7763088577255822e-08 -5.5698635138834034e-08 -0.00050024072692775941 -6.5683348629617826e-08 -4.3493399709501792e-08 -0.00050024544105816023 -1.6514619342314717e-08 -5.5258126423613265e-08 -0.00075027529645470964 -5.717096032558219e-08 -9.5808094099033693e-08 -0.00075027803755021798 -6.6854302366604126e-08 -4.0015068631799718e-08 -0.00075027664048549149 -6.5683348629617826e-08 -4.3493399709501792e-08 -0.00050024544105816023 -5.7170960325582183e-08 -9.5808094099033693e-08 -0.00075027803755021798 -9.7770367953496243e-08 -5.4076971546027569e-08 -0.00075027636963193186 -6.6854302366604126e-08 -4.0015068631799725e-08 -0.0007502766404854916 -6.5683348629617826e-08 -4.3493399709501792e-08 -0.00050024544105816023 -9.7770367953496243e-08 -5.4076971546027569e-08 -0.00075027636963193186 -1.1167803932503916e-07 1.9377224304718078e-09 -0.00075027954691670048 -6.6854302366604126e-08 -4.0015068631799725e-08 -0.0007502766404854916 -6.5683348629617826e-08 -4.3493399709501792e-08 -0.00050024544105816023 -8.7987115773343237e-08 -6.6310499984859064e-08 -0.00050024670705175437 -5.7170960325582177e-08 -9.5808094099033706e-08 -0.00075027803755021798 -6.5683348629617826e-08 -4.3493399709501792e-08 -0.00050024544105816023 -9.7770367953496243e-08 -5.4076971546027569e-08 -0.00075027636963193186 -9.7770367953496243e-08 -5.4076971546027569e-08 -0.00075027636963193186 -5.5764371570907748e-08 -9.6693859254968971e-08 -0.0010003092010078915 -6.6854302366604126e-08 -4.0015068631799725e-08 -0.0007502766404854916 -9.6578755874569147e-08 -5.590142817357367e-08 -0.0010003086428431356 -1.1167803932503916e-07 1.9377224304718074e-09 -0.00075027954691670048 -9.7770367953496243e-08 -5.4076971546027569e-08 -0.00075027636963193186 -6.6854302366604126e-08 -4.0015068631799725e-08 -0.0007502766404854916 -9.6578755874569147e-08 -5.590142817357367e-08 -0.0010003086428431356 -9.6578755874569147e-08 -5.590142817357367e-08 -0.0010003086428431356 -1.1160525698441087e-07 -1.0668508948614105e-10 -0.0010003101361513945 -6.6158895657155404e-08 -4.0524642604096274e-08 -0.0010003084963546161 -6.6854302366604126e-08 -4.0015068631799725e-08 -0.0007502766404854916 -5.5764371570907755e-08 -9.6693859254968945e-08 -0.0010003092010078918 -9.6578755874569147e-08 -5.590142817357367e-08 -0.0010003086428431356 -6.6158895657155404e-08 -4.0524642604096274e-08 -0.0010003084963546161 -6.6854302366604126e-08 -4.0015068631799725e-08 -0.0007502766404854916 -1.5339774106709629e-08 -5.5591866741165836e-08 -0.0010003084750256136 -5.5764371570907762e-08 -9.6693859254968945e-08 -0.0010003092010078918 -6.6158895657155404e-08 -4.0524642604096267e-08 -0.0010003084963546159 -6.6854302366604126e-08 -4.0015068631799725e-08 -0.0007502766404854916 -5.0682426578598333e-08 5.2364809251723881e-09 -0.0010003092099210552 -1.5339774106709629e-08 -5.5591866741165836e-08 -0.0010003084750256136 -6.6158895657155404e-08 -4.0524642604096274e-08 -0.0010003084963546161 -6.6854302366604126e-08 -4.0015068631799725e-08 -0.0007502766404854916 -5.5764371570907755e-08 -9.6693859254968945e-08 -0.0010003092010078918 -1.5339774106709629e-08 -5.5591866741165842e-08 -0.0010003084750256138 -1.6514619342314717e-08 -5.5258126423613265e-08 -0.00075027529645470964 -6.6854302366604126e-08 -4.0015068631799725e-08 -0.0007502766404854916 -1.6514619342314717e-08 -5.5258126423613265e-08 -0.00075027529645470964 -5.0682426578598333e-08 5.2364809251724096e-09 -0.0010003092099210552 -6.6854302366604126e-08 -4.0015068631799725e-08 -0.0007502766404854916 -1.5339774106709629e-08 -5.5591866741165836e-08 -0.0010003084750256136 -5.7170960325582183e-08 -9.5808094099033693e-08 -0.00075027803755021798 -1.6514619342314717e-08 -5.5258126423613265e-08 -0.00075027529645470964 -6.6854302366604126e-08 -4.0015068631799725e-08 -0.0007502766404854916 -5.5764371570907755e-08 -9.6693859254968945e-08 -0.0010003092010078918 -9.7770367953496243e-08 -5.4076971546027569e-08 -0.00075027636963193186 -5.7170960325582183e-08 -9.5808094099033693e-08 -0.00075027803755021798 -6.6854302366604126e-08 -4.0015068631799725e-08 -0.0007502766404854916 -5.5764371570907755e-08 -9.6693859254968945e-08 -0.0010003092010078918 -5.7170960325582183e-08 -9.5808094099033693e-08 -0.00075027803755021798 8.9153822786482066e-11 -1.1161007358266333e-07 -0.0010003082451150289 -1.6514619342314717e-08 -5.5258126423613265e-08 -0.00075027529645470964 -5.5764371570907755e-08 -9.6693859254968945e-08 -0.0010003092010078918 -4.495831144067322e-08 -1.0091920827755715e-07 -0.00050025145002038137 -1.9358064722513457e-09 -1.1165195407948844e-07 -0.00075027486002766171 -1.7763088577255822e-08 -5.5698635138834034e-08 -0.00050024072692775941 -5.7170960325582183e-08 -9.5808094099033693e-08 -0.00075027803755021798 -1.7763088577255822e-08 -5.5698635138834034e-08 -0.00050024072692775941 -1.9358064722513664e-09 -1.1165195407948846e-07 -0.00075027486002766171 2.1585568604745215e-08 -7.3842292289880225e-08 -0.00050023705327713493 -1.6514619342314717e-08 -5.5258126423613265e-08 -0.00075027529645470964 -1.9358064722513552e-09 -1.1165195407948844e-07 -0.0007502748600276616 -5.7170960325582183e-08 -9.580809409903368e-08 -0.00075027803755021798 -1.6514619342314717e-08 -5.5258126423613265e-08 -0.00075027529645470964 -1.7763088577255819e-08 -5.5698635138834034e-08 -0.0005002407269277593 -1.9358064722513552e-09 -1.1165195407948844e-07 -0.0007502748600276616 -1.6514619342314717e-08 -5.5258126423613265e-08 -0.00075027529645470964 1.9446258876822828e-08 -7.5921511201781866e-08 -0.00075027448187289759 2.1585568604745211e-08 -7.3842292289880239e-08 -0.00050023705327713493 2.189696233078987e-08 -3.3945748206068674e-08 -0.00050023617907914001 -1.6514619342314694e-08 -5.5258126423613258e-08 -0.00075027529645470964 2.1585568604745215e-08 -7.3842292289880239e-08 -0.00050023705327713493 1.9446258876822828e-08 -7.5921511201781866e-08 -0.00075027448187289759 -1.6514619342314717e-08 -5.5258126423613265e-08 -0.00075027529645470964 4.8976384996890843e-09 1.8458338046953867e-09 -0.00075027574667115363 2.0983291334622262e-08 -3.6311535105635903e-08 -0.00075027479642056892 2.189696233078987e-08 -3.3945748206068674e-08 -0.00050023617907914001 -1.6514619342314717e-08 -5.5258126423613265e-08 -0.00075027529645470964 2.0983291334622262e-08 -3.6311535105635903e-08 -0.00075027479642056892 1.9446258876822828e-08 -7.5921511201781866e-08 -0.00075027448187289759 2.189696233078987e-08 -3.3945748206068674e-08 -0.00050023617907914001 2.0983291334622262e-08 -3.6311535105635903e-08 -0.00075027479642056892 5.3659635500081289e-08 -1.9712139893444387e-08 -0.00075027713252303458 4.9127849002676746e-08 -5.6860671828054658e-08 -0.00075027501178933904 5.1804561556865892e-08 -5.3006081232249176e-08 -0.00050023741580112731 5.3659635500081282e-08 -1.9712139893444383e-08 -0.00075027713252303458 2.0983291334622265e-08 -3.6311535105635903e-08 -0.00075027479642056881 2.189696233078987e-08 -3.3945748206068674e-08 -0.00050023617907914001 5.1804561556865892e-08 -5.3006081232249176e-08 -0.00050023741580112731 1.9446258876822828e-08 -7.5921511201781866e-08 -0.00075027448187289759 2.0983291334622262e-08 -3.6311535105635903e-08 -0.00075027479642056892 4.9127849002676746e-08 -5.6860671828054658e-08 -0.00075027501178933904 5.1804561556865892e-08 -5.3006081232249176e-08 -0.00050023741580112731 2.189696233078987e-08 -3.3945748206068674e-08 -0.00050023617907914001 1.9446258876822828e-08 -7.5921511201781866e-08 -0.00075027448187289759 5.1804561556865892e-08 -5.3006081232249176e-08 -0.00050023741580112731 2.0983291334622262e-08 -3.6311535105635903e-08 -0.00075027479642056892 1.3426881953306133e-08 -1.0928213917652712e-07 -0.00050024183603022802 5.4070236636992906e-08 -9.7714493793771091e-08 -0.00075027449352671591 2.1585568604745211e-08 -7.3842292289880239e-08 -0.00050023705327713493 -1.9358064722513552e-09 -1.1165195407948844e-07 -0.0007502748600276616 5.4070236636992893e-08 -9.7714493793771091e-08 -0.0007502744935267158 -1.9358064722513581e-09 -1.1165195407948844e-07 -0.0007502748600276616 1.9446258876822828e-08 -7.5921511201781866e-08 -0.00075027448187289759 2.1585568604745211e-08 -7.3842292289880239e-08 -0.00050023705327713493 5.4070236636992893e-08 -9.7714493793771091e-08 -0.0007502744935267158 1.9446258876822828e-08 -7.5921511201781866e-08 -0.00075027448187289759 4.9127849002676746e-08 -5.6860671828054658e-08 -0.00075027501178933904 5.1804561556865892e-08 -5.3006081232249176e-08 -0.00050023741580112731 2.1585568604745211e-08 -7.3842292289880239e-08 -0.00050023705327713493 5.4070236636992893e-08 -9.7714493793771091e-08 -0.0007502744935267158 5.1804561556865892e-08 -5.3006081232249176e-08 -0.00050023741580112731 1.9446258876822828e-08 -7.5921511201781866e-08 -0.00075027448187289759 5.5908109735413373e-08 -9.659425591930922e-08 -0.0010003084806338319 8.9153822786466091e-11 -1.1161007358266333e-07 -0.0010003082451150286 2.0274635882075938e-08 -7.610449779113733e-08 -0.0010003081774328452 1.9446258876822828e-08 -7.5921511201781866e-08 -0.00075027448187289759 1.9446258876822828e-08 -7.5921511201781866e-08 -0.00075027448187289759 5.4070236636992887e-08 -9.7714493793771104e-08 -0.0007502744935267158 4.9127849002676746e-08 -5.6860671828054658e-08 -0.00075027501178933904 5.5908109735413373e-08 -9.659425591930922e-08 -0.0010003084806338319 1.9446258876822828e-08 -7.5921511201781866e-08 -0.00075027448187289759 5.5908109735413373e-08 -9.659425591930922e-08 -0.0010003084806338319 4.9127849002676746e-08 -5.6860671828054658e-08 -0.00075027501178933915 2.0274635882075938e-08 -7.610449779113733e-08 -0.0010003081774328452 5.5908109735413373e-08 -9.659425591930922e-08 -0.0010003084806338319 2.0274635882075938e-08 -7.610449779113733e-08 -0.0010003081774328452 4.9635755854076906e-08 -5.7089733852012735e-08 -0.0010003085425841539 4.9127849002676746e-08 -5.6860671828054658e-08 -0.00075027501178933904 -1.9358064722513552e-09 -1.1165195407948844e-07 -0.0007502748600276616 5.40702366369929e-08 -9.7714493793771091e-08 -0.0007502744935267158 1.9446258876822828e-08 -7.5921511201781866e-08 -0.00075027448187289759 5.5908109735413373e-08 -9.659425591930922e-08 -0.0010003084806338319 -1.9358064722513552e-09 -1.1165195407948844e-07 -0.0007502748600276616 5.5908109735413386e-08 -9.659425591930922e-08 -0.0010003084806338319 1.9446258876822828e-08 -7.5921511201781866e-08 -0.00075027448187289759 8.9153822786469348e-11 -1.1161007358266333e-07 -0.0010003082451150289 2.0983291334622262e-08 -3.6311535105635903e-08 -0.00075027479642056892 2.0274635882075938e-08 -7.610449779113733e-08 -0.0010003081774328452 4.9127849002676746e-08 -5.6860671828054658e-08 -0.00075027501178933904 2.137121189518919e-08 -3.6561087917308899e-08 -0.0010003085992952153 5.3647496873496013e-08 -2.0497250066967151e-08 -0.001000310103355934 2.1371211895189193e-08 -3.6561087917308899e-08 -0.0010003085992952155 2.0983291334622262e-08 -3.6311535105635903e-08 -0.00075027479642056892 4.9127849002676746e-08 -5.6860671828054658e-08 -0.00075027501178933904 5.3659635500081282e-08 -1.9712139893444383e-08 -0.00075027713252303458 2.0983291334622262e-08 -3.6311535105635909e-08 -0.00075027479642056892 4.9127849002676746e-08 -5.6860671828054658e-08 -0.00075027501178933904 5.3647496873496013e-08 -2.0497250066967151e-08 -0.001000310103355934 2.137121189518919e-08 -3.6561087917308899e-08 -0.0010003085992952153 5.364749687349602e-08 -2.0497250066967155e-08 -0.001000310103355934 4.9635755854076906e-08 -5.7089733852012735e-08 -0.0010003085425841539 4.9127849002676746e-08 -5.6860671828054658e-08 -0.00075027501178933904 2.0274635882075938e-08 -7.610449779113733e-08 -0.0010003081774328452 2.137121189518919e-08 -3.6561087917308899e-08 -0.0010003085992952153 4.9635755854076906e-08 -5.7089733852012735e-08 -0.0010003085425841539 4.9127849002676746e-08 -5.6860671828054658e-08 -0.00075027501178933904 2.0983291334622262e-08 -3.6311535105635903e-08 -0.00075027479642056892 1.9446258876822828e-08 -7.5921511201781866e-08 -0.00075027448187289759 4.9127849002676746e-08 -5.6860671828054658e-08 -0.00075027501178933904 2.0274635882075938e-08 -7.610449779113733e-08 -0.0010003081774328452 -1.5339774106709629e-08 -5.5591866741165836e-08 -0.0010003084750256136 4.8028579467860214e-09 1.393232411443055e-09 -0.0010003092096622925 2.137121189518919e-08 -3.6561087917308899e-08 -0.0010003085992952153 2.0983291334622262e-08 -3.6311535105635903e-08 -0.00075027479642056892 4.8976384996890843e-09 1.8458338046953867e-09 -0.00075027574667115363 -1.6514619342314717e-08 -5.5258126423613265e-08 -0.00075027529645470964 2.0983291334622262e-08 -3.6311535105635903e-08 -0.00075027479642056892 -1.5339774106709629e-08 -5.5591866741165836e-08 -0.0010003084750256136 -1.5339774106709629e-08 -5.5591866741165836e-08 -0.0010003084750256136 2.137121189518919e-08 -3.6561087917308899e-08 -0.0010003085992952153 2.0274635882075938e-08 -7.610449779113733e-08 -0.0010003081774328452 2.0983291334622262e-08 -3.6311535105635903e-08 -0.00075027479642056892 2.0983291334622262e-08 -3.6311535105635903e-08 -0.00075027479642056892 -1.6514619342314717e-08 -5.5258126423613265e-08 -0.00075027529645470964 1.9446258876822828e-08 -7.5921511201781866e-08 -0.00075027448187289759 -1.5339774106709629e-08 -5.5591866741165836e-08 -0.0010003084750256136 2.0983291334622262e-08 -3.6311535105635903e-08 -0.00075027479642056892 -1.5339774106709602e-08 -5.5591866741165829e-08 -0.0010003084750256138 1.9446258876822832e-08 -7.5921511201781866e-08 -0.00075027448187289748 2.0274635882075938e-08 -7.610449779113733e-08 -0.0010003081774328452 8.9153822786469348e-11 -1.1161007358266333e-07 -0.0010003082451150289 -1.5339774106709629e-08 -5.5591866741165836e-08 -0.0010003084750256136 2.0274635882075938e-08 -7.610449779113733e-08 -0.0010003081774328452 1.9446258876822828e-08 -7.5921511201781866e-08 -0.00075027448187289759 -1.6514619342314717e-08 -5.5258126423613265e-08 -0.00075027529645470964 -1.9358064722513552e-09 -1.1165195407948844e-07 -0.0007502748600276616 1.9446258876822828e-08 -7.5921511201781866e-08 -0.00075027448187289759 8.9153822786469891e-11 -1.1161007358266333e-07 -0.0010003082451150289 -1.6514619342314717e-08 -5.5258126423613265e-08 -0.00075027529645470964 8.9153822786460495e-11 -1.1161007358266335e-07 -0.0010003082451150289 1.9446258876822828e-08 -7.5921511201781852e-08 -0.00075027448187289759 -1.5339774106709629e-08 -5.5591866741165836e-08 -0.0010003084750256136 -5.7170960325582183e-08 -9.5808094099033693e-08 -0.00075027803755021798 -1.9358064722513519e-09 -1.1165195407948842e-07 -0.0007502748600276616 -1.6514619342314717e-08 -5.5258126423613265e-08 -0.00075027529645470964 8.9153822786469891e-11 -1.1161007358266333e-07 -0.0010003082451150289 8.9153822786469348e-11 -1.1161007358266333e-07 -0.0010003082451150289 -5.5764371570907755e-08 -9.6693859254968931e-08 -0.0010003092010078918 -1.5339774106709629e-08 -5.5591866741165836e-08 -0.0010003084750256136 -1.6514619342314714e-08 -5.5258126423613265e-08 -0.00075027529645470964 -1.5339774106709629e-08 -5.5591866741165836e-08 -0.0010003084750256136 8.9153822786469348e-11 -1.1161007358266333e-07 -0.0010003082451150289 2.0274635882075938e-08 -7.610449779113733e-08 -0.0010003081774328452 3.6623840044883433e-11 -1.1151676077909056e-07 -0.0012503426497287213 -5.5764371570907755e-08 -9.6693859254968945e-08 -0.0010003092010078918 8.9153822786472217e-11 -1.1161007358266332e-07 -0.0010003082451150289 -1.5339774106709629e-08 -5.5591866741165836e-08 -0.0010003084750256136 3.6623840044883433e-11 -1.1151676077909056e-07 -0.0012503426497287213 2.137121189518919e-08 -3.6561087917308899e-08 -0.0010003085992952153 -1.5339774106709629e-08 -5.5591866741165836e-08 -0.0010003084750256136 2.0274635882075938e-08 -7.610449779113733e-08 -0.0010003081774328452 -1.4914730826481147e-08 -5.5373804701862836e-08 -0.0012503436630552061 4.8028579467860214e-09 1.393232411443055e-09 -0.0010003092096622925 -1.5339774106709629e-08 -5.5591866741165836e-08 -0.0010003084750256136 2.137121189518919e-08 -3.6561087917308899e-08 -0.0010003085992952153 -1.4914730826481147e-08 -5.5373804701862836e-08 -0.0012503436630552061 5.3647496873496013e-08 -2.0497250066967151e-08 -0.001000310103355934 2.137121189518919e-08 -3.6561087917308905e-08 -0.0010003085992952153 4.9635755854076906e-08 -5.7089733852012735e-08 -0.0010003085425841539 5.3697367465706406e-08 -2.0389796847820222e-08 -0.00125034511346316 2.137121189518919e-08 -3.6561087917308899e-08 -0.0010003085992952153 2.0274635882075938e-08 -7.610449779113733e-08 -0.0010003081774328452 4.9635755854076906e-08 -5.7089733852012735e-08 -0.0010003085425841539 2.0477424377424608e-08 -7.5862835861699461e-08 -0.0012503439425033465 2.0274635882075938e-08 -7.610449779113733e-08 -0.0010003081774328452 5.5908109735413366e-08 -9.659425591930922e-08 -0.0010003084806338319 4.9635755854076906e-08 -5.7089733852012735e-08 -0.0010003085425841539 5.579505639363991e-08 -9.6561378185410425e-08 -0.001250343387707092 8.9153822786469348e-11 -1.1161007358266333e-07 -0.0010003082451150289 5.5908109735413379e-08 -9.659425591930922e-08 -0.0010003084806338319 2.0274635882075938e-08 -7.610449779113733e-08 -0.0010003081774328452 5.579505639363991e-08 -9.6561378185410425e-08 -0.001250343387707092 5.579505639363991e-08 -9.6561378185410425e-08 -0.001250343387707092 2.0477424377424608e-08 -7.5862835861699461e-08 -0.0012503439425033465 4.9624511171449457e-08 -5.6830243753341668e-08 -0.0012503452093417153 4.9635755854076906e-08 -5.7089733852012735e-08 -0.0010003085425841539 2.0274635882075938e-08 -7.610449779113733e-08 -0.0010003081774328452 5.579505639363991e-08 -9.6561378185410425e-08 -0.001250343387707092 4.9635755854076906e-08 -5.7089733852012735e-08 -0.0010003085425841539 2.0477424377424608e-08 -7.5862835861699461e-08 -0.0012503439425033465 5.579505639363991e-08 -9.6561378185410425e-08 -0.001250343387707092 3.6623840044880273e-11 -1.1151676077909056e-07 -0.0012503426497287213 2.0477424377424608e-08 -7.5862835861699461e-08 -0.0012503439425033465 2.0274635882075938e-08 -7.610449779113733e-08 -0.0010003081774328452 8.9153822786469348e-11 -1.1161007358266333e-07 -0.0010003082451150289 5.5795056393639923e-08 -9.6561378185410425e-08 -0.001250343387707092 2.0274635882075938e-08 -7.610449779113733e-08 -0.0010003081774328452 3.6623840044883452e-11 -1.1151676077909056e-07 -0.0012503426497287213 2.0477424377424608e-08 -7.5862835861699461e-08 -0.0012503439425033465 2.1566939013963832e-08 -3.6366451685384152e-08 -0.0012503448469703624 4.9624511171449457e-08 -5.6830243753341668e-08 -0.0012503452093417153 4.9635755854076906e-08 -5.7089733852012735e-08 -0.0010003085425841539 2.137121189518919e-08 -3.6561087917308899e-08 -0.0010003085992952153 2.0477424377424608e-08 -7.5862835861699461e-08 -0.0012503439425033465 4.9635755854076906e-08 -5.7089733852012735e-08 -0.0010003085425841539 2.1566939013963832e-08 -3.6366451685384152e-08 -0.0012503448469703624 2.1566939013963832e-08 -3.6366451685384152e-08 -0.0012503448469703624 5.3697367465706413e-08 -2.0389796847820225e-08 -0.00125034511346316 4.9624511171449457e-08 -5.6830243753341668e-08 -0.0012503452093417153 4.9635755854076906e-08 -5.7089733852012735e-08 -0.0010003085425841539 5.3697367465706406e-08 -2.0389796847820222e-08 -0.00125034511346316 2.1566939013963835e-08 -3.6366451685384152e-08 -0.0012503448469703624 2.137121189518919e-08 -3.6561087917308899e-08 -0.0010003085992952153 4.9635755854076906e-08 -5.7089733852012735e-08 -0.0010003085425841539 2.137121189518919e-08 -3.6561087917308899e-08 -0.0010003085992952153 -1.4914730826481124e-08 -5.537380470186283e-08 -0.0012503436630552061 2.0274635882075942e-08 -7.610449779113733e-08 -0.0010003081774328452 2.0477424377424608e-08 -7.5862835861699461e-08 -0.0012503439425033465 -1.4914730826481147e-08 -5.5373804701862836e-08 -0.0012503436630552061 2.1566939013963832e-08 -3.6366451685384152e-08 -0.0012503448469703624 2.0477424377424608e-08 -7.5862835861699461e-08 -0.0012503439425033465 2.137121189518919e-08 -3.6561087917308899e-08 -0.0010003085992952153 -1.4914730826481147e-08 -5.5373804701862836e-08 -0.0012503436630552061 4.9472447898573469e-09 1.4927605173930288e-09 -0.001250344505200864 2.1566939013963832e-08 -3.6366451685384152e-08 -0.0012503448469703624 2.137121189518919e-08 -3.6561087917308899e-08 -0.0010003085992952153 3.6623840044883452e-11 -1.1151676077909056e-07 -0.0012503426497287213 -5.5716022896219013e-08 -9.6605784457685646e-08 -0.0012503430101345853 -1.4914730826481147e-08 -5.5373804701862836e-08 -0.0012503436630552061 -1.5339774106709625e-08 -5.5591866741165836e-08 -0.0010003084750256136 -1.5339774106709629e-08 -5.5591866741165836e-08 -0.0010003084750256136 3.6623840044874502e-11 -1.1151676077909059e-07 -0.0012503426497287216 2.0274635882075938e-08 -7.6104497791137317e-08 -0.0010003081774328452 -1.4914730826481147e-08 -5.5373804701862836e-08 -0.0012503436630552061 3.6623840044883452e-11 -1.1151676077909056e-07 -0.0012503426497287213 -1.4914730826481147e-08 -5.5373804701862836e-08 -0.0012503436630552061 2.0477424377424608e-08 -7.5862835861699461e-08 -0.0012503439425033465 2.0274635882075938e-08 -7.610449779113733e-08 -0.0010003081774328452 -5.5764371570907755e-08 -9.6693859254968945e-08 -0.0010003092010078918 3.662384004489584e-11 -1.1151676077909056e-07 -0.0012503426497287213 -1.5339774106709629e-08 -5.5591866741165836e-08 -0.0010003084750256136 -5.5716022896219013e-08 -9.6605784457685659e-08 -0.0012503430101345853 -5.5764371570907755e-08 -9.6693859254968945e-08 -0.0010003092010078918 -1.5339774106709629e-08 -5.5591866741165836e-08 -0.0010003084750256136 -6.6158895657155404e-08 -4.0524642604096274e-08 -0.0010003084963546161 -5.5716022896219013e-08 -9.6605784457685659e-08 -0.0012503430101345853 -9.6578755874569147e-08 -5.590142817357367e-08 -0.0010003086428431356 -5.5764371570907755e-08 -9.6693859254968945e-08 -0.0010003092010078918 -6.6158895657155404e-08 -4.0524642604096274e-08 -0.0010003084963546161 -5.5716022896219013e-08 -9.6605784457685659e-08 -0.0012503430101345853 -5.5716022896219013e-08 -9.6605784457685659e-08 -0.0012503430101345853 -1.4914730826481147e-08 -5.5373804701862843e-08 -0.0012503436630552063 -1.5339774106709629e-08 -5.5591866741165836e-08 -0.0010003084750256136 -6.6158895657155404e-08 -4.0524642604096274e-08 -0.0010003084963546161 -1.4914730826481147e-08 -5.5373804701862836e-08 -0.0012503436630552061 -5.571602289621902e-08 -9.6605784457685659e-08 -0.0012503430101345853 -6.5824277718504876e-08 -4.0327441320853062e-08 -0.0012503449557537921 -6.6158895657155404e-08 -4.0524642604096274e-08 -0.0010003084963546161 -1.5339774106709629e-08 -5.5591866741165836e-08 -0.0010003084750256136 -5.0387799794210907e-08 5.4617615652267585e-09 -0.0012503440847124248 -6.6158895657155404e-08 -4.0524642604096274e-08 -0.0010003084963546161 -1.4914730826481147e-08 -5.5373804701862836e-08 -0.0012503436630552061 -5.0387799794210907e-08 5.461761565226737e-09 -0.0012503440847124248 -1.4914730826481147e-08 -5.5373804701862836e-08 -0.0012503436630552061 -6.5824277718504876e-08 -4.0327441320853069e-08 -0.0012503449557537923 -6.6158895657155404e-08 -4.0524642604096274e-08 -0.0010003084963546161 -9.6575161759217883e-08 -5.5782056826733426e-08 -0.0012503432487501261 -1.1151718968299669e-07 -4.2842114063867011e-12 -0.0012503436924650804 -6.5824277718504876e-08 -4.0327441320853069e-08 -0.0012503449557537923 -6.6158895657155404e-08 -4.0524642604096274e-08 -0.0010003084963546161 -5.5716022896219013e-08 -9.6605784457685659e-08 -0.0012503430101345853 -9.6575161759217883e-08 -5.5782056826733426e-08 -0.0012503432487501261 -6.5824277718504876e-08 -4.0327441320853069e-08 -0.0012503449557537923 -6.6158895657155404e-08 -4.0524642604096274e-08 -0.0010003084963546161 -9.6578755874569147e-08 -5.590142817357367e-08 -0.0010003086428431356 -5.5716022896219007e-08 -9.6605784457685686e-08 -0.0012503430101345851 -6.6158895657155404e-08 -4.0524642604096274e-08 -0.0010003084963546161 -9.6575161759217883e-08 -5.5782056826733426e-08 -0.0012503432487501261 -1.1160525698441087e-07 -1.066850894861418e-10 -0.0010003101361513945 -9.6578755874569147e-08 -5.590142817357367e-08 -0.0010003086428431356 -6.6158895657155404e-08 -4.0524642604096274e-08 -0.0010003084963546161 -9.6575161759217883e-08 -5.5782056826733426e-08 -0.0012503432487501261 
</DataArray>
</PointData>
<CellData Scalars="" Vectors="" Tensors="stress,">
<DataArray type="Float64" Name="stress" NumberOfComponents="9" format="ascii">
-3329.1259254708521 -0.15910108225108338 -1.2979292270392762 -0.15910108225108338 -3329.6551893815126 -0.79599818823999158 -1.2979292270392762 -0.79599818823999158 -9999.0516373832943 -3329.2604940462734 -0.077245195211018136 -1.542920934830363 -0.077245195211018136 -3329.8321596505825 -0.2999215531963273 -1.542920934830363 -0.2999215531963273 -9999.1295220944176 -3327.5279526641207 1.5865406153793531 -2.7500561804486097 1.5865406153793531 -3327.1118337289154 -1.1687950212835858 -2.7500561804486097 -1.1687950212835858 -10000.769150194477 -3327.9975759379195 1.688331244198455 -2.1791739830053634 1.688331244198455 -3330.4369630346155 -2.3247578988342816 -2.1791739830053634 -2.3247578988342816 -10001.717838339351 -3334.057100309326 -0.35683796787356736 -1.0815009326256586 -0.35683796787356736 -3330.5678968619754 -1.183982951136386 -1.0815009326256586 -1.183982951136386 -9999.1330167788728 -3332.7168060601853 1.499811257619748 -0.72014679368405865 1.499811257619748 -3331.2663488527737 0.031515314346664436 -0.72014679368405865 0.031515314346664436 -9998.9725562142867 -3330.3546080750416 0.047869695878551388 -1.154382492154582 0.047869695878551388 -3330.4630385638343 -0.36241085655046845 -1.154382492154582 -0.36241085655046845 -9999.5607703299229 -3330.0723465646552 0.22854608609265126 -1.112624815439176 0.22854608609265126 -3329.9294206118607 -0.22194924798532156 -1.112624815439176 -0.22194924798532156 -9999.356800464333 -3329.6537401931791 -0.4851931924451871 -0.60070371905658249 -0.4851931924451871 -3328.0646567028703 -0.51470583928949054 -0.60070371905658249 -0.51470583928949054 -9997.7273119083584 -3333.0482711102059 0.96187583689425271 -1.28267735714735 0.96187583689425271 -3330.4584019014119 0.16726779941129744 -1.28267735714735 0.16726779941129744 -9999.1743809372492 -3326.8805595827234 2.030374249763129 -3.540193331294919 2.030374249763129 -3328.0624791221385 -0.24180798960876082 -3.540193331294919 -0.24180798960876082 -9997.0334723605611 -3331.1863264502972 0.19322432984953239 0.0058077362093040819 0.19322432984953239 -3329.9883593667623 -1.3278488499947505 0.0058077362093040819 -1.3278488499947505 -9999.5196576775234 -3332.8887299897824 0.69275686368447498 2.364582963303282 0.69275686368447498 -3330.0788338210805 -0.69581692814120188 2.364582963303282 -0.69581692814120188 -9999.9678771759736 -3331.5192163692568 1.1949512122231645 3.0333394887716167 1.1949512122231645 -3328.669255153854 0.177310389505692 3.0333394887716167 0.177310389505692 -9998.0238853668252 -3332.5910345315124 -0.4894744112024817 3.4766766808345637 -0.4894744112024817 -3332.8796539687532 -1.7514167897276693 3.4766766808345637 -1.7514167897276693 -9999.3444396111136 -3333.5278417521354 0.035270810664341429 2.7401188055209835 0.035270810664341429 -3334.853153569079 -0.33056273334655284 2.7401188055209835 -0.33056273334655284 -10000.07201631635 -3332.0261131902253 -0.94357274293227822 0.79429328653532139 -0.94357274293227822 -3335.1667885381826 -0.78828576728764688 0.79429328653532139 -0.78828576728764688 -10003.04371522809 -3333.6245713723015 1.9423507887222389 -0.49785684884399517 1.9423507887222389 -3334.825584712743 -0.12102647579737358 -0.49785684884399517 -0.12102647579737358 -10004.032293766228 -3335.412882022652 0.5548616987027184 -1.1829884993116704 0.5548616987027184 -3334.7582840621653 -2.1335812124128841 -1.1829884993116704 -2.1335812124128841 -10001.489996128799 -3334.7263549865334 1.7138980932977788 -0.64076291330366075 1.7138980932977788 -3332.3182537959719 -0.31900143545863102 -0.64076291330366075 -0.31900143545863102 -10003.680906940592 -3336.2966634405461 0.47300825552644926 -0.40596576995795131 0.47300825552644926 -3336.6733519367153 -0.76129340411250312 -0.40596576995795131 -0.76129340411250312 -10004.487993640305 -3331.9685871561501 -1.7928223959525069 -0.67883771377731206 -1.7928223959525069 -3330.3807257843337 -0.39877553720611214 -0.67883771377731206 -0.39877553720611214 -10000.904213064661 -3327.2427579954965 -1.7845757817582864 -1.2307259727140263 -1.7845757817582864 -3325.787967812073 1.3799356536142113 -1.2307259727140263 1.3799356536142113 -9997.4836676751511 -3330.5374396746988 -0.96654901363430556 0.0190220045448386 -0.96654901363430556 -3327.6411911789774 0.80995296209968792 0.0190220045448386 0.80995296209968792 -9999.861542542958 -3332.9301096014742 -1.4612203148779854 -0.18053009876757642 -1.4612203148779854 -3331.5109235715104 -1.1086159317101192 -0.18053009876757642 -1.1086159317101192 -10002.355748089234 -3330.1935323357998 0.11874331541022742 0.010454769308353207 0.11874331541022742 -3329.393488517253 -0.77782043382012489 0.010454769308353207 -0.77782043382012489 -10001.142245009252 -3330.3490193215589 0.048844231771018931 0.43995925115905266 0.048844231771018931 -3329.4045621617242 -0.91986208733578678 0.43995925115905266 -0.91986208733578678 -10001.269930724251 -3330.4947457409098 0.21850315594386205 0.29561907561446787 0.21850315594386205 -3330.2897523707538 -1.2214705102096559 0.29561907561446787 -1.2214705102096559 -10001.527659881347 -3330.49193235852 0.18361060972435572 0.47469811876635504 0.18361060972435572 -3330.6599322609845 -0.97338330356370761 0.47469811876635504 -0.97338330356370761 -10001.619501508307 -3330.5173172412592 0.083245821973558565 0.62412664353587388 0.083245821973558565 -3330.8193268715177 -0.34744725980908697 0.62412664353587388 -0.34744725980908697 -10002.253915773159 -3330.4903804262558 0.058577239614951093 0.73560246759006986 0.058577239614951093 -3330.967573358409 -0.56248925732734278 0.73560246759006986 -0.56248925732734278 -10002.28424319113 -3329.7936314999238 0.34535115961428398 0.60286528003052808 0.34535115961428398 -3329.7859848167041 -1.1198488016107149 0.60286528003052808 -1.1198488016107149 -10001.140393875146 -3329.3761001277867 0.076492023063291448 -0.041926756490283879 0.076492023063291448 -3328.9137778487129 -0.64670472345551389 -0.041926756490283879 -0.64670472345551389 -9997.5492369801705 -3329.0831014463106 0.34535115961428353 1.4774789249768219 0.34535115961428353 -3329.0754547630909 0.4622837880251609 1.4774789249768219 0.4622837880251609 -9999.0088037143069 -3330.6554208672214 -0.23171382318978573 0.47773038197374262 -0.23171382318978573 -3330.5851588009791 0.18778771310235243 0.47773038197374262 0.18778771310235243 -10000.376116306106 -3330.9581701285551 -0.71670276936443233 0.87536798652035941 -0.71670276936443233 -3330.872574758208 0.10847615551028866 0.87536798652035941 0.10847615551028866 -10000.015694183699 -3330.3510970000461 -0.16463600229475484 0.4694314906901127 -0.16463600229475484 -3330.3057690785026 -0.00029420152532111388 0.4694314906901127 -0.00029420152532111388 -9999.7222244816458 -3329.9730589981509 0.076492023063291781 1.3299817293614069 0.076492023063291781 -3329.5107367190772 0.42276203328492556 1.3299817293614069 0.42276203328492556 -9999.3401135912627 -3329.5456817130721 0.058577239614951315 0.94495510485467094 0.058577239614951315 -3330.0228746452253 -0.17911920881988408 0.94495510485467094 -0.17911920881988408 -9999.4501470515825 -3329.4628229417281 0.45683291207506005 0.51115667276098975 0.45683291207506005 -3329.9960350944862 0.24568374723821762 0.51115667276098975 0.24568374723821762 -9999.9306858981072 -3330.2928496820027 0.097722433878695281 0.25711024835254648 0.097722433878695281 -3330.388059631116 0.081345839763343974 0.25711024835254648 0.081345839763343974 -10000.370723295657 -3329.5726185280751 0.083245821973558121 0.83347928079820122 0.083245821973558121 -3329.8746281583335 0.035922788699281227 0.83347928079820122 0.035922788699281227 -9999.4198196336092 -3330.2203390801474 0.050547885067665166 0.22945476416134625 0.050547885067665166 -3330.3756392724968 0.13469454216283339 0.22945476416134625 0.13469454216283339 -10000.34949055554 -3330.2858776161879 0.030247348380233796 0.094052505498439132 0.030247348380233796 -3330.3168547030377 0.13170485368573281 0.094052505498439132 0.13170485368573281 -10000.114882316271 -3329.9161664384392 0.21850315594386149 -0.33853125029190778 0.21850315594386149 -3329.7111730682832 0.013996871703056968 -0.33853125029190778 0.013996871703056968 -9999.7919219739324 -3330.3861701489122 0.072737941494039227 -0.076248346721058624 0.072737941494039227 -3329.8184967590787 0.20138288854013808 -0.076248346721058624 0.20138288854013808 -10000.251662694378 -3330.9079866688239 -0.22630243105606374 -0.11873435007873923 -0.22630243105606374 -3330.5879404145576 0.14252489093269105 -0.11873435007873923 0.14252489093269105 -10000.574477738224 -3329.9857067727694 0.18361060972435572 0.17586217927782855 0.18361060972435572 -3330.1537066752339 0.25322411170478176 0.17586217927782855 0.25322411170478176 -10000.100824751056 -3330.2674353584553 0.037130220611936826 0.18091284710499167 0.037130220611936826 -3330.3274571022957 0.25203685422803801 0.18091284710499167 0.25203685422803801 -10000.112922351653 -3329.5699670862532 0.11874331541022742 0.6401204109504306 0.11874331541022742 -3328.7699232677064 1.1983051243651062 0.6401204109504306 1.1983051243651062 -9999.2715492606167 -3330.3883914284602 -0.21453676617109996 0.38920272997893335 -0.21453676617109996 -3330.6149103364282 0.23889917680571671 0.38920272997893335 0.23889917680571671 -10000.316796830277 -3330.8491206814892 0.87882485585130832 0.76161185287674016 0.87882485585130832 -3329.9994583094967 0.87558983475082641 0.76161185287674016 0.87558983475082641 -9999.6813094097033 -3329.7949973898731 0.12805944668103308 0.29314725944004749 0.12805944668103308 -3330.9243020640151 0.072526220030340482 0.29314725944004749 0.072526220030340482 -10000.245796252528 -3329.6910358490363 0.048844231771018709 0.41181804704228853 0.048844231771018709 -3328.7465786892017 0.80287382711503597 0.41181804704228853 0.80287382711503597 -9999.295980306686 -3330.0673072499394 -0.052661999589403763 0.186675712282522 -0.052661999589403763 -3330.5162780334012 0.24315816662056022 0.186675712282522 0.24315816662056022 -10000.110095557297 -3330.1811612284728 -0.21453676617110029 -0.13140213658516586 -0.21453676617110029 -3330.4076801364408 -0.029223695388282067 -0.13140213658516586 -0.029223695388282067 -9999.6951062303087 -3329.9007859109861 -0.052661999589403763 -0.18331957149257505 -0.052661999589403763 -3330.3497566944479 -0.11914733123558108 -0.18331957149257505 -0.11914733123558108 -9999.6105315404384 -3330.1141369407042 0.037130220611936826 -0.052929578665498411 0.037130220611936826 -3330.1741586845446 -0.0072738812816623977 -0.052929578665498411 -0.0072738812816623977 -9999.6530270984003 -3330.1026643206078 0.030247348380233574 -0.12563442327427765 0.030247348380233574 -3330.1336414074576 -0.15374215538395219 -0.12563442327427765 -0.15374215538395219 -9999.5652424295295 -3329.934401052531 0.050547885067664833 0.11951414945997385 0.050547885067664833 -3330.0897012448804 0.023460264754248783 0.11951414945997385 0.023460264754248783 -9999.4916764726913 -3330.0069116543873 0.097722433878695503 0.14716963365026459 0.097722433878695503 -3330.1021216035006 -0.029888437646150123 0.14716963365026459 -0.029888437646150123 -9999.5129092128118 -3330.3015471143581 -0.16463600229475467 -0.033990963142059627 -0.16463600229475467 -3330.2562191928146 0.031925856097586802 -0.033990963142059627 0.031925856097586802 -9999.5735748245825 -3330.4026856107148 -0.23171382318978573 -0.08303334255288064 -0.23171382318978573 -3330.3324235444725 0.018784990042604477 -0.08303334255288064 0.018784990042604477 -9999.6179105365845 -3330.4126020687736 -0.1267098519470139 -0.045510779826145153 -0.1267098519470139 -3330.1252297034398 0.18519192112762539 -0.045510779826145153 0.18519192112762539 -9999.3540422709411 -3330.5019375835263 -0.0012087099695961001 -0.17245977630227571 -0.0012087099695961001 -3330.0910565726526 0.16218798162117309 -0.17245977630227571 0.16218798162117309 -9999.3678328669339 -3329.8081381905126 0.36603942947222623 1.000862957274876 0.36603942947222623 -3330.4080250406564 0.19070280144933349 1.000862957274876 0.19070280144933349 -9998.9909278277519 -3329.9045579045578 0.22854608609265131 1.0826639009574137 0.22854608609265131 -3329.7616319517633 0.10890185769494565 1.0826639009574137 0.10890185769494565 -9998.8534344840409 -3329.0927053861756 -0.077245195211018025 0.65236778156668151 -0.077245195211018025 -3329.6643709904847 0.030929552483939915 0.65236778156668151 0.030929552483939915 -9998.6261561141255 -3330.2805887652048 0.059767092903143415 0.33860414563059749 0.059767092903143415 -3330.1794914648463 -0.24555678932119918 0.33860414563059749 -0.24555678932119918 -9999.3567164007418 -3330.4214468749096 -0.12670985194701401 0.36601123428408755 -0.12670985194701401 -3330.1340745095758 -0.15336670449414669 0.36601123428408755 -0.15336670449414669 -9999.3805766893511 -3330.4903893774735 -0.28530050252498035 0.54396814085021106 -0.28530050252498035 -3329.6838186987943 -0.074830851748629357 0.54396814085021106 -0.074830851748629357 -9999.6015599810744 -3330.8386950017471 -0.3156823262319664 0.58983788629211631 -0.3156823262319664 -3330.9655303147683 0.079462651532594464 0.58983788629211631 0.079462651532594464 -10000.009064291136 -3330.5107823896637 -0.0012087099695963222 0.23906223780795699 -0.0012087099695963222 -3330.09990137879 -0.17637064399968949 0.23906223780795699 -0.17637064399968949 -9999.3943672853438 -3329.4699364800031 0.0042911744577169841 0.58474143185958383 0.0042911744577169841 -3331.1346200278076 -0.54145795226941118 0.58474143185958383 -0.54145795226941118 -9999.4126758105613 -3330.6278378632423 0.069899123861319801 0.3311327411684033 0.069899123861319801 -3330.2552408697538 -0.36280154773794493 0.3311327411684033 -0.36280154773794493 -9999.4624660264762 -3329.0879966762132 -0.15910108225108327 0.75935981071961578 -0.15910108225108327 -3329.6172605868737 -0.89503766557072595 0.75935981071961578 -0.89503766557072595 -9998.9378509993803 -3330.6599937283181 0.069899123861320023 -0.047997316880355356 0.069899123861320023 -3330.2873967348296 0.070722601352827041 -0.047997316880355356 0.070722601352827041 -9999.5589336217017 -3330.1382638731448 0.12668128170406706 0.042917730052067782 0.12668128170406706 -3330.1504338131635 0.024824164941492199 0.042917730052067782 0.024824164941492199 -9999.5296531975655 -3330.3669017383081 0.059767092903143415 0.092994850303512067 0.059767092903143415 -3330.2658044379496 0.054280033536088013 0.092994850303512067 0.054280033536088013 -9999.6156553200526 -3330.1549217186339 0.082170608834440634 0.049091609677589076 0.082170608834440634 -3330.1730127473002 0.10417897062689008 0.049091609677589076 0.10417897062689008 -9999.5394623924731 -3330.2604870990654 0.17192524311589763 0.13118810663297609 0.17192524311589763 -3330.2621157235526 0.20233598489357973 0.13118810663297609 0.20233598489357973 -9999.3201410741822 -3330.2813694889464 0.17192524311589769 0.41336269659848313 0.17192524311589769 -3330.2829981134337 -0.27043060736104962 0.41336269659848313 -0.27043060736104962 -9999.3827882438254 -3329.4614637591503 -0.37582993756930105 0.7297560286081648 -0.37582993756930105 -3329.7103849535201 -0.7418466627741509 0.7297560286081648 -0.7418466627741509 -9998.6425195739048 -3330.6864541874525 0.48712572717001779 0.19702758821313182 0.48712572717001779 -3331.0174868012919 0.067715112826135737 0.19702758821313182 0.067715112826135737 -10000.019949643678 -3330.7829331869584 -1.0327864593789173 0.63035523325379472 -1.0327864593789173 -3330.9891941612723 -0.85350603183360363 0.63035523325379472 -0.85350603183360363 -9999.2925892327967 -3330.4496503655578 0.047869695878551333 0.34694048054643645 0.047869695878551333 -3330.5580808543505 0.01783578855702217 0.34694048054643645 0.01783578855702217 -9999.8458972014705 -3329.9178442957173 0.25923153403603477 0.21686471358304971 0.25923153403603477 -3330.0023059743567 0.42164264439088583 0.21686471358304971 0.42164264439088583 -9999.5740019640107 -3330.0204254170044 0.20703271209704716 0.17770330158145953 0.20703271209704716 -3330.2820187654502 -0.081711231719964417 0.17770330158145953 -0.081711231719964417 -9999.6695754421071 -3330.2790630036816 0.048535530569257634 -0.19990663278440479 0.048535530569257634 -3330.5048269190565 -0.26612417476394512 -0.19990663278440479 -0.26612417476394512 -10000.063992634648 -3329.6323827264273 0.14049017419724663 0.58731054442432651 0.14049017419724663 -3329.8128021033608 0.051196815345065261 0.58731054442432651 0.051196815345065261 -9999.4552606039397 -3329.9933744859086 0.093396177380839163 0.1136176150139363 0.093396177380839163 -3330.1414757668899 -0.29076077651870946 0.1136176150139363 -0.29076077651870946 -10000.320947918377 -3330.2405440085163 0.071728144446993825 -0.13875771080529375 0.071728144446993825 -3330.3740537011295 -0.1636147838744364 -0.13875771080529375 -0.1636147838744364 -10000.021669581372 -3330.3426442818209 -0.09716095261558344 0.13774215057765105 -0.09716095261558344 -3329.9317692058275 -0.25031866624522081 0.13774215057765105 -0.25031866624522081 -10000.35583872709 -3330.2248924413379 0.15837539090260955 -0.043617303994324175 0.15837539090260955 -3330.3740544516304 -0.16576003289992514 -0.043617303994324175 -0.16576003289992514 -10000.017756877205 -3328.8524010720967 0.61802100318089648 0.3789128721018642 0.61802100318089648 -3329.5818789271189 0.055895816728479986 0.3789128721018642 0.055895816728479986 -9999.202534396296 -3330.8743096251237 -0.64383330192487032 0.17313932906472473 -0.64383330192487032 -3329.8664643670277 -0.85552172184270603 0.17313932906472473 -0.85552172184270603 -9999.2722502249162 -3329.3618321534168 -0.21598068655413377 0.73184088345215059 -0.21598068655413377 -3329.2974339232064 -0.76695134072417659 0.73184088345215059 -0.76695134072417659 -9998.5143739148953 -3330.3905405480305 0.061649400475018219 0.21064894457049377 0.061649400475018219 -3330.4017208779183 -0.096305785604727134 0.21064894457049377 -0.096305785604727134 -9999.7920297529818 -3329.7617141198543 -0.36700405374700096 0.40180442532619054 -0.36700405374700096 -3329.6900669654433 -0.64868479274628044 0.40180442532619054 -0.64868479274628044 -9998.9500019982024 -3330.2287509368443 0.061649400475018268 0.12717376132604841 0.061649400475018268 -3330.2399312667321 0.25067452818575475 0.12717376132604841 0.25067452818575475 -9999.3066609194248 -3330.012329501692 0.15837539090260944 0.23759696546403575 0.15837539090260944 -3330.1614915119844 0.24134131697974226 0.23759696546403575 0.24134131697974226 -9999.3800680582681 -3330.164470113169 0.048535530569257634 0.014200434867234435 0.048535530569257634 -3330.390234028544 -0.050356055763813856 0.014200434867234435 -0.050356055763813856 -9999.7202139631117 -3330.0763274573255 0.071728144446993825 0.071109450298536103 0.071728144446993825 -3330.2098371499387 0.082161130110762315 0.071109450298536103 0.082161130110762315 -9999.5290199278024 -3330.0257476392817 0.066086428587171397 -0.173388451908977 0.066086428587171397 -3330.2695709180744 -0.10006560303418155 -0.173388451908977 -0.10006560303418155 -9999.5936765082588 -3329.864965451924 0.016804238660617976 -0.20184396609693067 0.016804238660617976 -3330.2645494053595 -0.070851828726517851 -0.20184396609693067 -0.070851828726517851 -9999.4670934381757 -3330.2183025668992 0.046277148153914704 -0.14967389145840571 0.046277148153914704 -3330.3290103344752 -0.28282878452228033 -0.14967389145840571 -0.28282878452228033 -9999.6429942228533 -3330.1640240832548 0.070585621762631834 -0.1078841865855793 0.070585621762631834 -3330.1663526772263 -0.18944020871276734 -0.1078841865855793 -0.18944020871276734 -9999.5887601876311 -3330.3138239751897 0.095803411698537677 -0.2339282015691424 0.095803411698537677 -3330.3698872634786 -0.095839674517264939 -0.2339282015691424 -0.095839674517264939 -9999.6907746785873 -3330.9727054725404 -0.11976372789832579 -0.98961096302446094 -0.11976372789832579 -3330.5710829587247 -0.010048422138424939 -0.98961096302446094 -0.010048422138424939 -9999.9975178055374 -3330.3675245748855 -0.11420196056922211 -0.42741303259117558 -0.11420196056922211 -3330.0575626481123 0.069431255581548612 -0.42741303259117558 0.069431255581548612 -9998.924480575286 -3330.033168735436 0.095803411698537788 -0.39685688274039421 0.095803411698537788 -3330.0892320237249 0.12590399729640467 -0.39685688274039421 0.12590399729640467 -9998.8488089593247 -3330.3991892775603 0.27006749828141241 -0.69673793033780385 0.27006749828141241 -3330.3804719537434 -0.067443914690443307 -0.69673793033780385 -0.067443914690443307 -9999.9592472486547 -3329.9467343839879 0.22188079293937496 -0.16307725843398657 0.22188079293937496 -3329.9849483114035 -0.3388641108176671 -0.16307725843398657 -0.3388641108176671 -9999.868007771096 -3329.7637771274735 0.39981976203587061 -0.25735381825097647 0.39981976203587061 -3329.6908125037648 -0.47446695207236189 -0.25735381825097647 -0.47446695207236189 -9999.6279793486374 -3329.94311967571 0.046277148153914649 -0.30340566931135982 0.046277148153914649 -3330.0538274432861 -0.027918009860513848 -0.30340566931135982 -0.027918009860513848 -9998.8174455492845 -3330.1630021198021 0.11948059124996174 -0.28915065720752864 0.11948059124996174 -3330.5833253643259 -0.62060372093310434 -0.28915065720752864 -0.62060372093310434 -10000.071668968279 -3330.2157117162674 0.18245714571182847 -0.33883551983126381 0.18245714571182847 -3330.9109636419653 -0.6565562989017053 -0.33883551983126381 -0.6565562989017053 -10000.046000780387 -3330.4417560712036 0.070585621762631889 0.033071317285248369 0.070585621762631889 -3330.4440846651751 -0.01847328938129067 0.033071317285248369 -0.01847328938129067 -10000.421956151475 -3329.9660856680421 0.46820721896840711 0.088429370546236896 0.46820721896840711 -3329.5903711482833 0.55082538191982167 0.088429370546236896 0.55082538191982167 -9999.6534461449119 -3329.1581520105174 0.20158328530287373 0.44328633912209625 0.20158328530287373 -3330.0724394916042 -0.0067404506867205782 0.44328633912209625 -0.0067404506867205782 -9999.3656558375369 -3330.8568244799917 0.032100774168397517 0.53162594759305648 0.032100774168397517 -3330.3164745727872 -0.12294200608721439 0.53162594759305648 -0.12294200608721439 -10000.057656704024 -3330.261005139082 0.12668128170406684 0.048914077327935956 0.12668128170406684 -3330.2731750791008 0.042922959835777874 0.048914077327935956 0.042922959835777874 -9999.8978769953756 -3330.4868243503101 0.082170608834440967 -0.12475957573792584 0.082170608834440967 -3330.5049153789764 0.012183058799564606 -0.12475957573792584 0.012183058799564606 -10000.535170287501 -3330.3327030337855 0.066086428587171619 -0.33899050762192928 0.066086428587171619 -3330.5765263125782 -0.14194303904127992 -0.33899050762192928 -0.14194303904127992 -10000.51454269177 -3329.9071141568916 0.20791585275331204 -0.76438409770980797 0.20791585275331204 -3330.2069936581706 -0.06272192840401658 -0.76438409770980797 -0.06272192840401658 -9999.7928588945942 -3328.9345642923472 -0.19756150315449372 -1.152482786442306 -0.19756150315449372 -3329.8860393811528 0.0013207144534135296 -1.152482786442306 0.0013207144534135296 -9999.3167216160964 -3330.6568213378987 0.17319570517387928 -0.20083669878658839 0.17319570517387928 -3330.3284239219024 -0.32850292315220031 -0.20083669878658839 -0.32850292315220031 -10000.533546670127 -3329.4436025664018 0.0048238608443216258 -0.92882084097345796 0.0048238608443216258 -3329.8101232703921 -0.30070748858906882 -0.92882084097345796 -0.30070748858906882 -9999.4250021569169 -3330.8876917853495 0.25923153403603516 0.1557149856283786 0.25923153403603516 -3330.9721534639889 0.99275783018310904 0.1557149856283786 0.99275783018310904 -10002.483544432909 -3330.8088146287896 0.20791585275331226 -0.78462028433295927 0.20791585275331226 -3331.1086941300687 0.31624391810066754 -0.78462028433295927 0.31624391810066754 -10002.497960310289 -3329.6592504853879 0.20703271209704693 0.13858531936966756 0.20703271209704693 -3329.9208438338337 0.027316439689002436 0.13858531936966756 0.027316439689002436 -9998.58605064726 -3329.3728938540639 0.11948059124996163 0.88569908134127218 0.11948059124996163 -3329.7932170985878 -0.33118369595194963 0.88569908134127218 -0.33118369595194963 -9997.701344171066 -3330.7606014430748 0.2218807929393749 -0.094456779976098915 0.2218807929393749 -3330.7988153704905 -0.93231690665106726 -0.094456779976098915 -0.93231690665106726 -10002.309608948355 -3329.6799053185878 0.25397948978093376 0.43675485202493292 0.25397948978093376 -3329.5674610302844 0.22295436779495503 0.43675485202493292 0.22295436779495503 -9997.721658020122 -3329.6573830743891 0.27006749828141235 0.48965155305904773 0.27006749828141235 -3329.6386657505723 0.32071608677830454 0.48965155305904773 0.32071608677830454 -9997.7338286391423 -3333.046681302209 0.98547547717399686 -0.85336348057990108 0.98547547717399686 -3331.2026658934669 0.83501209620908412 -0.85336348057990108 0.83501209620908412 -10000.147822052153 -3334.8939867814433 -0.16848372460579009 -1.2469403940039818 -0.16848372460579009 -3334.6042632572835 0.076780827484718872 -1.2469403940039818 0.076780827484718872 -10001.065589577136 -3334.9267954370894 -0.20352253632703862 0.47284404249152323 -0.20352253632703862 -3334.8277244439987 -1.7113111423969611 0.47284404249152323 -1.7113111423969611 -10001.385834577864 -3330.1477129968571 -0.012481019376185246 -1.4528119175067378 -0.012481019376185246 -3332.164466851912 -3.3811548418757846 -1.4528119175067378 -3.3811548418757846 -9999.269072029645 -3332.2734654844176 -1.6324346139756023 -0.47444123853983911 -1.6324346139756023 -3332.5461446688669 -1.1947636100976524 -0.47444123853983911 -1.1947636100976524 -9999.8959296057747 -3334.4096091095271 -0.017029846578916749 -0.41092702155169902 -0.017029846578916749 -3332.8732531338014 -3.6862980741022975 -0.41092702155169902 -3.6862980741022975 -10000.767920168424 -3331.9157665931893 -1.184272518406799 -0.009615905241383782 -1.184272518406799 -3332.0656148144035 -0.55348933733546479 -0.009615905241383782 -0.55348933733546479 -9998.972112837946 -3330.4928976848701 0.23071288868199719 0.3899186537286406 0.23071288868199719 -3332.4779118073275 3.2577823901736749 0.3899186537286406 3.2577823901736749 -9999.4337294405032 -3330.0449422260649 1.0439389369001943 3.5592522603001271 1.0439389369001943 -3330.8055411822625 -1.1480613385260767 3.5592522603001271 -1.1480613385260767 -9998.9036479195365 -3333.3331733348618 -0.87579444124014416 -3.1458301421777244 -0.87579444124014416 -3330.9498915132399 0.99503588707272472 -3.1458301421777244 0.99503588707272472 -10000.15625146526 -3334.3975216995645 0.073111687034854267 -2.4628633399795841 0.073111687034854267 -3335.6187556061786 0.072772443575811696 -2.4628633399795841 0.072772443575811696 -10001.589554579668 -3332.1568226279205 1.225186693759188 -0.47284906032746221 1.225186693759188 -3335.3274246211422 -0.10476512905688651 -0.47284906032746221 -0.10476512905688651 -10003.889644932839 -3332.9824424863791 -0.61810398937848143 -3.7852975626273673 -0.61810398937848143 -3333.891544112028 0.25396880735529237 -3.7852975626273673 0.25396880735529237 -10000.409523717055 -3334.2346691101902 1.9290942803889664 0.99077651780694742 1.9290942803889664 -3334.3046271246999 0.15769630205463381 0.99077651780694742 0.15769630205463381 -10004.153407179298 -3334.6794671493867 0.64052411852812186 1.672132558888042 0.64052411852812186 -3333.7701764381836 2.5640510694185905 1.672132558888042 2.5640510694185905 -9999.5127868974614 -3331.0242935343704 -1.7792825153211855 2.0668202815221028 -1.7792825153211855 -3332.4079130375621 2.5551515546897425 2.0668202815221028 2.5551515546897425 -9998.2584276435518 -3336.7628205102742 0.4895971750287495 0.93501141289777312 0.4895971750287495 -3337.0400642877657 0.064212283831657946 0.93501141289777312 0.064212283831657946 -10005.469304320084 -3330.2782601269005 0.14049017419724685 -0.11667940485313011 0.14049017419724685 -3330.458679503834 1.2266406368589742 -0.11667940485313011 1.2266406368589742 -10001.392892805363 -3330.6103545881747 -0.36700405374700096 -0.036489067039838119 -0.36700405374700096 -3330.5387074337636 1.224832485625484 -0.036489067039838119 1.224832485625484 -10001.495923403163 -3330.3619435029091 0.093396177380839607 -0.36961126024107216 0.093396177380839607 -3330.5100447838904 0.80262841242756622 -0.36961126024107216 0.80262841242756622 -10001.426654969378 -3334.8829844663082 -0.32433042942873702 -1.526566923799487 -0.32433042942873702 -3334.628327934463 -0.38380975322948174 -1.526566923799487 -0.38380975322948174 -9999.7782041007613 -3333.0194338669457 -0.16603781328662987 0.18808643297474339 -0.16603781328662987 -3332.2039619924553 4.0480971881318588 0.18808643297474339 4.0480971881318588 -9998.7062249654191 -3333.3875071263869 0.26717574295662749 -0.091025010082335545 0.26717574295662749 -3333.6009572415251 0.46059051901737069 -0.091025010082335545 0.46059051901737069 -9999.1474920925466 -3325.3942213733799 2.4771182061303794 0.1170050362134134 2.4771182061303794 -3326.3576996796942 0.71198979678501928 0.1170050362134134 0.71198979678501928 -9996.038496691488 -3329.8670556476854 -1.1756170928640008 -0.27208534031160525 -1.1756170928640008 -3332.6845970341469 -0.80120343243925163 -0.27208534031160525 -0.80120343243925163 -9998.0382891710251 -3330.8244324965126 -0.61427263624302031 -0.73903538148724346 -0.61427263624302031 -3333.6383632773077 -0.24962155237968808 -0.73903538148724346 -0.24962155237968808 -9999.2162153716727 -3329.664184268936 -0.37582993756930116 -0.96734334792898835 -0.37582993756930116 -3329.9131054633058 -0.42464290331099619 -0.96734334792898835 -0.42464290331099619 -9999.2506811032636 -3328.7821595953478 -0.21598068655413388 -0.36792343505294411 -0.21598068655413388 -3328.7177613651374 0.35282631265170039 -0.36792343505294411 0.35282631265170039 -9996.7753562406906 -3329.9862832553672 -0.23231257368801719 -0.81561664852852811 -0.23231257368801719 -3330.8175699258304 0.67252804084684614 -0.81561664852852811 0.67252804084684614 -9998.3014797235192 -3327.988392906022 0.58049020571549304 -0.15124405727419798 0.58049020571549304 -3329.1673583765946 1.1838883228524537 -0.15124405727419798 1.1838883228524537 -9996.9598858911304 -3329.7128991301638 -0.65376375657320562 2.2512593318654295 -0.65376375657320562 -3332.1112631960127 3.3570508705011228 2.2512593318654295 3.3570508705011228 -9998.1269886520204 -3328.7551435292071 -1.3556653296756942 2.0796661132287459 -1.3556653296756942 -3328.8464020500051 0.65097492706391669 2.0796661132287459 0.65097492706391669 -9997.0713344652795 -3334.8984959220834 -0.727281388201378 0.72169755310589911 -0.727281388201378 -3332.3702583817681 1.1285296944035135 0.72169755310589911 1.1285296944035135 -10003.549969840358 -3326.9257603804172 -1.0301445146094985 1.2754662849847591 -1.0301445146094985 -3328.8394695564834 0.58227993708896975 1.2754662849847591 0.58227993708896975 -9999.1447177783357 -3332.0817151521951 -1.7537641368787376 1.2795491874037987 -1.7537641368787376 -3330.7395526400783 0.58285106988099855 1.2795491874037987 0.58285106988099855 -10000.90872724218 -3333.4735677833273 -1.3683104453251382 0.43761253978118475 -1.3683104453251382 -3331.9195314758153 1.5134886120094961 0.43761253978118475 1.5134886120094961 -10003.081056079182 -3330.6680585460149 -0.8783375717746118 -0.13015207410667673 -0.8783375717746118 -3328.3239277181615 -1.1402511196104927 -0.13015207410667673 -1.1402511196104927 -9999.9514068601547 -3330.3770284053066 -0.0051381994310928381 -0.43257251472095959 -0.0051381994310928381 -3329.5337235100965 0.88794617027633649 -0.43257251472095959 0.88794617027633649 -10001.186345876531 -3330.2667509173907 -0.21170039675841967 -0.054497585435456131 -0.21170039675841967 -3329.5764535804124 0.94083281018265552 -0.054497585435456131 0.94083281018265552 -10001.16945902213 -3329.4181104490708 -0.21170039675841967 0.38379590693239152 -0.21170039675841967 -3328.7278131120925 -0.93268446818819939 0.38379590693239152 -0.93268446818819939 -9998.6235376171699 -3329.5409849789398 0.068137302836608793 -0.79760451440688485 0.068137302836608793 -3328.8941092657769 -1.2577484014655056 -0.79760451440688485 -1.2577484014655056 -9999.2346974942811 -3329.4311610219479 -0.063451895182520257 -0.19028979987342609 -0.063451895182520257 -3330.3060349535949 -0.18970843042450269 -0.19028979987342609 -0.18970843042450269 -9999.938132648731 -3331.3548843246258 0.0082122083342550667 -0.33493926669507346 0.0082122083342550667 -3329.4043965778719 -0.7659426092193371 -0.33493926669507346 -0.7659426092193371 -9999.8157441587264 -3330.3301356676416 0.0062857409999973468 -0.047050442452018615 0.0062857409999973468 -3330.6151163365062 -0.21990164445378468 -0.047050442452018615 -0.21990164445378468 -10000.104333154999 -3330.0239599694428 -0.053688244801706198 -0.21652264073782135 -0.053688244801706198 -3330.5409367768339 -0.24360809635436453 -0.21652264073782135 -0.24360809635436453 -10000.00924434053 -3329.7439348194757 -0.0051381994310928381 -0.40304316855872457 -0.0051381994310928381 -3328.9006299242656 -0.77546925659771659 -0.40304316855872457 -0.77546925659771659 -9999.2870651190387 -3329.6557913630277 0.07570328104983326 -0.26420451596004568 0.07570328104983326 -3330.7320136438098 -0.08954781734610151 -0.26420451596004568 -0.08954781734610151 -10000.100784906555 -3330.2089645719798 -0.17988603399661324 0.054148805149452528 -0.17988603399661324 -3330.4466689217243 -0.01895199121281621 0.054148805149452528 -0.01895199121281621 -9999.6651707234232 -3329.8772568478571 -0.053688244801706198 0.15393297985428944 -0.053688244801706198 -3330.3942336552482 0.10301592823998362 0.15393297985428944 0.10301592823998362 -9999.5691349757726 -3330.117572727996 0.0062857409999975689 0.2341638270081603 0.0062857409999975689 -3330.4025533968606 0.1871997054277017 0.2341638270081603 0.1871997054277017 -9999.466644336062 -3330.7986484883722 0.85130421358911956 -0.81766818319374579 0.85130421358911956 -3330.1290683899369 -1.0046063865029282 -0.81766818319374579 -1.0046063865029282 -9999.4596486257669 -3330.2996831925666 -0.20125787990480726 -0.067334244514768216 -0.20125787990480726 -3330.2748145507958 -0.083088869445418823 -0.067334244514768216 -0.083088869445418823 -9999.4564330563553 -3330.4425455154524 -0.11420196056922211 -0.09489245269469393 -0.11420196056922211 -3330.1325835886792 -0.19981298142101878 -0.09489245269469393 -0.19981298142101878 -9999.1495433969867 -3330.1494894858042 -0.2463713784322219 0.018897626810939983 -0.2463713784322219 -3330.2464209908121 -0.069911034575852682 0.018897626810939983 -0.069911034575852682 -9999.4117862396706 -3330.0926130243206 0.016804238660617754 -0.50520342200252344 0.016804238660617754 -3330.4921969777561 -0.2275057051992917 -0.50520342200252344 -0.2275057051992917 -10000.150036155366 -3330.3920595474833 -0.66222312386845006 -0.84922599174115021 -0.66222312386845006 -3330.5751687755801 -0.11911827190851909 -0.84922599174115021 -0.11911827190851909 -9999.8533777784869 -3328.9325941256238 0.21554176371426736 -1.488500752580876 0.21554176371426736 -3329.0314352682335 -0.59373863262067061 -1.488500752580876 -0.59373863262067061 -9998.7187267546542 -3330.4099930939196 -0.17988603399661279 -0.4406668238916609 -0.17988603399661279 -3330.6476974436641 -0.30524074283857772 -0.4406668238916609 -0.30524074283857772 -10000.268256289241 -3330.4258994995357 -0.2463713784322219 -0.51840640431692009 -0.2463713784322219 -3330.5228310045436 -0.25762724245578283 -0.51840640431692009 -0.25762724245578283 -10000.241016280866 -3329.958625830383 0.25397948978093354 -1.5154642446277649 0.25397948978093354 -3329.8461815420796 -0.015810399778274586 -1.5154642446277649 -0.015810399778274586 -9998.5578195555081 -3330.4191880234484 -0.20125787990480726 -0.5954125157973067 -0.20125787990480726 -3330.3943193816776 -0.080330848853918724 -0.5954125157973067 -0.080330848853918724 -9999.8149475490009 -3329.8741302769126 0.02511737606231837 -1.5098805685604475 0.02511737606231837 -3329.4037921179365 -0.59700586641974951 -1.5098805685604475 -0.59700586641974951 -9999.0472000049031 -3329.7792383138676 0.29648747152381238 -1.1672551584242683 0.29648747152381238 -3330.464093173151 -0.42920162750397139 -1.1672551584242683 -0.42920162750397139 -9998.6674505841474 -3330.9153301293672 -0.10019519300360732 -0.85858609984234135 -0.10019519300360732 -3329.9907934072462 0.23210686550464743 -0.85858609984234135 0.23210686550464743 -9999.8381015818759 -3329.8172366157296 0.025117376062318147 -0.13378735892115401 0.025117376062318147 -3329.3468984567535 0.54697406997911457 -0.13378735892115401 0.54697406997911457 -9998.8765190213562 -3330.3837279114578 0.068137302836609237 -0.25286048700263564 0.068137302836609237 -3329.7368521982949 0.66951151081684657 -0.25286048700263564 0.66951151081684657 -10001.762926291833 -3330.292086793072 0.0048238608443216258 -0.68662611837407894 0.0048238608443216258 -3330.6586074970623 0.95949668648700026 -0.68662611837407894 0.95949668648700026 -10001.970454836928 -3329.9346188689069 0.21554176371426736 -0.69502823969651217 0.21554176371426736 -3330.0334600115166 0.940327925640986 -0.69502823969651217 0.940327925640986 -10001.724800984501 -3332.534479665469 0.86798105322311869 -2.4072984447871022 0.86798105322311869 -3329.8496216962503 0.19953926191101345 -2.4072984447871022 0.19953926191101345 -9999.6815105936639 -3333.0463682768504 0.50107857522522725 -2.1727132983008262 0.50107857522522725 -3330.2992647722663 0.26095663912538164 -2.1727132983008262 0.26095663912538164 -9999.8802296698377 -3327.380590067391 -1.7354448951866304 1.1457385684461769 -1.7354448951866304 -3326.3950173722592 -1.7715100702662312 1.1457385684461769 -1.7715100702662312 -9997.4877232674698 -3329.3664964209634 -0.51958534121035438 0.21894461902866169 -0.51958534121035438 -3327.5847004907828 -0.48256242650768399 0.21894461902866169 -0.48256242650768399 -9997.0347443678947 -3332.4525399354843 1.382368144474083 -0.66681617474367982 1.382368144474083 -3332.1025398287361 1.1797819010084805 -0.66681617474367982 1.1797819010084805 -10000.224255194289 -3332.4310426550901 1.0494671217179139 -0.4231158203462404 1.0494671217179139 -3330.7338347558853 0.27968693406995948 -0.4231158203462404 0.27968693406995948 -9998.5881644927031 -3331.135703573002 0.20381861323312558 -0.51938528345977708 0.20381861323312558 -3329.8244392954548 0.5136159312144728 -0.51938528345977708 0.5136159312144728 -9999.2838571246721 -3328.8074352287335 0.66368621504453762 2.0620893505815729 0.66368621504453762 -3328.1717590862095 0.56430988938109294 2.0620893505815729 0.56430988938109294 -9999.6048008845228 -3328.6132523698084 1.1486257863920257 2.6460135689022879 1.1486257863920257 -3329.4647948351949 0.24379258276505311 2.6460135689022879 0.24379258276505311 -9997.3164569412093 -3329.4276045039455 -0.010568207506833072 -0.66907847127868081 -0.010568207506833072 -3330.9087232834299 0.503129621503831 -0.66907847127868081 0.503129621503831 -9998.9248105485312 -3329.1510980511666 -0.12131632399917552 -0.75734137504332466 -0.12131632399917552 -3329.5653987539172 -0.024676864877619664 -0.75734137504332466 -0.024676864877619664 -9998.2857419136635 -3330.4120703651806 -0.027778442090937883 0.098050408707422321 -0.027778442090937883 -3330.1251243613233 -0.20206950370175036 0.098050408707422321 -0.20206950370175036 -9999.1400598025793 -3326.7867633856717 -1.1872804589246035 -1.286527260514049 -1.1872804589246035 -3328.5117319065657 -0.49624501637822505 -1.286527260514049 -0.49624501637822505 -9999.1415086525994 -3330.4750947130728 -0.20749382324764576 0.093503351425169967 -0.20749382324764576 -3329.5542675602869 -0.97543137643151567 0.093503351425169967 -0.97543137643151567 -10001.338875921771 -3330.6602928868715 -0.4127270344381726 0.10093692877126159 -0.4127270344381726 -3330.1657576340995 -1.2010117669697138 0.10093692877126159 -1.2010117669697138 -10001.538047983673 -3328.8977050693939 -1.4864019872266192 -1.4799935168358367 -1.4864019872266192 -3328.8938319063168 -0.51752328195846653 -1.4799935168358367 -0.51752328195846653 -9998.3080325830488 -3331.7584962155761 -1.7058672557557948 -0.97747729871329425 -1.7058672557557948 -3332.940286046623 -2.1551779584643671 -0.97747729871329425 -2.1551779584643671 -10000.121900173142 -3330.2140326214007 -0.79848635908884524 -1.4039122324906679 -0.79848635908884524 -3332.6723427756224 -2.8262967075128427 -1.4039122324906679 -2.8262967075128427 -9999.5817421883785 -3328.2537223467421 0.39477567299434879 -0.29054630322298181 0.39477567299434879 -3329.402719963552 -1.4360240837145284 -0.29054630322298181 -1.4360240837145284 -9998.2742589166955 -3329.3344337033336 -0.40631047572353335 -0.1773724244913244 -0.40631047572353335 -3330.437318574146 -1.5443962285410036 -0.1773724244913244 -1.5443962285410036 -9997.5637961983666 -3330.212051796108 -0.057116597277072967 -0.017628824436801471 -0.057116597277072967 -3332.9193315160769 -1.9858808851883856 -0.017628824436801471 -1.9858808851883856 -9998.403703957043 -3330.282870306723 -0.40491652628097047 0.47056578651472591 -0.40491652628097047 -3333.2665420682715 -1.7112361730490591 0.47056578651472591 -1.7112361730490591 -9999.8345577013406 -3329.4252547734195 1.0291128769067595 1.6112267532977862 1.0291128769067595 -3330.7933113145264 1.3354325982719508 1.6112267532977862 1.3354325982719508 -10000.414643827773 -3327.4729867626038 1.5119203910512597 0.68988893037248999 1.5119203910512597 -3327.5146659425263 -0.71426830944619724 0.68988893037248999 -0.71426830944619724 -9996.3677713052784 -3328.872377539371 -0.12131632399917586 1.1948777216093731 -0.12131632399917586 -3329.2866782421215 0.21408790269560996 1.1948777216093731 0.21408790269560996 -9997.4495803782756 -3328.8086671537676 -0.15810670469710281 1.0403460137094953 -0.15810670469710281 -3329.1797179756882 0.47838773577859683 1.0403460137094953 0.47838773577859683 -9997.406912715267 -3329.4959664242083 -0.33710760958298969 0.1305599442739549 -0.33710760958298969 -3329.2252943592034 -0.77155932547179873 0.1305599442739549 -0.77155932547179873 -9998.6275198034455 -3329.2114425017394 -0.39331366932956263 0.59522353864053912 -0.39331366932956263 -3329.6945412010118 -0.32162517300821492 0.59522353864053912 -0.32162517300821492 -9997.6363123585925 -3330.4656268227577 0.021274272715272491 -0.22100940017116955 0.021274272715272491 -3330.4837447432133 -0.025650826204127952 -0.22100940017116955 -0.025650826204127952 -10000.12242998874 -3329.3745310083618 -0.33710760958299002 -0.99064631995861419 -0.33710760958299002 -3329.103858943357 0.48521815547155711 -0.99064631995861419 0.48521815547155711 -9998.2632135559052 -3330.9507938260467 0.42078744146498775 -0.0023207892854770762 0.42078744146498775 -3330.8716134551278 -0.63004227760922049 -0.0023207892854770762 -0.63004227760922049 -10000.340688917542 -3330.1893068916675 0.15192964677757381 -0.39011181867726918 0.15192964677757381 -3330.1449272174027 -0.025064817093152669 -0.39011181867726918 -0.025064817093152669 -9998.9017672968039 -3329.5049623557666 -0.39331366932956247 -0.84421480705668728 -0.39331366932956247 -3329.988061055039 0.080524219857579737 -0.84421480705668728 0.080524219857579737 -9998.5168719206777 -3330.3370494246133 -0.027778442090938105 -0.23447017118814983 -0.027778442090938105 -3330.0501034207559 0.067174733300817024 -0.23447017118814983 0.067174733300817024 -9998.9149969808768 -3330.264281058518 -0.84166759580222861 -0.4609583276351259 -0.84166759580222861 -3330.650248460317 0.769346169065102 -0.4609583276351259 0.769346169065102 -9998.8722484476839 -3329.1810320212808 -0.15810670469710278 -0.76697322995096329 -0.15810670469710278 -3329.5520828432013 0.67056172154752858 -0.76697322995096329 0.67056172154752858 -9998.5240073178065 -3330.4134170057819 0.01596678344927438 -0.28792335835896665 0.01596678344927438 -3330.1135016664907 0.1585971904737562 -0.28792335835896665 0.1585971904737562 -9998.9499384376031 -3330.5125632160689 0.01596678344927438 0.011479187052827911 0.01596678344927438 -3330.2126478767777 -0.20579855765890898 0.011479187052827911 -0.20579855765890898 -9999.2473770684664 -3330.143090799158 0.021274272715272213 -0.20906257769820513 0.021274272715272213 -3330.1612087196136 -0.37486649300444697 -0.20906257769820513 -0.37486649300444697 -9999.1548219179385 -3330.293522199152 0.15192964677757384 -0.18945109320702613 0.15192964677757384 -3330.2491425248872 -0.42906690850031737 -0.18945109320702613 -0.42906690850031737 -9999.2144132192589 -3330.0267556410963 0.13441138577664413 -0.25480638911722053 0.13441138577664413 -3330.1048110465408 -0.28700602945355058 -0.25480638911722053 -0.28700602945355058 -9999.4149903481521 -3330.0944853929777 -0.016454090081013062 -0.25738950403319905 -0.016454090081013062 -3330.348492504113 -0.20861845857507433 -0.25738950403319905 -0.20861845857507433 -9999.4928431505141 -3329.8484816082914 -0.41272703443817216 -0.33185229227547097 -0.41272703443817216 -3329.3539463555194 0.74198594518747996 -0.33185229227547097 0.74198594518747996 -9999.1026141479306 -3330.2595958651864 0.13441138577664402 0.027022355039662216 0.13441138577664402 -3330.3376512706309 0.13874891324485361 0.027022355039662216 0.13874891324485361 -10000.113511020418 -3330.7596517775464 -0.8100922396168353 -0.31632583296141092 -0.8100922396168353 -3329.7831883108647 0.76137401047981257 -0.31632583296141092 0.76137401047981257 -9999.4377171790802 -3329.3268202373565 0.56538543295685773 -0.20084572329051298 0.56538543295685773 -3329.6180985127694 -0.0004722149105873541 -0.20084572329051298 -0.0004722149105873541 -9999.6213167847782 -3330.3273256170664 -0.016454090081012396 0.024439240127321682 -0.016454090081012396 -3330.5813327282017 0.21713648412332986 0.024439240127321682 0.21713648412332986 -10000.19136382278 -3329.6632834344937 -0.2074938232476462 -0.33928586962247209 -0.2074938232476462 -3328.7424562817077 0.96756633572658757 -0.33928586962247209 0.96756633572658757 -9998.903442086028 -3331.4820829609544 0.011973956757366011 0.28266707081820641 0.011973956757366011 -3329.3181895378361 0.78215884451424245 0.28266707081820641 0.78215884451424245 -9999.8866447968248 -3329.801535141657 -0.086109202753738678 -0.25187063896555628 -0.086109202753738678 -3330.3333920134128 -0.13014247979299398 -0.25187063896555628 -0.13014247979299398 -9999.5816276778496 -3330.2674345381874 -0.0036016627815356195 -0.0023593541554873809 -0.0036016627815356195 -3330.1510746950735 -0.0011476203640086169 -0.0023593541554873809 -0.0011476203640086169 -9999.570864212179 -3330.1572830466976 0.023243527612229364 -0.04523470146159525 0.023243527612229364 -3330.1304748808725 -0.057945936427131528 -0.04523470146159525 -0.057945936427131528 -9999.504300578541 -3330.1953779040359 -0.023276026240061753 -0.050724305339826969 -0.023276026240061753 -3330.1208574915127 -0.02195804335133289 -0.050724305339826969 -0.02195804335133289 -9999.478694387235 -3330.2403819918272 -0.046594678172912074 -0.036640205476942356 -0.046594678172912074 -3330.1676592897657 -0.0043710686168196844 -0.036640205476942356 -0.0043710686168196844 -9999.5016458587452 -3330.1940020961611 -0.013176665566585255 -0.051495313537088805 -0.013176665566585255 -3330.1140469315305 0.0014390805008588359 -0.051495313537088805 0.0014390805008588359 -9999.4766477952726 -3330.2687610569801 -0.013176665566584367 -0.10018760981620289 -0.013176665566584367 -3330.1888058923496 -0.073514881974915625 -0.10018760981620289 -0.073514881974915625 -9999.700924677727 -3330.2701368648559 -0.023276026240061753 -0.099416601622579037 -0.023276026240061753 -3330.1956164523326 -0.09691200582892634 -0.099416601622579037 -0.09691200582892634 -9999.7029712696894 -3330.0142151031532 0.12208616482660489 -0.22212715690420737 0.12208616482660489 -3330.2222851030119 -0.24619910270848777 -0.22212715690420737 -0.24619910270848777 -9999.4412237277829 -3330.3210365883479 -0.056228609258658468 -0.12194362429909233 -0.056228609258658468 -3330.1799575278546 -0.15413001379783964 -0.12194362429909233 -0.15413001379783964 -9999.6314145265605 -3330.295115500744 -0.023190703880444696 -0.037622863279466401 -0.023190703880444696 -3330.3484426403611 -0.28651598762530739 -0.037622863279466401 -0.28651598762530739 -9999.6670555327873 -3330.2531579784982 -0.035209073717703265 -0.096858513037659577 -0.035209073717703265 -3330.207490980526 -0.1228059517497968 -0.096858513037659577 -0.1228059517497968 -9999.6213282372664 -3330.1617172878114 -0.024281622900644478 -0.087170490981407056 -0.024281622900644478 -3330.1637896926668 -0.11622491455091222 -0.087170490981407056 -0.11622491455091222 -9999.2919380735402 -3330.2293433103459 0.18629440440091805 -0.083285149325092789 0.18629440440091805 -3329.9726746803381 -0.23825622080403264 -0.083285149325092789 -0.23825622080403264 -9999.1292515359164 -3330.1718532453915 -0.030555081580029619 -0.051248330282760435 -0.030555081580029619 -3330.1546130087072 -0.051662476393175893 -0.051248330282760435 -0.051662476393175893 -9999.2921778919444 -3330.1582776194055 -0.038144991966736597 -0.031029022082293523 -0.038144991966736597 -3330.1774748140351 -0.086244115693261847 -0.031029022082293523 -0.086244115693261847 -9999.2944994367754 -3330.2442766360418 -0.053342362121426304 -0.042482314558583312 -0.053342362121426304 -3330.211681920111 0.011900723788130563 -0.042482314558583312 0.011900723788130563 -9999.4098385852812 -3330.2050660931691 -0.030555081580029619 -0.057841790367092472 -0.030555081580029619 -3330.1878258564848 0.0079202530741895316 -0.057841790367092472 0.0079202530741895316 -9999.3918164352763 -3330.1958323349409 -0.02428162290064434 -0.079112388904832187 -0.02428162290064434 -3330.1979047397963 -0.053934038480292656 -0.079112388904832187 -0.053934038480292656 -9999.3942832149296 -3330.2537162885183 0.018458945063671017 -0.015094752534423606 0.018458945063671017 -3330.2573513371917 -0.092770000314260415 -0.015094752534423606 -0.092770000314260415 -9999.5601280030751 -3330.1690311579914 -0.035209073717703598 -0.083188863956820569 -0.035209073717703598 -3330.1233641600193 -0.04266785199251899 -0.083188863956820569 -0.04266785199251899 -9999.3689477757471 -3330.1850980440176 -0.00058121912672365328 -0.045927618562927819 -0.00058121912672365328 -3330.1772270759611 -0.031030879599711625 -0.045927618562927819 -0.031030879599711625 -9999.4200372185915 -3330.2268997558349 -0.00058121912672373655 -0.035329627719875134 -0.00058121912672373655 -3330.2190287877784 -0.029981260897329776 -0.035329627719875134 -0.029981260897329776 -9999.5454423540432 -3330.21547239957 -0.0077977042000513253 -0.034186723783932393 -0.0077977042000513253 -3330.1994371045093 -0.03313991359755164 -0.034186723783932393 -0.03313991359755164 -9999.5376875941583 -3330.2148327509713 -0.0077977042000509922 -0.033153722532006213 -0.0077977042000509922 -3330.1987974559106 -0.042860281447246962 -0.033153722532006213 -0.042860281447246962 -9999.5357686483694 -3330.2477209116641 -0.01014585734858231 -0.023312503250053851 -0.01014585734858231 -3330.2250619897677 -0.010636833073476737 -0.023312503250053851 -0.010636833073476737 -9999.5645779904589 -3330.2009503810605 -0.01014585734858231 -0.03487399049117812 -0.01014585734858231 -3330.178291459164 -0.011164335796820524 -0.03487399049117812 -0.011164335796820524 -9999.4242663986552 -3330.195704314905 -0.013090503485119143 -0.025547563296640874 -0.013090503485119143 -3330.184993215591 -0.027115580913232407 -0.025547563296640874 -0.027115580913232407 -9999.424630321224 -3330.2758895190418 -0.014605202903292203 0.015389929107186617 -0.014605202903292203 -3330.272864685674 0.020529410954623017 0.015389929107186617 0.020529410954623017 -9999.6717269846631 -3330.2412203737349 -0.0091967692360190138 -0.028174799432235886 -0.0091967692360190138 -3330.2215460981679 -0.017121979886724148 -0.028174799432235886 -0.017121979886724148 -9999.5496518361106 -3330.2809375552861 -0.011787450884683914 0.027500053263793234 -0.011787450884683914 -3330.2635361409957 -0.00018286768317921087 0.027500053263793234 -0.00018286768317921087 -9999.6706568575537 -3330.2497996132533 -0.0094296840067151777 -0.0054447531438199803 -0.0094296840067151777 -3330.2304250660291 -0.02096418203018402 -0.0054447531438199803 -0.02096418203018402 -9999.6203930773481 -3330.2708240267784 -0.0057136687246821805 0.0016220109582718578 -0.0057136687246821805 -3330.2610898649218 -0.046693140833667712 0.0016220109582718578 -0.046693140833667712 -9999.667516906411 -3330.2598532778065 -0.0030449713402782019 -0.0026035331065941136 -0.0030449713402782019 -3330.247491306789 -0.028816484424964983 -0.0026035331065941136 -0.028816484424964983 -9999.6271730536755 -3330.2516660191814 -0.005743975994992212 0.013826062669977546 -0.005743975994992212 -3330.2283213978826 -0.03568718472160981 0.013826062669977546 -0.03568718472160981 -9999.6755554396514 -3330.2554305781814 -0.0013473269231896179 0.012502069021138595 -0.0013473269231896179 -3330.2384850308481 0.004490913914196426 0.012502069021138595 0.004490913914196426 -9999.6790374876437 -3330.2332236155198 2.9785731522791181e-05 -0.016811792775115464 2.9785731522791181e-05 -3330.2071496836252 -0.035158332932041958 -0.016811792775115464 -0.035158332932041958 -9999.6104302323147 -3330.2308918946128 -0.0086607498207861289 -0.022838469647467718 -0.0086607498207861289 -3330.2169769121465 -0.017900061913678655 -0.022838469647467718 -0.017900061913678655 -9999.5817572375454 -3330.20964713385 -0.003223107486640675 -0.029026886721112533 -0.003223107486640675 -3330.1982079917907 -0.010203636440564878 -0.029026886721112533 -0.010203636440564878 -9999.5529902752314 -3330.2132558064677 0.0013208430574436214 -0.036075273495953297 0.0013208430574436214 -3330.1927873994337 -0.034429008544975659 -0.036075273495953297 -0.034429008544975659 -9999.5713008373277 -3330.2057503896576 0.0013208430574433994 -0.028116993828007253 0.0013208430574433994 -3330.1852819826236 -0.037815374947967939 -0.028116993828007253 -0.037815374947967939 -9999.548784586892 -3330.2171525506619 -0.0032231074866411191 -0.036985166392696556 -0.0032231074866411191 -3330.2057134086026 -0.0068172700266586617 -0.036985166392696556 -0.0068172700266586617 -9999.5755065256672 -3330.2266603818789 -0.0033003045490127558 -0.02198621457137051 -0.0033003045490127558 -3330.2161768061742 -0.0042538545853858523 -0.02198621457137051 -0.0042538545853858523 -9999.6076117390185 -3330.397859123982 -0.051068926228013678 0.050341193948042928 -0.051068926228013678 -3329.8739994154821 -0.27226531762062223 0.050341193948042928 -0.27226531762062223 -9999.1340389301222 -3330.1814877621491 -0.038144991966736375 -0.041602250867072144 -0.038144991966736375 -3330.2006849567788 -0.038273907597613288 -0.041602250867072144 -0.038273907597613288 -9999.3641298650109 -3330.1962817089316 -0.035238392746422431 -0.043672208201314788 -0.035238392746422431 -3330.2443173865104 -0.016314373282511951 -0.043672208201314788 -0.016314373282511951 -9999.4037432217228 -3330.233923473701 -0.01309050348511881 -0.014222754934962722 -0.01309050348511881 -3330.223212374387 -0.026509346966122393 -0.014222754934962722 -0.026509346966122393 -9999.5392877976046 -3330.24196396769 -0.013382946554625186 -0.019158022692863597 -0.013382946554625186 -3330.2313762768645 -0.017742355506925378 -0.019158022692863597 -0.017742355506925378 -9999.5647173262405 -3330.2481377462082 -0.014346905206904403 -0.024297103242133744 -0.014346905206904403 -3330.2532647174539 0.0097734405899245758 -0.024297103242133744 0.0097734405899245758 -9999.6214353566465 -3330.2597125295306 -0.010257830258548373 -0.01941638099924603 -0.010257830258548373 -3330.2541886177478 0.0039790835744497599 -0.01941638099924603 0.0039790835744497599 -9999.6245600275506 -3330.2196274273829 -0.01578307427998471 -0.032528044057471561 -0.01578307427998471 -3330.2206177299759 -0.027628143503534375 -0.032528044057471561 -0.027628143503534375 -9999.5350651249173 -3330.2106895140369 -0.01122517952969071 -0.0042288869117328431 -0.01122517952969071 -3330.2279148748676 -0.029267546089613461 -0.0042288869117328431 -0.029267546089613461 -9999.5702535085074 -3330.2445653910054 -0.010646624809377503 0.00259117700625211 -0.010646624809377503 -3330.2596311336292 0.012534562920336612 0.00259117700625211 0.012534562920336612 -9999.6548650067416 -3330.2381074306559 -0.011913357645953804 -0.018270499767822912 -0.011913357645953804 -3330.2575750102169 0.025311805206001736 -0.018270499767822912 0.025311805206001736 -9999.6527364857975 -3330.2094960242048 -0.011300991829314766 -0.029205073860794073 -0.011300991829314766 -3330.2399415906439 0.0090234113304177299 -0.029205073860794073 0.0090234113304177299 -9999.60844414444 -3330.2302550955465 0.00021733184802963379 -0.0084978779959783424 0.00021733184802963379 -3330.2547067582345 -0.012764219991368009 -0.0084978779959783424 -0.012764219991368009 -9999.6500563390291 -3330.1987333712405 -0.014442632833207014 -0.034381919933366589 -0.014442632833207014 -3330.2224800010008 -0.010799586254506721 -0.034381919933366589 -0.010799586254506721 -9999.565905754338 -3330.2297439261511 -0.017429396721925505 -0.04399408884364675 -0.017429396721925505 -3330.233394767838 -0.012268504560779547 -0.04399408884364675 -0.012268504560779547 -9999.5763870847732 -3330.2324388194029 -0.011066139887568827 -0.033661932000541128 -0.011066139887568827 -3330.2227808077205 -0.026282000195351429 -0.033661932000541128 -0.026282000195351429 -9999.5388087423635 -3330.2486718407636 0.00050073900524733039 -0.078564082006778335 0.00050073900524733039 -3330.2270752167788 0.0039947930545167765 -0.078564082006778335 0.0039947930545167765 -9999.5176783234238 -3330.2114942981589 -0.0077788230287857418 -0.10550357492138573 -0.0077788230287857418 -3330.2116305730979 -0.037526563224673737 -0.10550357492138573 -0.037526563224673737 -9999.3743679030922 -3330.1695882642543 -0.02370584046520352 -0.082098583447077544 -0.02370584046520352 -3330.2015819057542 -0.065312794384226436 -0.082098583447077544 -0.065312794384226436 -9999.3613792277793 -3330.22343201074 -0.026058348849352875 -0.1309713219106925 -0.026058348849352875 -3330.2127776253437 -0.029934481095551746 -0.1309713219106925 -0.029934481095551746 -9999.488647511298 -3330.204999585254 -0.017429396721925727 -0.066172327177810075 -0.017429396721925727 -3330.2086504269409 -0.010716605771449395 -0.066172327177810075 -0.010716605771449395 -9999.5021540620837 -3330.1631876693027 0.0029355696493891248 -0.052089742097450653 0.0029355696493891248 -3330.200101824712 -0.013728786947467597 -0.052089742097450653 -0.013728786947467597 -9999.5206082458026 -3330.1864067556471 -0.01444263283320657 -0.050963450605195248 -0.01444263283320657 -3330.2101533854075 -0.011159243926158524 -0.050963450605195248 -0.011159243926158524 -9999.5289259075653 -3330.1178887331371 -0.0074986278915845084 -0.09449076663076994 -0.0074986278915845084 -3330.1721819343929 -0.024359573280435143 -0.09449076663076994 -0.024359573280435143 -9999.4521127691587 -3330.1382345155889 -0.016731795734858612 -0.083471886976440146 -0.016731795734858612 -3330.1875057187008 -0.013360300486965571 -0.083471886976440146 -0.013360300486965571 -9999.4801766176097 -3330.1964683098831 -0.010565394494096436 -0.037357366231844935 -0.010565394494096436 -3330.2169103581873 -0.019492621853714809 -0.037357366231844935 -0.019492621853714809 -9999.5331305393192 -3330.1826633561177 -0.0074986278915845084 -0.036903552383591887 -0.0074986278915845084 -3330.2369565573736 0.0072701745557424147 -0.036903552383591887 0.0072701745557424147 -9999.6464366380969 -3330.2352341512942 -0.0092425626239878156 -0.020131528120145958 -0.0092425626239878156 -3330.2311902021302 -0.0030022604078112636 -0.020131528120145958 -0.0030022604078112636 -9999.6581377480798 -3329.755403003458 0.077319279475455638 -0.18710027212637215 0.077319279475455638 -3330.0392611045636 -0.037215282334727817 -0.18710027212637215 -0.037215282334727817 -9999.3833807508636 -3330.1637521374932 0.0089131169238114705 -0.039224117437697714 0.0089131169238114705 -3330.2474588702071 0.0019759928982239217 -0.039224117437697714 0.0019759928982239217 -9999.6443344116487 -3330.1828802234959 -0.2470946997277641 0.0027456272000563331 -0.2470946997277641 -3329.8660871322518 -0.31572818099448341 0.0027456272000563331 -0.31572818099448341 -9999.0180029598887 -3330.2454798593717 -0.026058348849353097 -0.1309832435908902 -0.026058348849353097 -3330.2348254739754 -0.028639555934205418 -0.1309832435908902 -0.028639555934205418 -9999.554791057195 -3330.3658774301002 0.044001822285809178 -0.19232481453673245 0.044001822285809178 -3330.4088019421997 0.044184699173456465 -0.19232481453673245 0.044184699173456465 -9999.6283845669313 -3329.8639225046009 -0.35875536073833825 0.20485480546631152 -0.35875536073833825 -3330.0502761815796 -0.18380504002743692 0.20485480546631152 -0.18380504002743692 -9999.2913582920628 -3330.1977300920316 0.01418604886865138 -0.038909962728212122 0.01418604886865138 -3330.2088466857913 -0.058401391015650006 -0.038909962728212122 -0.058401391015650006 -9999.4812392967324 -3330.1991364061032 0.0089877388101007316 0.0072451927062502364 0.0089877388101007316 -3330.1975332390375 0.037916630884865299 0.0072451927062502364 0.037916630884865299 -9999.6416420726673 -3330.1797588540085 0.047170659455681996 0.016430403564299922 0.047170659455681996 -3330.240284512889 0.0086558856544343143 0.016430403564299922 0.0086558856544343143 -9999.6465425014503 -3330.1662419383165 0.030202590890467507 0.0036143391953373794 0.030202590890467507 -3330.1345909427491 0.026022723170171957 0.0036143391953373794 0.026022723170171957 -9999.6167398799917 -3329.8105929920903 -0.062732721088879062 0.22869429559796117 -0.062732721088879062 -3330.3765754488013 0.11347384141777184 0.22869429559796117 0.11347384141777184 -9999.5480544602215 -3330.2348290502941 -0.0054987369966984501 0.075840605810299166 -0.0054987369966984501 -3330.2142451775671 0.047512032833765261 0.075840605810299166 0.047512032833765261 -9999.654743218347 -3330.1343665114273 0.0048535092392170132 -0.03677982386216172 0.0048535092392170132 -3330.1902487861298 -0.011891225326507993 -0.03677982386216172 -0.011891225326507993 -9999.5109396966945 -3330.1610177429775 0.0089877388101005096 -0.050011538311082404 0.0089877388101005096 -3330.1594145759118 -0.019175870562321506 -0.050011538311082404 -0.019175870562321506 -9999.527286083292 -3330.1974926888324 -0.0092425626239882597 -0.074289809296715248 -0.0092425626239882597 -3330.1934487396684 -0.04885162034406676 -0.074289809296715248 -0.04885162034406676 -9999.5449133606926 -3330.1671367047038 0.0034069860910751482 -0.026472983663552441 0.0034069860910751482 -3330.1991716539524 -0.014516616476612398 -0.026472983663552441 -0.014516616476612398 -9999.5252612944059 -3330.1454985590608 0.010390254536179255 -0.034104471011232818 0.010390254536179255 -3330.1986959313799 -0.015516551862674532 -0.034104471011232818 -0.015516551862674532 -9999.5158344949123 -3330.245196824515 0.0040538665697809062 -0.014247632858314319 0.0040538665697809062 -3330.1878530355589 -0.014173071796449221 -0.014247632858314319 -0.014173071796449221 -9999.5554404685863 -3330.198141377592 0.00053593823135833496 0.0072147067476180382 0.00053593823135833496 -3330.210041729888 -0.0098042470126529224 0.0072147067476180382 -0.0098042470126529224 -9999.535729981606 -3330.1738800949952 -0.005498736996698339 0.030208221758584841 -0.005498736996698339 -3330.1532962222682 -0.01784919468627777 0.030208221758584841 -0.01784919468627777 -9999.4718963524538 -3330.2109762989985 0.000535938231358557 0.018693410042033065 0.000535938231358557 -3330.2228766512944 -0.0066176529944641516 0.018693410042033065 -0.0066176529944641516 -9999.5742347458145 -3330.1894301502925 0.0034069860910751482 -0.014711991814692738 0.0034069860910751482 -3330.2214650995411 -0.011633446290943539 -0.014711991814692738 -0.011633446290943539 -9999.5921416311685 -3330.2203210884491 -0.01056539449409688 -0.020165823262686899 -0.01056539449409688 -3330.2407631367532 -0.01829975863074651 -0.020165823262686899 -0.01829975863074651 -9999.6046888750061 -3330.2332671360164 -0.0025481814520519341 -0.024931831692811102 -0.0025481814520519341 -3330.2570901672843 0.025581030658941017 -0.024931831692811102 0.025581030658941017 -9999.6742386458354 -3330.2108345549732 0.0067383777478204898 -0.013839388739143033 0.0067383777478204898 -3330.2463859007457 -0.013405330871592014 -0.013839388739143033 -0.013405330871592014 -9999.643120989509 -3330.2192780105233 0.00015638012546803637 0.0053736996924271807 0.00015638012546803637 -3330.2321123380752 -0.0088237790719176701 0.0053736996924271807 -0.0088237790719176701 -9999.6022654058543 -3330.2050905217857 0.0032066393531955395 -0.030962592860305449 0.0032066393531955395 -3330.23574101534 0.0097980407117574941 -0.030962592860305449 0.0097980407117574941 -9999.639023759868 -3330.2302627240351 -0.0043438424951648402 -0.014867477966618026 -0.0043438424951648402 -3330.2568155189183 0.026988872883521253 -0.014867477966618026 0.026988872883521253 -9999.6734188807459 -3330.2173522081794 0.0046528561420673825 -0.0016395530692534521 0.0046528561420673825 -3330.2312357420597 0.00075378183828433976 -0.0016395530692534521 0.00075378183828433976 -9999.6079733665465 -3330.2130795685152 0.0019520645797287406 0.0093186010963108856 0.0019520645797287406 -3330.2193130981341 -0.0059602197106869426 0.0093186010963108856 -0.0059602197106869426 -9999.5738696749031 -3330.2074720491728 0.0045824109178713712 0.019308066410303582 0.0045824109178713712 -3330.2143275736562 0.0030756601117900573 0.019308066410303582 0.0030756601117900573 -9999.5712214139494 -3330.2067407592058 0.0032671646895764406 0.014823814834016957 0.0032671646895764406 -3330.209914312225 0.00063537792584611452 0.014823814834016957 0.00063537792584611452 -9999.5560408907186 -3330.2078672610496 0.0094026318078889171 0.016340128555839328 0.0094026318078889171 -3330.2091949335281 -0.017623239826207282 0.016340128555839328 -0.017623239826207282 -9999.5561426714994 -3330.2237091090738 0.0040540148165449626 0.034990224921784829 0.0040540148165449626 -3330.2114601173398 0.0033268741644860711 0.034990224921784829 0.0033268741644860711 -9999.560669429462 -3330.2167140303663 0.010219699137787891 -0.00079915189417079091 0.010219699137787891 -3330.2255086626283 -0.0093658679552390822 -0.00079915189417079091 -0.0093658679552390822 -9999.6063820522395 -3330.2370776850894 0.0093692389773626233 -0.0029102930998305965 0.0093692389773626233 -3330.2448773090637 0.022101631668192567 -0.0029102930998305965 0.022101631668192567 -9999.6691353877395 -3330.2306072762494 0.0076666794346622602 0.00049627293265075423 0.0076666794346622602 -3330.2263682375306 -0.0097968843565467978 0.00049627293265075423 -0.0097968843565467978 -9999.6100702574331 -3330.2083172367384 0.017165297194078208 0.0030536743979610037 0.017165297194078208 -3330.2098456719905 -0.0082925949482159922 0.0030536743979610037 -0.0082925949482159922 -9999.6003671061699 -3330.2138076533138 0.01251478298887404 0.0035365337112125417 0.01251478298887404 -3330.2236396572407 -0.0020862531928287353 0.0035365337112125417 -0.0020862531928287353 -9999.6051882066313 -3330.1995742152467 0.0080279616570957391 -0.0053276739599823486 0.0080279616570957391 -3330.2199258098772 0.006777954436984146 -0.0053276739599823486 0.006777954436984146 -9999.6007013852723 -3330.2120386679217 0.0074146715183365242 -0.014594606924219988 0.0074146715183365242 -3330.2401347132 -0.0094112522438081214 -0.014594606924219988 -0.0094112522438081214 -9999.6378146046554 -3330.2175263252429 0.0043321765951731539 -0.016021486186218681 0.0043321765951731539 -3330.2430957950055 -0.0118032571990625 -0.016021486186218681 -0.0118032571990625 -9999.6399267894376 -3330.2440951773187 0.0022548968337672282 0.011888986904523335 0.0022548968337672282 -3330.2646931770269 -0.0092683715020029922 0.011888986904523335 -0.0092683715020029922 -9999.6788464085912 -3330.2086145979247 0.0088961503347604332 0.0047686894140497316 0.0088961503347604332 -3330.2229873963024 0.0065502991783432662 0.0047686894140497316 0.0065502991783432662 -9999.6037268775472 -3330.2361886931358 0.0067634994983618579 0.0013076844115857966 0.0067634994983618579 -3330.255661167299 -0.027006752457964467 0.0013076844115857966 -0.027006752457964467 -9999.6746117851144 -3330.2306686791981 0.0063932130421457956 -0.028224216868693475 0.0063932130421457956 -3330.2538013891481 -0.026340859963966068 -0.028224216868693475 -0.026340859963966068 -9999.672766837095 -3330.2314755202842 0.00088806056059897998 -0.0092596512768068351 0.00088806056059897998 -3330.2484625878424 -0.0087709281342540635 -0.0092596512768068351 -0.0087709281342540635 -9999.6447557863939 -3330.2413592896792 0.0058552360604964271 -0.0016209831592277624 0.0058552360604964271 -3330.2565158597154 -0.019086018622601841 -0.0016209831592277624 -0.019086018622601841 -9999.6492400467178 -3330.2360641497926 0.010135472701877535 -0.0057605550514381321 0.010135472701877535 -3330.2477711550218 -0.022064188284275588 -0.0057605550514381321 -0.022064188284275588 -9999.6457300855764 -3330.1952833336491 0.0060125636525287796 -0.034457331279554637 0.0060125636525287796 -3330.2336869126757 -0.017516418924060417 -0.034457331279554637 -0.017516418924060417 -9999.6033273023131 -3330.2231729169125 0.01154132358018169 -0.0057026710856007412 0.01154132358018169 -3330.2215831799167 -0.0093459659983636811 -0.0057026710856007412 -0.0093459659983636811 -9999.6210403099176 -3330.22868503467 0.0085104626068176481 -0.0056715889008955855 0.0085104626068176481 -3330.2364700678754 -0.0089464568773109931 -0.0056715889008955855 -0.0089464568773109931 -9999.6261400613439 -3330.2252812573897 0.0068605104967237596 0.0033660758672340307 0.0068605104967237596 -3330.2175909048474 -0.012462084527214756 0.0033660758672340307 -0.012462084527214756 -9999.6205693262673 -3330.2062945802681 0.016346082089675029 -0.0001392866724927444 0.016346082089675029 -3330.2118516515438 -0.0066942073008249281 -0.0001392866724927444 -0.0066942073008249281 -9999.6108042110427 -3330.2399795178717 0.0057922510092335844 -0.0067658928310265765 0.0057922510092335844 -3330.2368113839257 0.0064984892087522894 -0.0067658928310265765 0.0064984892087522894 -9999.6607868970168 -3330.2224403993023 0.0085651979195275896 -0.020032535114296479 0.0085651979195275896 -3330.2150118671088 -0.022887187700689537 -0.020032535114296479 -0.022887187700689537 -9999.6192143523149 -3330.2309022587178 0.0048819768623046753 -0.024560661173381959 0.0048819768623046753 -3330.2413236877692 -0.033006312616635114 -0.024560661173381959 -0.033006312616635114 -9999.6279077723302 -3330.246702442575 0.00051788599350119369 -0.033524729053169722 0.00051788599350119369 -3330.253619582676 -0.045536585901572835 -0.033524729053169722 -0.045536585901572835 -9999.6596189397969 -3330.2751429170694 -0.0097055237482834289 -0.032422814156234381 -0.0097055237482834289 -3330.2727687245151 0.021088594741740962 -0.032422814156234381 0.021088594741740962 -9999.6715163438785 -3330.2390889494345 0.0024508047953846757 -0.03117123554693535 0.0024508047953846757 -3330.2474346635518 -0.017745802186254878 -0.03117123554693535 -0.017745802186254878 -9999.6177156439735 -3330.2527702591215 0.0039994892830113038 -0.052009386381541844 0.0039994892830113038 -3330.2625455420821 -0.015110580849295729 -0.052009386381541844 -0.015110580849295729 -9999.663367383786 -3330.2359035413847 0.007694609476221248 -0.030753860039112624 0.007694609476221248 -3330.2460976237944 -0.022812220487139712 -0.030753860039112624 -0.022812220487139712 -9999.6303515770051 -3330.2239734944178 0.0031603847109929473 -0.028826356764511729 0.0031603847109929473 -3330.2361106466287 -0.027953584027272882 -0.028826356764511729 -0.027953584027272882 -9999.6153579427919 -3330.2122393991667 0.0093459626872782753 -0.027811639853098313 0.0093459626872782753 -3330.2092894146826 -0.025685968881589361 -0.027811639853098313 -0.025685968881589361 -9999.605719110994 -3330.1897072166757 0.0029355696493891248 -0.038465602669020882 0.0029355696493891248 -3330.226621372085 -0.012103736829885747 -0.038465602669020882 -0.012103736829885747 -9999.600166887918 -3330.2099724131549 0.0096755209339016712 -0.025458405551034957 0.0096755209339016712 -3330.2379357462887 -0.023181865427432058 -0.025458405551034957 -0.023181865427432058 -9999.621828325573 -3330.0815229726104 -0.0044326381563117856 -0.09595792627078481 -0.0044326381563117856 -3330.1632240154577 -0.020868217585075399 -0.09595792627078481 -0.020868217585075399 -9999.4599283060561 -3330.1653112814656 0.026608178183417985 -0.057374001557036536 0.026608178183417985 -3330.225911639156 -0.052483640304899382 -0.057374001557036536 -0.052483640304899382 -9999.5465721014589 -3330.1066360972181 0.0089131169238114705 -0.090181730451149633 0.0089131169238114705 -3330.190342829932 -0.028668266182648949 -0.090181730451149633 -0.028668266182648949 -9999.4729862908243 -3330.1943255287806 0.012514782988874484 -0.01023015631153612 0.012514782988874484 -3330.2041575327075 -0.0097270667574775871 -0.01023015631153612 -0.0097270667574775871 -9999.5467418330263 -3330.1971358546107 0.01661743207652866 -0.037568325995380292 0.01661743207652866 -3330.2300173825352 -0.028678167521320574 -0.037568325995380292 -0.028678167521320574 -9999.553909376933 -3330.184880325929 0.0096755209339018933 -0.037221896356641082 0.0096755209339018933 -3330.2128436590629 -0.029145978536234907 -0.037221896356641082 -0.029145978536234907 -9999.5465520639009 -3330.2242438582798 0.010618800442306797 0.012510766628111014 0.010618800442306797 -3330.1925644572166 -0.022364640581145068 0.012510766628111014 -0.022364640581145068 -9999.5529684501744 -3330.1199907351693 0.031830486737299574 0.01960825445712544 0.031830486737299574 -3330.1621675156639 -0.012912014899484348 0.01960825445712544 -0.012912014899484348 -9999.5098252595053 -3330.1894932336618 0.017165297194078052 -0.0021384234314609785 0.017165297194078052 -3330.1910216689139 -0.017331022059806855 -0.0021384234314609785 -0.017331022059806855 -9999.5438950969437 -3330.1937466956097 0.029860350712868237 -0.0017604721128918754 0.029860350712868237 -3330.2120394683425 -0.012473095590394223 -0.0017604721128918754 -0.012473095590394223 -9999.550212912287 -3330.1664788436774 0.026283827165841489 -0.034231746840305277 0.026283827165841489 -3330.1642937994748 -0.04319047190801939 -0.034231746840305277 -0.04319047190801939 -9999.5314595320888 -3330.1621955497158 0.033036968536176159 -0.044370121269821539 0.033036968536176159 -3330.1494686473525 -0.052631952105002711 -0.044370121269821539 -0.052631952105002711 -9999.5102771459169 -3330.1961429647708 0.0093459626872784418 -0.023304306938371155 0.0093459626872784418 -3330.1931929802868 -0.03044604929164052 -0.023304306938371155 -0.03044604929164052 -9999.5574298078172 -3330.1909198485118 0.013998386250528478 -0.057565370627344237 0.013998386250528478 -3330.2255261672708 -0.095334747649758356 -0.057565370627344237 -0.095334747649758356 -9999.5528778752487 -3330.1927312994558 0.018931911431380621 -0.061645709431104478 0.018931911431380621 -3330.2371232460446 -0.091238172935845796 -0.061645709431104478 -0.091238172935845796 -9999.5398247330231 -3330.15562110684 0.0031603847109928362 -0.041284138441369578 0.0031603847109928362 -3330.167758259051 -0.031183680104732048 -0.041284138441369578 -0.031183680104732048 -9999.4103007800695 -3330.1942196606087 -0.011066139887568827 -0.044986740364038269 -0.011066139887568827 -3330.1845616489263 -0.026888234142461442 -0.044986740364038269 -0.026888234142461442 -9999.4241512659828 -3330.2304866745417 0.011540631074089924 -0.092160339398105862 0.011540631074089924 -3330.2152105118694 -0.021133305079274578 -0.092160339398105862 -0.021133305079274578 -9999.5101658556414 -3330.2206156093453 0.030499228861888605 -0.084760015111896791 0.030499228861888605 -3330.2448319661489 -0.050571981662869803 -0.084760015111896791 -0.050571981662869803 -9999.5651282651743 -3330.1637454025349 0.007694609476221359 -0.044471858389442787 0.007694609476221359 -3330.1739394849446 -0.025936648387187233 -0.044471858389442787 -0.025936648387187233 -9999.4138771604667 -3330.2975101473621 0.083030936972043168 -0.23530029986795853 0.083030936972043168 -3330.2761527975053 -0.035240997285654885 -0.23530029986795853 -0.035240997285654885 -9999.578130460075 -3330.1882841554143 -0.0077788230287858529 -0.094930346138426103 -0.0077788230287858529 -3330.1884204303533 -0.085496771320322296 -0.094930346138426103 -0.085496771320322296 -9999.3047374748603 -3330.1253335921947 0.030499228861888716 -0.092253360102404258 0.030499228861888716 -3330.1495499489984 -0.080549265112722424 -0.092253360102404258 -0.080549265112722424 -9999.2792822137126 -3330.2420689412647 0.0067547108071414619 -0.089313673386641312 0.0067547108071414619 -3330.2635152256262 -0.15209675325422722 -0.089313673386641312 -0.15209675325422722 -9999.6462429106432 -3330.2374823301097 0.033036968536176159 -0.056390552863376797 0.033036968536176159 -3330.2247554277465 -0.073707641786313616 -0.056390552863376797 -0.073707641786313616 -9999.7361374870925 -3330.2024502521181 0.032039383265144307 -0.13615536356610392 0.032039383265144307 -3330.2124048453907 -0.25677513628943416 -0.13615536356610392 -0.25677513628943416 -9999.6235606432965 -3330.1040113921636 0.018931911431380538 -0.070240946774902113 0.018931911431380538 -3330.1484033387524 -0.11678200598362309 -0.070240946774902113 -0.11678200598362309 -9999.2736650111474 -3330.257960798509 0.010180973332009929 0.0088025284492232458 0.010180973332009929 -3330.3474800860995 0.031009702559458674 0.0088025284492232458 0.031009702559458674 -9999.6712070900721 -3330.2086035957009 0.043303879077075912 0.0039824232135288185 0.043303879077075912 -3330.2179714427211 -0.030944617552449927 0.0039824232135288185 -0.030944617552449927 -9999.6264906285251 -3330.0919075129041 0.093363086380543053 0.043179722020795452 0.093363086380543053 -3330.11700972777 0.0058436091721887351 0.043179722020795452 0.0058436091721887351 -9999.5378802085106 -3330.1365456593267 0.043283193738619018 0.10483043421118055 0.043283193738619018 -3330.2018046749317 -0.06559707368069212 0.10483043421118055 -0.06559707368069212 -9999.6044344524853 -3330.1481746612926 0.010416782031737792 -0.041389248093764763 0.010416782031737792 -3330.397271218485 -0.057028166381769552 -0.041389248093764763 -0.057028166381769552 -9999.7178993976268 -3330.2354602939504 0.038975321770312793 0.017358013977627706 0.038975321770312793 -3330.2465522660168 0.00056122569731087424 0.017358013977627706 0.00056122569731087424 -9999.7020410676741 -3329.9013664207814 0.017609948002456965 -0.22782875127268198 0.017609948002456965 -3330.1336258966694 -0.035762542721613499 -0.22782875127268198 -0.035762542721613499 -9999.4434628032177 -3330.2184199040221 0.026608178183418207 -0.048792953977681464 0.026608178183418207 -3330.2790202617125 -0.047030363762814886 -0.048792953977681464 -0.047030363762814886 -9999.7058979691174 -3330.2413307563957 -0.0088065754408892527 0.075862611291086068 -0.0088065754408892527 -3330.232263491861 0.047859065733064199 0.075862611291086068 0.047859065733064199 -9999.6608732234454 -3330.2063881683034 0.01852576939247097 0.020459102473978419 0.01852576939247097 -3330.25828708883 0.020010679624192562 0.020459102473978419 0.020010679624192562 -9999.6586434756646 -3330.3601386646087 -0.068945691263261111 0.097439554572702036 -0.068945691263261111 -3330.2958526393058 0.08156743251674925 0.097439554572702036 0.08156743251674925 -9999.6214766019657 -3330.1569625438997 0.052833289417118401 0.034404843536322005 0.052833289417118401 -3330.3804818845902 -0.016485603782712133 0.034404843536322005 -0.016485603782712133 -9999.7158990348034 -3330.1900559775313 0.028153279042743895 0.037586065236610011 0.028153279042743895 -3330.2174177983234 0.04872213459930208 0.037586065236610011 0.04872213459930208 -9999.6443431053449 -3330.2075883099296 -0.010364808900823669 0.049100940635980805 -0.010364808900823669 -3330.2032626714954 0.037843179767605761 0.049100940635980805 0.037843179767605761 -9999.5601915213447 -3329.967009789787 0.149674210523013 0.17485642716383154 0.149674210523013 -3330.2205645307977 0.1845899347881641 0.17485642716383154 0.1845899347881641 -9999.3835063849947 -3330.1972917027888 0.0032671646895763851 0.013903123599448008 0.0032671646895763851 -3330.200465255808 -0.00075906165193373454 0.013903123599448008 -0.00075906165193373454 -9999.5276937214658 -3330.1803818010976 -0.0088065754408892527 0.030230227235733764 -0.0088065754408892527 -3330.1713145365629 -0.017502161788797821 0.030230227235733764 -0.017502161788797821 -9999.4780263575522 -3330.1657865954548 -0.010364808900823613 0.046993971525807865 -0.010364808900823613 -3330.1614609570206 -0.018841973450889782 0.046993971525807865 -0.018841973450889782 -9999.4347863779221 -3330.2188787105133 -0.018831971149706361 0.018098866432410432 -0.018831971149706361 -3330.1789000449626 -0.028475473656726535 0.018098866432410432 -0.028475473656726535 -9999.489546962006 -3330.1756038460699 0.0074146715183367462 -0.027503658988280222 0.0074146715183367462 -3330.2036998913482 -0.013119965338773909 -0.027503658988280222 -0.013119965338773909 -9999.5285101390946 -3330.1946371277681 0.0045824109178713712 0.0078293631122505758 0.0045824109178713712 -3330.2014926522515 -0.00011093389912275597 0.0078293631122505758 -0.00011093389912275597 -9999.5327166497409 -3330.1682467308128 0.01852576939247097 -0.02228650285906042 0.01852576939247097 -3330.2201456513394 -0.02684397799157523 -0.02228650285906042 -0.02684397799157523 -9999.5442191631882 -3330.1747173455478 0.0080279616570957391 -0.019377562719455454 0.0080279616570957391 -3330.1950689401783 0.00050253447261638939 -0.019377562719455454 0.00050253447261638939 -9999.5261307761721 -3330.1443679057065 0.028153279042743673 0.0049323322491545696 0.028153279042743673 -3330.1717297264986 0.0064754541399452137 0.0049323322491545696 0.0064754541399452137 -9999.5072788898651 -3330.1832686772959 0.01039225980855063 -0.011386272783056484 0.01039225980855063 -3330.2067242913381 -0.0085709502909594448 -0.011386272783056484 -0.0085709502909594448 -9999.5446193098069 -3330.1409678392374 0.02367531166484671 0.021488413920451421 0.02367531166484671 -3330.1703286081029 0.006102143586758757 0.021488413920451421 0.006102143586758757 -9999.5060785936512 -3330.1719666408608 0.043303879077076057 0.0094076920449879253 0.043303879077076057 -3330.181334487881 -0.01028162255352072 0.0094076920449879253 -0.01028162255352072 -9999.5165797640002 -3330.1741469156041 0.03897532177031246 0.010294246557805309 0.03897532177031246 -3330.1852388876705 0.0011135398635815363 0.010294246557805309 0.0011135398635815363 -9999.5181009326334 -3330.223855709286 0.016751315772187803 0.023135672381613404 0.016751315772187803 -3330.2276709892158 -0.0022066856763558462 0.023135672381613404 -0.0022066856763558462 -9999.5411361564402 -3330.2470678846566 -0.041108291699109858 0.047685192428616574 -0.041108291699109858 -3330.220088239028 -0.038634516520687612 0.047685192428616574 -0.038634516520687612 -9999.4697635207231 -3330.1851946668976 0.0094026318078889448 0.024437987329747557 0.0094026318078889448 -3330.1865223393761 -0.025782904496736592 0.024437987329747557 -0.025782904496736592 -9999.4881248890524 -3330.1692021901235 -0.0072422547675650151 0.048556399073049761 -0.0072422547675650151 -3330.1697818075245 -0.037655868576621288 0.048556399073049761 -0.037655868576621288 -9999.4377204892153 -3330.2120002253268 0.023841095056803964 0.013764402438027901 0.023841095056803964 -3330.2314619714853 0.00091134243302803952 0.013764402438027901 0.00091134243302803952 -9999.539120031015 -3330.1370588151667 0.27774456415665494 0.12336512853653403 0.27774456415665494 -3329.912813403309 0.19354824033507612 0.12336512853653403 0.19354824033507612 -9999.2019584231493 -3330.1784390610301 -0.037531489662286019 0.046449813880826696 -0.037531489662286019 -3330.1326027702489 0.069766593289841694 0.046449813880826696 0.069766593289841694 -9999.5352392338064 -3330.1773380919549 -0.0072422547675650012 0.031973251370573053 -0.0072422547675650012 -3330.1779177093558 0.035980646058305865 0.031973251370573053 0.035980646058305865 -9999.4621281947075 -3330.3628998115692 0.051009977622111513 0.1110311962547712 0.051009977622111513 -3330.1882264126216 0.04575453254437889 0.1110311962547712 0.04575453254437889 -9999.6234324543875 -3330.2018796143093 0.016751315772187692 0.0072694164391577942 0.016751315772187692 -3330.2056948942391 0.044200156562510529 0.0072694164391577942 0.044200156562510529 -9999.4752078715173 -3330.3954517999409 0.076686346569073582 0.093991759497839666 0.076686346569073582 -3330.400301952508 -0.011561555997104733 0.093991759497839666 -0.011561555997104733 -9999.6845893364516 -3330.2115733013634 0.0030418356791046541 0.016253918945949408 0.0030418356791046541 -3330.1997330843224 0.074421609802811872 0.016253918945949408 0.074421609802811872 -9999.4761408408012 -3330.1793399771605 -0.019910005098968675 -0.032937307463726029 -0.019910005098968675 -3330.2011532964416 0.065507856817930588 -0.032937307463726029 0.065507856817930588 -9999.4684375627803 -3330.1877982466722 -0.013485149053313883 -0.00039713187652523629 -0.013485149053313883 -3330.193431308242 -0.00038180513365659863 -0.00039713187652523629 -0.00038180513365659863 -9999.4686216331102 -3330.4913926489698 -0.01712807031029262 -0.11784884048574895 -0.01712807031029262 -3329.8369902931545 0.21216293455108826 -0.11784884048574895 0.21216293455108826 -9999.4041817414472 -3330.2027309559016 -0.016272717162391481 0.0065821676607811241 -0.016272717162391481 -3330.2551186216569 -0.021432605957670603 0.0065821676607811241 -0.021432605957670603 -9999.5235694345101 -3330.2021153649712 -0.013485149053313883 0.0311037456667691 -0.013485149053313883 -3330.207748426541 -0.071085641204263084 0.0311037456667691 -0.071085641204263084 -9999.5115729880017 -3330.2054202029649 0.0025964963837887822 0.023455194124835543 0.0025964963837887822 -3330.189297860843 -0.026886900386671186 0.023455194124835543 -0.026886900386671186 -9999.4938751534355 -3330.2005486119651 -0.00033482896548220342 0.008090849885775242 -0.00033482896548220342 -3330.1824202905336 0.0042239166104991455 0.008090849885775242 0.0042239166104991455 -9999.4909378631128 -3330.1974706872406 -0.0021947141986261576 0.013196112047808128 -0.0021947141986261576 -3330.1823938186772 0.005149021535544307 0.013196112047808128 0.005149021535544307 -9999.4901617639698 -3330.1903549796498 0.0076666794346620382 0.0058400052657816559 0.0076666794346620382 -3330.1861159409309 -0.019594945852077217 0.0058400052657816559 -0.019594945852077217 -9999.4893133676305 -3330.2321436697312 0.0019023770830735032 0.037438240244227927 0.0019023770830735032 -3330.1993812487326 -0.010356144270190271 0.037438240244227927 -0.010356144270190271 -9999.547166926408 -3330.2407018855047 -0.0020473208330116233 0.040296048383424932 -0.0020473208330116233 -3330.2205073125351 -0.00074324528031866066 0.040296048383424932 -0.00074324528031866066 -9999.5545879963065 -3330.2110937059297 0.0030418356791048762 0.05062115216969687 0.0030418356791048762 -3330.1992534888886 0.016233660020589014 0.05062115216969687 0.016233660020589014 -9999.4747020544964 -3330.1788603817258 -0.019910005098968564 0.0014299257582024438 -0.019910005098968564 -3330.200673701007 0.0073199070357077289 0.0014299257582024438 0.0073199070357077289 -9999.4669987764755 -3330.1838725085145 -0.0049191463576885308 0.04347731742200267 -0.0049191463576885308 -3330.1946307581984 0.023377494771921192 0.04347731742200267 0.023377494771921192 -9999.4667410724687 -3330.2405763594688 -0.21928664039419221 -0.073210946913604857 -0.21928664039419221 -3329.926948258907 0.21289208823691297 -0.073210946913604857 0.21289208823691297 -9999.2614654824829 -3329.825507975308 0.11341733266073983 0.1215588989743992 0.11341733266073983 -3330.0119173684934 0.027001874810594018 0.1215588989743992 0.027001874810594018 -9999.4450072342916 -3330.2409903129083 -0.0088218151769969833 0.069403362653702061 -0.0088218151769969833 -3330.2127307924929 0.013026840868405998 0.069403362653702061 0.013026840868405998 -9999.5990811746888 -3330.187227430325 0.01108508880314929 -0.008973007552413037 0.01108508880314929 -3330.2116586548063 -0.029467044163538958 -0.008973007552413037 -0.029467044163538958 -9999.6806747133705 -3330.2243208081018 -0.010330782932402638 0.00311257503926754 -0.010330782932402638 -3330.2079903784625 -0.0085342010077624764 0.00311257503926754 -0.0085342010077624764 -9999.6890309887276 -3330.2157181559705 0.024311919810880545 0.007281638838321669 0.024311919810880545 -3330.2327140875586 -0.045338899370108265 0.007281638838321669 -0.045338899370108265 -9999.7326861085094 -3330.1989051077835 0.013493946994465711 0.0040312719411303988 0.013493946994465711 -3330.2272579120054 -0.039068791957106441 0.0040312719411303988 -0.039068791957106441 -9999.7271188025734 -3330.2108833301108 0.02541690741539071 -0.077062139424015186 0.02541690741539071 -3330.190144935902 -0.099261189916433068 -0.077062139424015186 -0.099261189916433068 -9999.6867900068974 -3330.194856891675 -0.0011527259325415651 -0.066748038004334376 -0.0011527259325415651 -3330.2970193379251 -0.052877381120197242 -0.066748038004334376 -0.052877381120197242 -9999.7435471050339 -3330.2271192742446 0.014790365443398512 -0.047487221585470252 0.014790365443398512 -3330.2276428894293 -0.058289568526220137 -0.047487221585470252 -0.058289568526220137 -9999.7002234813117 -3330.0769525012465 0.059951267403716479 -0.05580905375063594 0.059951267403716479 -3330.1894483954775 -0.037723055975220632 -0.05580905375063594 -0.037723055975220632 -9999.6871782718081 -3329.8833854063132 -0.38816405277091537 -0.23616066637441691 -0.38816405277091537 -3330.0614437979739 0.10719309165870072 -0.23616066637441691 0.10719309165870072 -9999.4203405488588 -3330.2507983235701 0.0043137489266209528 -0.024612163458186842 0.0043137489266209528 -3330.1999303501143 -0.020437773291632766 -0.024612163458186842 -0.020437773291632766 -9999.6936353605051 -3330.2342170831907 0.015175520178597024 -0.043505887810169952 0.015175520178597024 -3330.1658564290756 -0.064423499781696592 -0.043505887810169952 -0.064423499781696592 -9999.6865513184603 -3330.1642241216487 0.054297387583972068 -0.033920609941560542 0.054297387583972068 -3330.02249300113 -0.036560475680744275 -0.033920609941560542 -0.036560475680744275 -9999.6276324727805 -3330.2014284186353 -0.0071570969721501676 0.0060456214978330536 -0.0071570969721501676 -3330.1996197924418 0.0021547229371208232 0.0060456214978330536 0.0021547229371208232 -9999.5567807176922 -3330.1860986685824 0.015175520178597024 0.016688587555108825 0.015175520178597024 -3330.1177380144672 0.0019075464879279025 0.016688587555108825 0.0019075464879279025 -9999.542196074628 -3330.1685788977466 0.011808582893160224 -0.00066547111418913119 0.011808582893160224 -3330.1808216595819 -0.0094692305356147699 -0.00066547111418913119 -0.0094692305356147699 -9999.5438688042523 -3330.1814343475598 0.0031181228346562895 -0.002556481411374989 0.0031181228346562895 -3330.1867187636435 -0.0059579543594736606 -0.002556481411374989 -0.0059579543594736606 -9999.5430647716275 -3330.2049118082814 0.0043137489266207307 0.028416940892384446 0.0043137489266207307 -3330.1540438348256 0.022221650524443248 0.028416940892384446 0.022221650524443248 -9999.555975814641 -3330.2192930603069 0.02676964342847743 0.019516284693963826 0.02676964342847743 -3330.184911655042 0.01442254632456752 0.019516284693963826 0.01442254632456752 -9999.5472207577477 -3330.1994013028216 0.0038476687107880103 -0.008360662874110858 0.0038476687107880103 -3330.1886632774858 -0.012626280302356463 -0.008360662874110858 -0.012626280302356463 -9999.5571119666274 -3330.1923907151522 0.0074145694448182198 -0.022455660207924666 0.0074145694448182198 -3330.1829473691832 -0.032152789124666015 -0.022455660207924666 -0.032152789124666015 -9999.5539303426376 -3330.1492145926131 0.02541690741539071 -0.041534487065291614 0.02541690741539071 -3330.1284761984043 -0.058334784291218966 -0.041534487065291614 -0.058334784291218966 -9999.5017837944069 -3330.1846456069179 0.0045622065813427648 -0.017341307937385864 0.0045622065813427648 -3330.1793666918093 -0.038947769440710545 -0.017341307937385864 -0.038947769440710545 -9999.5420295685035 -3330.1845703145464 0.0044021454363456503 0.0017181439870910253 0.0044021454363456503 -3330.1813394222481 -0.012543751939233516 0.0017181439870910253 -0.012543751939233516 -9999.5425039280235 -3330.175113564057 0.014790365443398512 -0.00075269412627676502 0.014790365443398512 -3330.1756371792417 -0.0093348484376747365 -0.00075269412627676502 -0.0093348484376747365 -9999.5442063507435 -3330.1874802773946 0.011732945365165115 0.0087637522228760645 0.011732945365165115 -3330.1889053135346 -0.016158328298843116 0.0087637522228760645 -0.016158328298843116 -9999.5541922192824 -3330.1432012156383 0.024311919810880323 0.035128521929436829 0.024311919810880323 -3330.1601971472264 -0.01824494494303508 0.035128521929436829 -0.01824494494303508 -9999.5151352875109 -3330.1793322779358 0.0066823067910173339 0.0071131640997919021 0.0066823067910173339 -3330.1821526482472 -0.012974267807294382 0.0071131640997919021 -0.012974267807294382 -9999.5504670530972 -3330.1263881674513 0.013493946994465267 0.031878155024969601 0.013493946994465267 -3330.1547409716732 -0.01197483753276174 0.031878155024969601 -0.01197483753276174 -9999.5095679815749 -3330.1592616751732 0.017443965791658522 0.014378250685695093 0.017443965791658522 -3330.1705195071845 -0.0096751249477620149 0.014378250685695093 -0.0096751249477620149 -9999.5389639605055 -3330.2022609959458 -0.0073817036903824906 0.017417567778466037 -0.0073817036903824906 -3330.1992307621967 -0.0044108733072789619 0.017417567778466037 -0.0044108733072789619 -9999.5568916044576 -3330.1333139850522 0.01108508880314929 0.046550592756830156 0.01108508880314929 -3330.1577452095335 -0.0011857187146233628 0.046550592756830156 -0.0011857187146233628 -9999.5189343775564 -3330.1655409496707 -0.0091109224075630602 0.03747257917348179 -0.0091109224075630602 -3330.1856113681552 -0.0022850106470286846 0.03747257917348179 -0.0022850106470286846 -9999.5270737762512 -3330.2251977851356 -0.0088218151769968722 0.079756576788895472 -0.0088218151769968722 -3330.1969382647203 0.0077117979581089457 0.079756576788895472 0.0077117979581089457 -9999.5517035913726 -3330.2044362315701 -0.0063641559351994559 0.031079994531864941 -0.0063641559351994559 -3330.1940225548624 -0.0039978985550988 0.031079994531864941 -0.0039978985550988 -9999.5389003934033 -3330.2117150458762 -0.0073817036903829347 0.0056721412693150342 -0.0073817036903829347 -3330.2086848121271 -0.00072688140244281385 0.0056721412693150342 -0.00072688140244281385 -9999.5852537542523 -3330.2207834687524 -0.0063641559351995669 0.014714991620166984 -0.0063641559351995669 -3330.2103697920447 0.0016961430628725793 0.014714991620166984 0.0016961430628725793 -9999.5879421049467 -3330.1978010105486 0.0066823067910170009 0.0076081336883362383 0.0066823067910170009 -3330.20062138086 -0.0067394031284493394 0.0076081336883362383 -0.0067394031284493394 -9999.6058732509409 -3330.2059490100091 0.011732945365164893 0.0092587218168773688 0.011732945365164893 -3330.2073740461492 -0.0099234636181790847 0.0092587218168773688 -0.0099234636181790847 -9999.6095984171261 -3330.2043697724021 0.0045622065813423207 -0.023448458066923195 0.0045622065813423207 -3330.1990908572934 -0.034460899536497891 -0.023448458066923195 -0.034460899536497891 -9999.6012020649578 -3330.2143606570335 0.0044021454363454282 -0.0023501007563027088 0.0044021454363454282 -3330.2111297647352 -0.0062674325611169479 -0.0023501007563027088 -0.0062674325611169479 -9999.6318749554848 -3330.1997847268285 0.0031181228346560674 -0.010835950653927284 0.0031181228346560674 -3330.2050691429122 -0.002465424251568038 -0.010835950653927284 -0.002465424251568038 -9999.5981159094445 -3330.2175819294698 -0.0071570969721503896 -0.0065067831328633474 -0.0071570969721503896 -3330.2157733032764 0.0050329139121458866 -0.0065067831328633474 0.0050329139121458866 -9999.6052412501958 -3330.2404426779758 0.0017274220542590202 -0.011053709913539933 0.0017274220542590202 -3330.2216158772098 -0.039677739579929039 -0.011053709913539933 -0.039677739579929039 -9999.6710732241845 -3330.2195840860877 0.0068289455219623374 0.0048352935300499666 0.0068289455219623374 -3330.2078384335455 -0.01733777158005978 0.0048352935300499666 -0.01733777158005978 -9999.63235797995 -3330.2334967130046 -0.0012035134352138543 -0.00092256088100839406 -0.0012035134352138543 -3330.2151325571904 -0.027310668046993669 -0.00092256088100839406 -0.027310668046993669 -9999.6376596675909 -3330.2136588171652 -0.0076396126855171609 -0.015210461820970522 -0.0076396126855171609 -3330.2082381006458 0.011329695120366523 -0.015210461820970522 0.011329695120366523 -9999.585628019202 -3330.2471744931754 0.0056497232635153161 -0.026067433173011523 0.0056497232635153161 -3330.2330129507718 -0.016546509795375641 -0.026067433173011523 -0.016546509795375641 -9999.6756054463767 -3330.2221913107514 0.0034835903003919144 -0.01024768839488388 0.0034835903003919144 -3330.2208388419094 -0.017704934216453694 -0.01024768839488388 -0.017704934216453694 -9999.6523467097359 -3330.2453872870483 0.0059986167060042117 -0.0092330469869921217 0.0059986167060042117 -3330.2373024131757 0.0067750121997960377 -0.0092330469869921217 0.0067750121997960377 -9999.6762310104459 -3330.23009417715 -0.00021590998358833602 -0.0010600123896438163 -0.00021590998358833602 -3330.2239867386925 -0.0049767844866437372 -0.0010600123896438163 -0.0049767844866437372 -9999.6551094005263 -3330.22211996033 0.007394804064845717 -0.0097317308500350919 0.007394804064845717 -3330.2138922106169 -0.0061014286962972619 -0.0097317308500350919 -0.0061014286962972619 -9999.6345053927798 -3330.2298863074338 0.0066259937696655502 -0.016087344030893291 0.0066259937696655502 -3330.2235888628948 -0.017573607481608633 -0.016087344030893291 -0.017573607481608633 -9999.6549579641505 -3330.234341003028 0.0091814507526071232 -0.024475733334838878 0.0091814507526071232 -3330.2316852146269 -0.0013920182555011706 -0.024475733334838878 -0.0013920182555011706 -9999.6580957259794 -3330.2276537127 0.0020686071557015073 0.0071994228592302534 0.0020686071557015073 -3330.2138247135044 -0.012895183739601634 0.0071994228592302534 -0.012895183739601634 -9999.6166372596417 -3330.2041422593393 0.0030211850915561334 0.0034784566287271446 0.0030211850915561334 -3330.2068275031361 -0.013892213639337569 0.0034784566287271446 -0.013892213639337569 -9999.6090100937072 -3330.2315545265392 0.0019477547144037821 -0.016713308374164626 0.0019477547144037821 -3330.2205907137341 -0.01819387573232234 -0.016713308374164626 -0.01819387573232234 -9999.6385386601105 -3330.2167286429121 -0.0050250907525630772 0.008545707778466749 -0.0050250907525630772 -3330.2039012253008 0.0091406355968501884 0.008545707778466749 0.0091406355968501884 -9999.5654616901738 -3330.2235141214951 -0.0021947141986261576 0.0045686715839110548 -0.0021947141986261576 -3330.2084372529316 0.013117671796862851 0.0045686715839110548 0.013117671796862851 -9999.5682920667314 -3330.2265920462178 -0.0003348289654820924 -0.00053659057448385283 -0.0003348289654820924 -3330.2084637247863 0.012192566868179711 -0.00053659057448385283 0.012192566868179711 -9999.5690681658743 -3330.2340493050542 0.0048028051941009231 0.0026848233228520257 0.0048028051941009231 -3330.2183659133043 -0.0083805841968569439 0.0026848233228520257 -0.0083805841968569439 -9999.6193714576802 -3330.2476215920269 0.0038640440489178252 0.018636048182088416 0.0038640440489178252 -3330.2349417706591 -0.025815623703238089 0.018636048182088416 -0.025815623703238089 -9999.6692874798682 -3330.2367235593265 0.0053859655864647582 0.003890919976583973 0.0053859655864647582 -3330.2308490706964 -0.0043235989942331798 0.003890919976583973 -0.0043235989942331798 -9999.6231608105954 -3330.2476591972063 0.006957068279679457 0.029659672087291256 0.006957068279679457 -3330.2451011031208 0.011264886205026414 0.029659672087291256 0.011264886205026414 -9999.6718367142821 -3330.2427676304706 0.0081855577285760983 -0.036283946708863368 0.0081855577285760983 -3330.2418784144629 -0.015387817909868318 -0.036283946708863368 -0.015387817909868318 -9999.6698081504364 -3330.2396528366917 0.0067437434101133009 -0.027045989783800906 0.0067437434101133009 -3330.2311137618963 -0.034093490154191386 -0.027045989783800906 -0.034093490154191386 -9999.666338288851 -3330.2357877576014 -0.0012157610672466901 0.0046238707345764851 -0.0012157610672466901 -3330.2173904005922 0.00095228889767895453 0.0046238707345764851 0.00095228889767895453 -9999.6001581058954 -3330.2420873745104 0.0025964963837890043 0.014231026198103791 0.0025964963837890043 -3330.2259650323886 -0.018500962798498222 0.014231026198103791 -0.018500962798498222 -9999.6038766680722 
</DataArray>
</CellData>
</Piece>
</UnstructuredGrid>
</VTKFile>
