<?xml version="1.0"?>
<VTKFile type="UnstructuredGrid" version="0.1" byte_order="LittleEndian">
<UnstructuredGrid>
<Piece NumberOfPoints="2160" NumberOfCells="540">
<Points>
<DataArray type="Float64" NumberOfComponents="3" format="ascii">
-4.3301270160527148 -2.500000004970083 -12 -5 -1.397247784140632e-08 -12 -2.9547160992544761 -1.820741508163664 -12 -2.9547160992544761 -1.820741508163664 -15 -2.5000000000000022 -4.3301270189221919 -12 -4.3301270160527148 -2.500000004970083 -12 -2.9547160992544761 -1.820741508163664 -12 -2.9547160992544761 -1.820741508163664 -15 -4.3301270160527148 -2.500000004970083 -15 -2.5000000000000022 -4.3301270189221919 -12 -2.9547160992544761 -1.820741508163664 -15 -4.3301270160527148 -2.500000004970083 -12 -5 -1.397247784140632e-08 -15 -4.3301270160527148 -2.500000004970083 -15 -2.9547160992544761 -1.820741508163664 -15 -4.3301270160527148 -2.500000004970083 -12 -0.66987297914647026 -2.499999999706382 -15 -2.2735805010731909 0.22641949675281539 -12 -2.9547160992544761 -1.820741508163664 -15 -0.66987297914647026 -2.499999999706382 -12 -2.5000000000000022 -4.3301270189221919 -12 -0.66987297914647026 -2.499999999706382 -12 -0.66987297914647026 -2.499999999706382 -15 -2.9547160992544761 -1.820741508163664 -15 -2.2735805010731909 0.22641949675281539 -12 -0.66987297914647026 -2.499999999706382 -12 -2.9547160992544761 -1.820741508163664 -12 -2.9547160992544761 -1.820741508163664 -15 -0.66987297914647026 -2.499999999706382 -12 -2.5000000000000022 -4.3301270189221919 -12 -2.9547160992544761 -1.820741508163664 -12 -2.9547160992544761 -1.820741508163664 -15 -2.5000000000000022 -4.3301270189221919 -15 6.9142305214597846e-09 -5 -12 -0.66987297914647026 -2.499999999706382 -15 -2.5000000000000022 -4.3301270189221919 -12 -2.5000000000000022 -4.3301270189221919 -15 -0.66987297914647026 -2.499999999706382 -15 -2.9547160992544761 -1.820741508163664 -15 -2.5000000000000022 -4.3301270189221919 -12 -4.3301270160527148 -2.500000004970083 -15 -2.5000000000000022 -4.3301270189221919 -15 -2.9547160992544761 -1.820741508163664 -15 -2.5000000000000022 -4.3301270189221919 -12 -2.5000000000000022 -4.3301270189221919 -15 6.9142305214597846e-09 -5 -15 -0.66987297914647026 -2.499999999706382 -15 6.9142305214597846e-09 -5 -12 -0.66987297914647026 -2.499999999706382 -15 6.9142305214597846e-09 -5 -15 0.91506351643986317 -3.4150635091400758 -15 6.9142305214597846e-09 -5 -12 -0.66987297914647026 -2.499999999706382 -15 6.9142305214597846e-09 -5 -12 0.91506351643986317 -3.4150635091400758 -15 -0.66987297914647026 -2.499999999706382 -12 0.20080558631870429 0.033909897404034287 -15 -0.66987297914647026 -2.499999999706382 -15 0.95458002071209891 -1.657898275923388 -15 -0.66987297914647026 -2.499999999706382 -12 0.95458002071209891 -1.657898275923388 -15 -0.66987297914647026 -2.499999999706382 -15 0.91506351643986317 -3.4150635091400758 -15 -0.66987297914647026 -2.499999999706382 -12 0.95458002071209891 -1.657898275923388 -15 -0.66987297914647026 -2.499999999706382 -12 0.91506351643986317 -3.4150635091400758 -15 0.91506351643986317 -3.4150635091400758 -12 2.3883545080289421 -0.94497882694672608 -12 0.95458002071209891 -1.657898275923388 -12 0.95458002071209891 -1.657898275923388 -15 2.217625015551433 -2.5696135239339939 -15 2.3883545080289421 -0.94497882694672608 -15 0.95458002071209891 -1.657898275923388 -15 2.217625015551433 -2.5696135239339939 -15 2.3883545080289421 -0.94497882694672608 -12 0.95458002071209891 -1.657898275923388 -15 0.91506351643986317 -3.4150635091400758 -12 2.217625015551433 -2.5696135239339939 -15 0.95458002071209891 -1.657898275923388 -12 0.95458002071209891 -1.657898275923388 -15 0.91506351643986317 -3.4150635091400758 -15 2.217625015551433 -2.5696135239339939 -15 0.91506351643986317 -3.4150635091400758 -12 0.91506351643986317 -3.4150635091400758 -15 2.500000010727558 -4.3301270127286351 -15 2.217625015551433 -2.5696135239339939 -15 2.500000010727558 -4.3301270127286351 -12 6.9142305214597846e-09 -5 -15 2.500000010727558 -4.3301270127286351 -12 0.91506351643986317 -3.4150635091400758 -15 6.9142305214597846e-09 -5 -12 6.9142305214597846e-09 -5 -15 2.500000010727558 -4.3301270127286351 -15 0.91506351643986317 -3.4150635091400758 -15 2.500000010727558 -4.3301270127286351 -12 0.91506351643986317 -3.4150635091400758 -15 2.500000010727558 -4.3301270127286351 -12 2.217625015551433 -2.5696135239339939 -15 0.91506351643986317 -3.4150635091400758 -12 2.500000010727558 -4.3301270127286351 -12 6.9142305214597846e-09 -5 -12 0.91506351643986317 -3.4150635091400758 -12 0.91506351643986317 -3.4150635091400758 -15 2.500000010727558 -4.3301270127286351 -12 0.91506351643986317 -3.4150635091400758 -12 2.217625015551433 -2.5696135239339939 -12 2.217625015551433 -2.5696135239339939 -15 0.95458002071209891 -1.657898275923388 -12 2.3883545080289421 -0.94497882694672608 -12 2.217625015551433 -2.5696135239339939 -12 2.217625015551433 -2.5696135239339939 -15 0.91506351643986317 -3.4150635091400758 -12 0.95458002071209891 -1.657898275923388 -12 2.217625015551433 -2.5696135239339939 -12 2.217625015551433 -2.5696135239339939 -15 -0.66987297914647026 -2.499999999706382 -12 0.95458002071209891 -1.657898275923388 -12 0.91506351643986317 -3.4150635091400758 -12 0.95458002071209891 -1.657898275923388 -15 -0.66987297914647026 -2.499999999706382 -12 0.20080558631870429 0.033909897404034287 -12 0.95458002071209891 -1.657898275923388 -12 0.95458002071209891 -1.657898275923388 -15 6.9142305214597846e-09 -5 -12 -0.66987297914647026 -2.499999999706382 -12 0.91506351643986317 -3.4150635091400758 -12 0.91506351643986317 -3.4150635091400758 -15 6.9142305214597846e-09 -5 -12 -2.5000000000000022 -4.3301270189221919 -12 -0.66987297914647026 -2.499999999706382 -12 -0.66987297914647026 -2.499999999706382 -15 -0.66987297914647026 -2.499999999706382 -12 6.9142305214597846e-09 -5 -12 0.91506351643986317 -3.4150635091400758 -12 6.9142305214597846e-09 -5 -9 6.9142305214597846e-09 -5 -9 -0.66987297914647026 -2.499999999706382 -9 0.91506351643986317 -3.4150635091400758 -9 0.91506351643986317 -3.4150635091400758 -12 -0.66987297914647026 -2.499999999706382 -12 6.9142305214597846e-09 -5 -9 0.91506351643986317 -3.4150635091400758 -12 -0.66987297914647026 -2.499999999706382 -9 6.9142305214597846e-09 -5 -9 -2.5000000000000022 -4.3301270189221919 -9 -0.66987297914647026 -2.499999999706382 -9 -0.66987297914647026 -2.499999999706382 -12 -2.5000000000000022 -4.3301270189221919 -12 6.9142305214597846e-09 -5 -12 -0.66987297914647026 -2.499999999706382 -12 6.9142305214597846e-09 -5 -9 0.20080558631870429 0.033909897404034287 -12 -0.66987297914647026 -2.499999999706382 -12 0.95458002071209891 -1.657898275923388 -12 -0.66987297914647026 -2.499999999706382 -9 0.95458002071209891 -1.657898275923388 -12 -0.66987297914647026 -2.499999999706382 -9 0.91506351643986317 -3.4150635091400758 -12 0.91506351643986317 -3.4150635091400758 -9 -0.66987297914647026 -2.499999999706382 -9 0.20080558631870429 0.033909897404034287 -9 0.95458002071209891 -1.657898275923388 -9 0.95458002071209891 -1.657898275923388 -12 0.95458002071209891 -1.657898275923388 -12 -0.66987297914647026 -2.499999999706382 -12 0.91506351643986317 -3.4150635091400758 -12 -0.66987297914647026 -2.499999999706382 -9 -0.66987297914647026 -2.499999999706382 -9 0.95458002071209891 -1.657898275923388 -9 0.91506351643986317 -3.4150635091400758 -9 0.95458002071209891 -1.657898275923388 -12 0.95458002071209891 -1.657898275923388 -9 2.3883545080289421 -0.94497882694672608 -9 2.217625015551433 -2.5696135239339939 -9 2.217625015551433 -2.5696135239339939 -12 2.3883545080289421 -0.94497882694672608 -12 0.95458002071209891 -1.657898275923388 -12 2.217625015551433 -2.5696135239339939 -12 2.3883545080289421 -0.94497882694672608 -9 2.3883545080289421 -0.94497882694672608 -9 0.95458002071209891 -1.657898275923388 -9 0.95458002071209891 -1.657898275923388 -12 2.217625015551433 -2.5696135239339939 -12 0.95458002071209891 -1.657898275923388 -12 0.91506351643986317 -3.4150635091400758 -9 2.217625015551433 -2.5696135239339939 -12 0.95458002071209891 -1.657898275923388 -9 0.95458002071209891 -1.657898275923388 -12 0.91506351643986317 -3.4150635091400758 -12 2.217625015551433 -2.5696135239339939 -12 0.91506351643986317 -3.4150635091400758 -9 0.91506351643986317 -3.4150635091400758 -9 0.95458002071209891 -1.657898275923388 -9 2.217625015551433 -2.5696135239339939 -9 2.217625015551433 -2.5696135239339939 -12 6.9142305214597846e-09 -5 -12 2.500000010727558 -4.3301270127286351 -12 0.91506351643986317 -3.4150635091400758 -12 2.500000010727558 -4.3301270127286351 -9 2.500000010727558 -4.3301270127286351 -9 6.9142305214597846e-09 -5 -9 0.91506351643986317 -3.4150635091400758 -9 0.91506351643986317 -3.4150635091400758 -12 6.9142305214597846e-09 -5 -12 2.500000010727558 -4.3301270127286351 -9 0.91506351643986317 -3.4150635091400758 -12 6.9142305214597846e-09 -5 -9 0.91506351643986317 -3.4150635091400758 -12 2.500000010727558 -4.3301270127286351 -9 2.217625015551433 -2.5696135239339939 -12 0.91506351643986317 -3.4150635091400758 -9 0.91506351643986317 -3.4150635091400758 -12 2.500000010727558 -4.3301270127286351 -12 2.217625015551433 -2.5696135239339939 -12 2.500000010727558 -4.3301270127286351 -9 2.500000010727558 -4.3301270127286351 -9 0.91506351643986317 -3.4150635091400758 -9 2.217625015551433 -2.5696135239339939 -9 2.217625015551433 -2.5696135239339939 -12 6.9142305214597846e-09 -5 -9 2.500000010727558 -4.3301270127286351 -9 0.91506351643986317 -3.4150635091400758 -9 2.500000010727558 -4.3301270127286351 -6 0.91506351643986317 -3.4150635091400758 -9 2.500000010727558 -4.3301270127286351 -9 2.217625015551433 -2.5696135239339939 -9 2.500000010727558 -4.3301270127286351 -6 0.95458002071209891 -1.657898275923388 -9 0.91506351643986317 -3.4150635091400758 -9 2.217625015551433 -2.5696135239339939 -9 0.91506351643986317 -3.4150635091400758 -6 2.3883545080289421 -0.94497882694672608 -9 0.95458002071209891 -1.657898275923388 -9 2.217625015551433 -2.5696135239339939 -9 2.3883545080289421 -0.94497882694672608 -6 0.95458002071209891 -1.657898275923388 -9 -0.66987297914647026 -2.499999999706382 -9 0.91506351643986317 -3.4150635091400758 -9 -0.66987297914647026 -2.499999999706382 -6 0.20080558631870429 0.033909897404034287 -9 -0.66987297914647026 -2.499999999706382 -9 0.95458002071209891 -1.657898275923388 -9 -0.66987297914647026 -2.499999999706382 -6 -2.5000000000000022 -4.3301270189221919 -9 6.9142305214597846e-09 -5 -9 -0.66987297914647026 -2.499999999706382 -9 6.9142305214597846e-09 -5 -6 -0.66987297914647026 -2.499999999706382 -9 6.9142305214597846e-09 -5 -9 0.91506351643986317 -3.4150635091400758 -9 6.9142305214597846e-09 -5 -6 -2.5000000000000022 -4.3301270189221919 -9 -0.66987297914647026 -2.499999999706382 -9 -2.9547160992544761 -1.820741508163664 -9 -2.5000000000000022 -4.3301270189221919 -6 -4.3301270160527148 -2.500000004970083 -9 -2.5000000000000022 -4.3301270189221919 -9 -2.9547160992544761 -1.820741508163664 -9 -2.5000000000000022 -4.3301270189221919 -6 -2.5000000000000022 -4.3301270189221919 -12 6.9142305214597846e-09 -5 -9 -0.66987297914647026 -2.499999999706382 -12 -2.5000000000000022 -4.3301270189221919 -9 -2.5000000000000022 -4.3301270189221919 -12 -0.66987297914647026 -2.499999999706382 -12 -2.9547160992544761 -1.820741508163664 -12 -2.5000000000000022 -4.3301270189221919 -9 -4.3301270160527148 -2.500000004970083 -12 -2.5000000000000022 -4.3301270189221919 -12 -2.9547160992544761 -1.820741508163664 -12 -2.5000000000000022 -4.3301270189221919 -9 -2.2735805010731909 0.22641949675281539 -9 -0.66987297914647026 -2.499999999706382 -9 -2.9547160992544761 -1.820741508163664 -9 -2.9547160992544761 -1.820741508163664 -12 -0.66987297914647026 -2.499999999706382 -9 -2.5000000000000022 -4.3301270189221919 -9 -2.9547160992544761 -1.820741508163664 -9 -2.9547160992544761 -1.820741508163664 -12 -2.5000000000000022 -4.3301270189221919 -9 -0.66987297914647026 -2.499999999706382 -9 -0.66987297914647026 -2.499999999706382 -12 -2.9547160992544761 -1.820741508163664 -12 -0.66987297914647026 -2.499999999706382 -12 -2.2735805010731909 0.22641949675281539 -9 -2.9547160992544761 -1.820741508163664 -12 -0.66987297914647026 -2.499999999706382 -9 -2.5000000000000022 -4.3301270189221919 -9 -4.3301270160527148 -2.500000004970083 -9 -2.9547160992544761 -1.820741508163664 -9 -2.9547160992544761 -1.820741508163664 -12 -4.3301270160527148 -2.500000004970083 -12 -2.5000000000000022 -4.3301270189221919 -9 -2.9547160992544761 -1.820741508163664 -12 -4.3301270160527148 -2.500000004970083 -9 -4.3301270160527148 -2.500000004970083 -9 -5 -1.397247784140632e-08 -9 -2.9547160992544761 -1.820741508163664 -9 -2.9547160992544761 -1.820741508163664 -12 -5 -1.397247784140632e-08 -12 -4.3301270160527148 -2.500000004970083 -12 -2.9547160992544761 -1.820741508163664 -12 -4.3301270160527148 -2.500000004970083 -9 -5 -1.397247784140632e-08 -9 -4.3301270160527148 -2.500000004970083 -9 -2.9547160992544761 -1.820741508163664 -9 -4.3301270160527148 -2.500000004970083 -6 -2.2735805010731909 0.22641949675281539 -9 -0.66987297914647026 -2.499999999706382 -9 0.20080558631870429 0.033909897404034287 -9 -2.2735805010731909 0.22641949675281539 -6 -0.66987297914647026 -2.499999999706382 -9 -2.2735805010731909 0.22641949675281539 -9 -2.9547160992544761 -1.820741508163664 -9 -2.2735805010731909 0.22641949675281539 -6 -2.2735805010731909 0.22641949675281539 -9 0.20080558631870429 0.033909897404034287 -9 -0.91506351183037493 1.5849364925866429 -9 -2.2735805010731909 0.22641949675281539 -6 -2.2735805010731909 0.22641949675281539 -9 -5 -1.397247784140632e-08 -9 -2.9547160992544761 -1.820741508163664 -9 -5 -1.397247784140632e-08 -6 -5 -1.397247784140632e-08 -9 -2.2735805010731909 0.22641949675281539 -9 -2.9547160992544761 -1.820741508163664 -9 -2.9547160992544761 -1.820741508163664 -12 -2.2735805010731909 0.22641949675281539 -12 -5 -1.397247784140632e-08 -12 -2.9547160992544761 -1.820741508163664 -12 -5 -1.397247784140632e-08 -9 -2.2735805010731909 0.22641949675281539 -12 -5 -1.397247784140632e-08 -9 -2.9547160992544761 -1.820741508163664 -12 -2.2735805010731909 0.22641949675281539 -9 -5 -1.397247784140632e-08 -12 -4.3301270160527148 -2.500000004970083 -9 -2.9547160992544761 -1.820741508163664 -12 -5 -1.397247784140632e-08 -9 -0.66987297914647026 -2.499999999706382 -12 -2.2735805010731909 0.22641949675281539 -12 -2.9547160992544761 -1.820741508163664 -12 -2.2735805010731909 0.22641949675281539 -9 -2.2735805010731909 0.22641949675281539 -12 0.20080558631870429 0.033909897404034287 -12 -0.91506351183037493 1.5849364925866429 -12 -2.2735805010731909 0.22641949675281539 -9 -2.2735805010731909 0.22641949675281539 -12 -0.66987297914647026 -2.499999999706382 -12 0.20080558631870429 0.033909897404034287 -12 -2.2735805010731909 0.22641949675281539 -9 -1.107852388446384 3.1911857209629071 -9 -0.91506351183037493 1.5849364925866429 -9 -2.2253246846922492 2.366533744740174 -9 -2.2253246846922492 2.366533744740174 -12 -2.2735805010731909 0.22641949675281539 -12 -0.91506351183037493 1.5849364925866429 -12 -2.2253246846922492 2.366533744740174 -12 -2.2735805010731909 0.22641949675281539 -9 -0.91506351183037493 1.5849364925866429 -12 -1.107852388446384 3.1911857209629071 -12 -2.2253246846922492 2.366533744740174 -12 -0.91506351183037493 1.5849364925866429 -9 -0.91506351183037493 1.5849364925866429 -9 -2.2735805010731909 0.22641949675281539 -9 -2.2253246846922492 2.366533744740174 -9 -2.2253246846922492 2.366533744740174 -12 -2.2735805010731909 0.22641949675281539 -9 -0.91506351183037493 1.5849364925866429 -9 -0.91506351183037493 1.5849364925866429 -12 -2.2253246846922492 2.366533744740174 -12 -2.2735805010731909 0.22641949675281539 -9 -4.3301270221112951 2.4999999944763132 -9 -2.2253246846922492 2.366533744740174 -9 -2.2253246846922492 2.366533744740174 -12 -4.3301270221112951 2.4999999944763132 -9 -2.2735805010731909 0.22641949675281539 -9 -2.2735805010731909 0.22641949675281539 -12 -2.2253246846922492 2.366533744740174 -12 -4.3301270221112951 2.4999999944763132 -12 -5 -1.397247784140632e-08 -9 -2.2735805010731909 0.22641949675281539 -12 -4.3301270221112951 2.4999999944763132 -9 -4.3301270221112951 2.4999999944763132 -12 -5 -1.397247784140632e-08 -12 -2.2735805010731909 0.22641949675281539 -12 -5 -1.397247784140632e-08 -9 -5 -1.397247784140632e-08 -9 -4.3301270221112951 2.4999999944763132 -9 -2.2735805010731909 0.22641949675281539 -9 -2.2735805010731909 0.22641949675281539 -12 -4.3301270221112951 2.4999999944763132 -12 -2.2735805010731909 0.22641949675281539 -12 -2.2253246846922492 2.366533744740174 -12 -4.3301270221112951 2.4999999944763132 -9 -4.3301270221112951 2.4999999944763132 -9 -5 -1.397247784140632e-08 -9 -2.2735805010731909 0.22641949675281539 -9 -5 -1.397247784140632e-08 -6 -4.3301270221112951 2.4999999944763132 -9 -2.2735805010731909 0.22641949675281539 -9 -2.2253246846922492 2.366533744740174 -9 -4.3301270221112951 2.4999999944763132 -6 -0.91506351183037493 1.5849364925866429 -9 -1.107852388446384 3.1911857209629071 -9 -2.2253246846922492 2.366533744740174 -9 -0.91506351183037493 1.5849364925866429 -6 -2.2735805010731909 0.22641949675281539 -9 -0.91506351183037493 1.5849364925866429 -9 -2.2253246846922492 2.366533744740174 -9 -2.2735805010731909 0.22641949675281539 -6 0.20080558631870429 0.033909897404034287 -9 0.37580157663508379 2.5408650916807378 -9 -0.91506351183037493 1.5849364925866429 -9 0.20080558631870429 0.033909897404034287 -6 -0.91506351183037493 1.5849364925866429 -9 0.37580157663508379 2.5408650916807378 -9 -1.107852388446384 3.1911857209629071 -9 0.37580157663508379 2.5408650916807378 -6 0.20080558631870429 0.033909897404034287 -9 2.3883545080289421 -0.94497882694672608 -9 2.465848112410058 1.4099871989758821 -9 2.3883545080289421 -0.94497882694672608 -6 2.3883545080289421 -0.94497882694672608 -9 0.20080558631870429 0.033909897404034287 -9 0.95458002071209891 -1.657898275923388 -9 2.3883545080289421 -0.94497882694672608 -6 0.37580157663508379 2.5408650916807378 -9 0.20080558631870429 0.033909897404034287 -9 2.465848112410058 1.4099871989758821 -9 0.20080558631870429 0.033909897404034287 -6 0.37580157663508379 2.5408650916807378 -12 0.20080558631870429 0.033909897404034287 -9 2.465848112410058 1.4099871989758821 -12 0.37580157663508379 2.5408650916807378 -9 0.37580157663508379 2.5408650916807378 -9 2.4999999879139869 4.3301270259000564 -9 2.465848112410058 1.4099871989758821 -9 2.465848112410058 1.4099871989758821 -12 0.20080558631870429 0.033909897404034287 -9 0.37580157663508379 2.5408650916807378 -9 2.465848112410058 1.4099871989758821 -9 2.465848112410058 1.4099871989758821 -12 0.37580157663508379 2.5408650916807378 -12 0.20080558631870429 0.033909897404034287 -12 2.465848112410058 1.4099871989758821 -12 0.20080558631870429 0.033909897404034287 -9 2.3883545080289421 -0.94497882694672608 -12 0.20080558631870429 0.033909897404034287 -12 0.95458002071209891 -1.657898275923388 -12 2.3883545080289421 -0.94497882694672608 -9 2.3883545080289421 -0.94497882694672608 -9 0.20080558631870429 0.033909897404034287 -9 0.20080558631870429 0.033909897404034287 -12 0.95458002071209891 -1.657898275923388 -12 2.3883545080289421 -0.94497882694672608 -9 0.20080558631870429 0.033909897404034287 -9 2.465848112410058 1.4099871989758821 -9 2.465848112410058 1.4099871989758821 -12 0.20080558631870429 0.033909897404034287 -12 2.3883545080289421 -0.94497882694672608 -12 2.465848112410058 1.4099871989758821 -12 2.3883545080289421 -0.94497882694672608 -9 0.20080558631870429 0.033909897404034287 -12 2.3883545080289421 -0.94497882694672608 -9 2.465848112410058 1.4099871989758821 -12 0.20080558631870429 0.033909897404034287 -9 0.20080558631870429 0.033909897404034287 -9 2.3883545080289421 -0.94497882694672608 -9 0.95458002071209891 -1.657898275923388 -9 0.95458002071209891 -1.657898275923388 -12 -2.2735805010731909 0.22641949675281539 -9 0.20080558631870429 0.033909897404034287 -9 0.20080558631870429 0.033909897404034287 -12 -0.91506351183037493 1.5849364925866429 -12 -2.2735805010731909 0.22641949675281539 -9 -0.66987297914647026 -2.499999999706382 -9 -0.66987297914647026 -2.499999999706382 -12 0.20080558631870429 0.033909897404034287 -12 0.20080558631870429 0.033909897404034287 -12 -0.66987297914647026 -2.499999999706382 -9 0.95458002071209891 -1.657898275923388 -12 0.20080558631870429 0.033909897404034287 -9 -0.66987297914647026 -2.499999999706382 -9 -2.2735805010731909 0.22641949675281539 -9 0.20080558631870429 0.033909897404034287 -9 0.20080558631870429 0.033909897404034287 -12 0.20080558631870429 0.033909897404034287 -9 -2.2735805010731909 0.22641949675281539 -9 -0.91506351183037493 1.5849364925866429 -9 -0.91506351183037493 1.5849364925866429 -12 0.37580157663508379 2.5408650916807378 -9 0.20080558631870429 0.033909897404034287 -9 -0.91506351183037493 1.5849364925866429 -9 -0.91506351183037493 1.5849364925866429 -12 0.20080558631870429 0.033909897404034287 -12 0.37580157663508379 2.5408650916807378 -12 -0.91506351183037493 1.5849364925866429 -12 0.20080558631870429 0.033909897404034287 -9 0.20080558631870429 0.033909897404034287 -9 0.37580157663508379 2.5408650916807378 -9 0.37580157663508379 2.5408650916807378 -12 -0.91506351183037493 1.5849364925866429 -12 -0.91506351183037493 1.5849364925866429 -12 0.37580157663508379 2.5408650916807378 -9 -1.107852388446384 3.1911857209629071 -12 -0.91506351183037493 1.5849364925866429 -9 -0.91506351183037493 1.5849364925866429 -12 0.37580157663508379 2.5408650916807378 -12 -1.107852388446384 3.1911857209629071 -12 0.37580157663508379 2.5408650916807378 -9 0.20080558631870429 0.033909897404034287 -12 -2.2735805010731909 0.22641949675281539 -12 -0.91506351183037493 1.5849364925866429 -12 -0.91506351183037493 1.5849364925866429 -15 0.37580157663508379 2.5408650916807378 -12 0.20080558631870429 0.033909897404034287 -12 -0.91506351183037493 1.5849364925866429 -12 -0.91506351183037493 1.5849364925866429 -15 -0.66987297914647026 -2.499999999706382 -12 -2.2735805010731909 0.22641949675281539 -12 0.20080558631870429 0.033909897404034287 -12 0.20080558631870429 0.033909897404034287 -15 2.3883545080289421 -0.94497882694672608 -12 0.20080558631870429 0.033909897404034287 -12 2.465848112410058 1.4099871989758821 -12 2.465848112410058 1.4099871989758821 -15 0.20080558631870429 0.033909897404034287 -12 2.3883545080289421 -0.94497882694672608 -12 0.95458002071209891 -1.657898275923388 -12 0.95458002071209891 -1.657898275923388 -15 0.37580157663508379 2.5408650916807378 -12 2.4999999879139869 4.3301270259000564 -12 2.465848112410058 1.4099871989758821 -12 2.465848112410058 1.4099871989758821 -15 0.20080558631870429 0.033909897404034287 -12 0.37580157663508379 2.5408650916807378 -12 2.465848112410058 1.4099871989758821 -12 2.465848112410058 1.4099871989758821 -15 0.37580157663508379 2.5408650916807378 -15 0.20080558631870429 0.033909897404034287 -12 2.465848112410058 1.4099871989758821 -15 0.37580157663508379 2.5408650916807378 -12 0.37580157663508379 2.5408650916807378 -15 0.20080558631870429 0.033909897404034287 -15 2.465848112410058 1.4099871989758821 -15 0.20080558631870429 0.033909897404034287 -12 0.20080558631870429 0.033909897404034287 -15 2.3883545080289421 -0.94497882694672608 -15 2.465848112410058 1.4099871989758821 -15 2.3883545080289421 -0.94497882694672608 -12 2.3883545080289421 -0.94497882694672608 -12 0.20080558631870429 0.033909897404034287 -12 0.20080558631870429 0.033909897404034287 -15 0.95458002071209891 -1.657898275923388 -15 0.20080558631870429 0.033909897404034287 -15 2.3883545080289421 -0.94497882694672608 -12 2.465848112410058 1.4099871989758821 -15 0.20080558631870429 0.033909897404034287 -12 2.3883545080289421 -0.94497882694672608 -15 0.20080558631870429 0.033909897404034287 -15 0.95458002071209891 -1.657898275923388 -15 2.3883545080289421 -0.94497882694672608 -12 -2.2735805010731909 0.22641949675281539 -12 -0.66987297914647026 -2.499999999706382 -12 -0.66987297914647026 -2.499999999706382 -15 0.20080558631870429 0.033909897404034287 -15 -2.2735805010731909 0.22641949675281539 -12 0.20080558631870429 0.033909897404034287 -12 0.20080558631870429 0.033909897404034287 -15 -0.91506351183037493 1.5849364925866429 -15 0.20080558631870429 0.033909897404034287 -15 -0.66987297914647026 -2.499999999706382 -12 0.95458002071209891 -1.657898275923388 -15 0.20080558631870429 0.033909897404034287 -12 0.20080558631870429 0.033909897404034287 -12 0.37580157663508379 2.5408650916807378 -12 0.37580157663508379 2.5408650916807378 -15 -0.91506351183037493 1.5849364925866429 -15 -0.91506351183037493 1.5849364925866429 -15 0.37580157663508379 2.5408650916807378 -15 -1.107852388446384 3.1911857209629071 -15 0.37580157663508379 2.5408650916807378 -12 -0.91506351183037493 1.5849364925866429 -15 0.37580157663508379 2.5408650916807378 -12 -1.107852388446384 3.1911857209629071 -15 -0.91506351183037493 1.5849364925866429 -12 0.20080558631870429 0.033909897404034287 -15 0.37580157663508379 2.5408650916807378 -15 -0.91506351183037493 1.5849364925866429 -15 0.20080558631870429 0.033909897404034287 -12 -2.2735805010731909 0.22641949675281539 -12 -0.91506351183037493 1.5849364925866429 -12 -0.91506351183037493 1.5849364925866429 -15 -2.2253246846922492 2.366533744740174 -15 -2.2735805010731909 0.22641949675281539 -15 -0.91506351183037493 1.5849364925866429 -15 -2.2253246846922492 2.366533744740174 -15 -2.2735805010731909 0.22641949675281539 -12 -4.3301270221112951 2.4999999944763132 -12 -2.2735805010731909 0.22641949675281539 -12 -2.2735805010731909 0.22641949675281539 -15 -2.2253246846922492 2.366533744740174 -15 -0.91506351183037493 1.5849364925866429 -15 -1.107852388446384 3.1911857209629071 -15 -2.2253246846922492 2.366533744740174 -15 -0.91506351183037493 1.5849364925866429 -12 -0.91506351183037493 1.5849364925866429 -12 -2.2735805010731909 0.22641949675281539 -12 -2.2253246846922492 2.366533744740174 -12 -2.2253246846922492 2.366533744740174 -15 -2.2735805010731909 0.22641949675281539 -12 -4.3301270221112951 2.4999999944763132 -12 -2.2253246846922492 2.366533744740174 -12 -2.2253246846922492 2.366533744740174 -15 -1.107852388446384 3.1911857209629071 -12 -0.91506351183037493 1.5849364925866429 -12 -2.2253246846922492 2.366533744740174 -12 -2.2253246846922492 2.366533744740174 -15 -0.66987297914647026 -2.499999999706382 -15 -2.2735805010731909 0.22641949675281539 -15 -2.9547160992544761 -1.820741508163664 -15 -2.2735805010731909 0.22641949675281539 -12 -2.2735805010731909 0.22641949675281539 -15 0.20080558631870429 0.033909897404034287 -15 -0.91506351183037493 1.5849364925866429 -15 -2.2735805010731909 0.22641949675281539 -12 -2.2735805010731909 0.22641949675281539 -15 -0.66987297914647026 -2.499999999706382 -15 0.20080558631870429 0.033909897404034287 -15 -2.2735805010731909 0.22641949675281539 -12 -5 -1.397247784140632e-08 -15 -4.3301270160527148 -2.500000004970083 -12 -2.9547160992544761 -1.820741508163664 -15 -5 -1.397247784140632e-08 -12 -2.2735805010731909 0.22641949675281539 -15 -5 -1.397247784140632e-08 -12 -2.9547160992544761 -1.820741508163664 -15 -2.2735805010731909 0.22641949675281539 -12 -2.2735805010731909 0.22641949675281539 -15 -5 -1.397247784140632e-08 -15 -2.9547160992544761 -1.820741508163664 -15 -5 -1.397247784140632e-08 -12 -5 -1.397247784140632e-08 -12 -2.2735805010731909 0.22641949675281539 -12 -2.9547160992544761 -1.820741508163664 -12 -2.9547160992544761 -1.820741508163664 -15 -5 -1.397247784140632e-08 -12 -4.3301270221112951 2.4999999944763132 -12 -2.2735805010731909 0.22641949675281539 -12 -2.2735805010731909 0.22641949675281539 -15 -4.3301270221112951 2.4999999944763132 -15 -5 -1.397247784140632e-08 -15 -2.2735805010731909 0.22641949675281539 -15 -5 -1.397247784140632e-08 -12 -4.3301270221112951 2.4999999944763132 -15 -5 -1.397247784140632e-08 -12 -2.2735805010731909 0.22641949675281539 -15 -4.3301270221112951 2.4999999944763132 -12 -4.3301270221112951 2.4999999944763132 -15 -2.2735805010731909 0.22641949675281539 -15 -2.2253246846922492 2.366533744740174 -15 -4.3301270221112951 2.4999999944763132 -12 -2.4999999999999991 4.3301270189221936 -15 -4.3301270221112951 2.4999999944763132 -15 -2.2253246846922492 2.366533744740174 -15 -4.3301270221112951 2.4999999944763132 -12 -0.91506351183037493 1.5849364925866429 -12 -1.107852388446384 3.1911857209629071 -12 -1.107852388446384 3.1911857209629071 -15 -2.2253246846922492 2.366533744740174 -15 -2.4999999999999991 4.3301270189221936 -15 -4.3301270221112951 2.4999999944763132 -12 -2.2253246846922492 2.366533744740174 -15 -2.4999999999999991 4.3301270189221936 -12 -1.107852388446384 3.1911857209629071 -15 -2.4999999999999991 4.3301270189221936 -15 -2.2253246846922492 2.366533744740174 -15 -2.4999999999999991 4.3301270189221936 -12 -1.107852388446384 3.1911857209629071 -15 -2.4999999999999991 4.3301270189221936 -12 -2.2253246846922492 2.366533744740174 -15 -1.107852388446384 3.1911857209629071 -12 -6.2995949836986492e-09 5 -15 -2.4999999999999991 4.3301270189221936 -15 -1.107852388446384 3.1911857209629071 -15 -2.4999999999999991 4.3301270189221936 -12 -2.4999999999999991 4.3301270189221936 -12 -1.107852388446384 3.1911857209629071 -12 -2.2253246846922492 2.366533744740174 -12 -2.2253246846922492 2.366533744740174 -15 -4.3301270221112951 2.4999999944763132 -12 -2.4999999999999991 4.3301270189221936 -12 -2.2253246846922492 2.366533744740174 -12 -2.2253246846922492 2.366533744740174 -15 -2.4999999999999991 4.3301270189221936 -12 -4.3301270221112951 2.4999999944763132 -12 -2.2253246846922492 2.366533744740174 -12 -4.3301270221112951 2.4999999944763132 -9 -6.2995949836986492e-09 5 -12 -2.4999999999999991 4.3301270189221936 -12 -1.107852388446384 3.1911857209629071 -12 -2.4999999999999991 4.3301270189221936 -9 -0.91506351183037493 1.5849364925866429 -9 -1.107852388446384 3.1911857209629071 -9 -1.107852388446384 3.1911857209629071 -12 -2.2253246846922492 2.366533744740174 -12 -2.4999999999999991 4.3301270189221936 -12 -4.3301270221112951 2.4999999944763132 -9 -2.2253246846922492 2.366533744740174 -12 -2.4999999999999991 4.3301270189221936 -9 -4.3301270221112951 2.4999999944763132 -9 -2.4999999999999991 4.3301270189221936 -9 -2.2253246846922492 2.366533744740174 -9 -2.2253246846922492 2.366533744740174 -12 -2.4999999999999991 4.3301270189221936 -9 -1.107852388446384 3.1911857209629071 -9 -2.2253246846922492 2.366533744740174 -9 -2.2253246846922492 2.366533744740174 -12 -1.107852388446384 3.1911857209629071 -12 -2.4999999999999991 4.3301270189221936 -12 -2.2253246846922492 2.366533744740174 -12 -2.4999999999999991 4.3301270189221936 -9 -1.107852388446384 3.1911857209629071 -12 -2.4999999999999991 4.3301270189221936 -9 -2.2253246846922492 2.366533744740174 -12 -1.107852388446384 3.1911857209629071 -9 -6.2995949836986492e-09 5 -9 -2.4999999999999991 4.3301270189221936 -9 -1.107852388446384 3.1911857209629071 -9 -2.4999999999999991 4.3301270189221936 -6 -1.107852388446384 3.1911857209629071 -9 -2.4999999999999991 4.3301270189221936 -9 -2.2253246846922492 2.366533744740174 -9 -2.4999999999999991 4.3301270189221936 -6 -2.4999999999999991 4.3301270189221936 -9 -4.3301270221112951 2.4999999944763132 -9 -2.2253246846922492 2.366533744740174 -9 -4.3301270221112951 2.4999999944763132 -6 -6.2995949836986492e-09 5 -12 -2.4999999999999991 4.3301270189221936 -9 -1.107852388446384 3.1911857209629071 -12 -6.2995949836986492e-09 5 -9 2.4999999879139869 4.3301270259000564 -9 -6.2995949836986492e-09 5 -9 0.37580157663508379 2.5408650916807378 -9 -6.2995949836986492e-09 5 -6 2.4999999879139869 4.3301270259000564 -9 0.37580157663508379 2.5408650916807378 -9 2.465848112410058 1.4099871989758821 -9 2.4999999879139869 4.3301270259000564 -6 0.37580157663508379 2.5408650916807378 -9 -6.2995949836986492e-09 5 -9 -1.107852388446384 3.1911857209629071 -9 -6.2995949836986492e-09 5 -6 0.37580157663508379 2.5408650916807378 -9 -0.91506351183037493 1.5849364925866429 -9 -1.107852388446384 3.1911857209629071 -9 -1.107852388446384 3.1911857209629071 -12 0.37580157663508379 2.5408650916807378 -12 -6.2995949836986492e-09 5 -9 -1.107852388446384 3.1911857209629071 -12 0.37580157663508379 2.5408650916807378 -9 0.37580157663508379 2.5408650916807378 -12 -6.2995949836986492e-09 5 -12 -1.107852388446384 3.1911857209629071 -12 -6.2995949836986492e-09 5 -9 -2.4999999999999991 4.3301270189221936 -9 -6.2995949836986492e-09 5 -9 -1.107852388446384 3.1911857209629071 -9 -1.107852388446384 3.1911857209629071 -12 -6.2995949836986492e-09 5 -9 0.37580157663508379 2.5408650916807378 -9 -1.107852388446384 3.1911857209629071 -9 -1.107852388446384 3.1911857209629071 -12 2.4999999879139869 4.3301270259000564 -12 0.37580157663508379 2.5408650916807378 -12 2.465848112410058 1.4099871989758821 -12 2.4999999879139869 4.3301270259000564 -9 -6.2995949836986492e-09 5 -9 2.4999999879139869 4.3301270259000564 -9 0.37580157663508379 2.5408650916807378 -9 0.37580157663508379 2.5408650916807378 -12 2.4999999879139869 4.3301270259000564 -12 -6.2995949836986492e-09 5 -12 0.37580157663508379 2.5408650916807378 -12 -6.2995949836986492e-09 5 -9 2.4999999879139869 4.3301270259000564 -12 -6.2995949836986492e-09 5 -9 0.37580157663508379 2.5408650916807378 -12 2.4999999879139869 4.3301270259000564 -9 2.4999999879139869 4.3301270259000564 -9 0.37580157663508379 2.5408650916807378 -9 0.37580157663508379 2.5408650916807378 -12 2.465848112410058 1.4099871989758821 -12 -6.2995949836986492e-09 5 -12 2.4999999879139869 4.3301270259000564 -12 0.37580157663508379 2.5408650916807378 -12 0.37580157663508379 2.5408650916807378 -15 -2.4999999999999991 4.3301270189221936 -12 -6.2995949836986492e-09 5 -12 -1.107852388446384 3.1911857209629071 -12 -1.107852388446384 3.1911857209629071 -15 0.37580157663508379 2.5408650916807378 -12 -0.91506351183037493 1.5849364925866429 -12 -1.107852388446384 3.1911857209629071 -12 -1.107852388446384 3.1911857209629071 -15 -6.2995949836986492e-09 5 -12 0.37580157663508379 2.5408650916807378 -12 -1.107852388446384 3.1911857209629071 -12 -1.107852388446384 3.1911857209629071 -15 0.37580157663508379 2.5408650916807378 -15 -6.2995949836986492e-09 5 -12 -1.107852388446384 3.1911857209629071 -15 0.37580157663508379 2.5408650916807378 -12 0.37580157663508379 2.5408650916807378 -15 -6.2995949836986492e-09 5 -15 -1.107852388446384 3.1911857209629071 -15 -6.2995949836986492e-09 5 -12 -6.2995949836986492e-09 5 -15 -2.4999999999999991 4.3301270189221936 -12 -1.107852388446384 3.1911857209629071 -15 -6.2995949836986492e-09 5 -12 2.4999999879139869 4.3301270259000564 -15 -6.2995949836986492e-09 5 -12 0.37580157663508379 2.5408650916807378 -15 2.4999999879139869 4.3301270259000564 -12 2.4999999879139869 4.3301270259000564 -12 0.37580157663508379 2.5408650916807378 -12 0.37580157663508379 2.5408650916807378 -15 2.465848112410058 1.4099871989758821 -15 2.4999999879139869 4.3301270259000564 -15 0.37580157663508379 2.5408650916807378 -15 2.465848112410058 1.4099871989758821 -15 2.4999999879139869 4.3301270259000564 -12 2.4999999879139869 4.3301270259000564 -15 -6.2995949836986492e-09 5 -15 0.37580157663508379 2.5408650916807378 -15 -6.2995949836986492e-09 5 -12 4.3301270155636349 2.5000000058171929 -15 2.4999999879139869 4.3301270259000564 -12 2.465848112410058 1.4099871989758821 -15 4.3301270155636349 2.5000000058171929 -12 4.3301270155636349 2.5000000058171929 -15 2.4999999879139869 4.3301270259000564 -15 2.465848112410058 1.4099871989758821 -15 2.4999999879139869 4.3301270259000564 -12 4.3301270155636349 2.5000000058171929 -12 2.4999999879139869 4.3301270259000564 -9 2.465848112410058 1.4099871989758821 -12 4.3301270155636349 2.5000000058171929 -9 4.3301270155636349 2.5000000058171929 -12 2.4999999879139869 4.3301270259000564 -12 2.465848112410058 1.4099871989758821 -12 2.4999999879139869 4.3301270259000564 -9 4.3301270155636349 2.5000000058171929 -9 2.4999999879139869 4.3301270259000564 -9 2.465848112410058 1.4099871989758821 -9 2.4999999879139869 4.3301270259000564 -6 2.500000010727558 -4.3301270127286351 -15 4.3301270218486989 -2.4999999949311431 -12 2.217625015551433 -2.5696135239339939 -15 2.500000010727558 -4.3301270127286351 -12 4.3301270218486989 -2.4999999949311431 -12 2.500000010727558 -4.3301270127286351 -12 2.217625015551433 -2.5696135239339939 -12 2.217625015551433 -2.5696135239339939 -15 2.3883545080289421 -0.94497882694672608 -12 4.3301270218486989 -2.4999999949311431 -12 2.217625015551433 -2.5696135239339939 -12 2.217625015551433 -2.5696135239339939 -15 2.500000010727558 -4.3301270127286351 -15 4.3301270218486989 -2.4999999949311431 -15 2.217625015551433 -2.5696135239339939 -15 4.3301270218486989 -2.4999999949311431 -12 4.3301270218486989 -2.4999999949311431 -12 2.3883545080289421 -0.94497882694672608 -12 2.3883545080289421 -0.94497882694672608 -15 2.217625015551433 -2.5696135239339939 -15 4.3301270218486989 -2.4999999949311431 -15 2.3883545080289421 -0.94497882694672608 -15 2.217625015551433 -2.5696135239339939 -15 4.3301270218486989 -2.4999999949311431 -12 4.3301270218486989 -2.4999999949311431 -15 5 0 -12 2.3883545080289421 -0.94497882694672608 -15 4.3301270218486989 -2.4999999949311431 -12 4.3301270218486989 -2.4999999949311431 -15 5 0 -15 2.3883545080289421 -0.94497882694672608 -15 5 0 -12 2.3883545080289421 -0.94497882694672608 -15 5 0 -15 2.465848112410058 1.4099871989758821 -15 5 0 -12 2.3883545080289421 -0.94497882694672608 -15 5 0 -12 2.465848112410058 1.4099871989758821 -15 2.3883545080289421 -0.94497882694672608 -12 5 0 -15 4.3301270155636349 2.5000000058171929 -15 2.465848112410058 1.4099871989758821 -15 4.3301270155636349 2.5000000058171929 -12 5 0 -15 4.3301270155636349 2.5000000058171929 -12 2.465848112410058 1.4099871989758821 -15 5 0 -12 2.4999999879139869 4.3301270259000564 -12 4.3301270155636349 2.5000000058171929 -12 2.465848112410058 1.4099871989758821 -12 2.465848112410058 1.4099871989758821 -15 4.3301270155636349 2.5000000058171929 -12 5 0 -12 2.465848112410058 1.4099871989758821 -12 2.465848112410058 1.4099871989758821 -15 5 0 -12 4.3301270218486989 -2.4999999949311431 -12 2.3883545080289421 -0.94497882694672608 -12 2.3883545080289421 -0.94497882694672608 -15 5 0 -12 2.3883545080289421 -0.94497882694672608 -12 2.465848112410058 1.4099871989758821 -12 2.465848112410058 1.4099871989758821 -15 5 0 -9 4.3301270218486989 -2.4999999949311431 -9 2.3883545080289421 -0.94497882694672608 -9 2.3883545080289421 -0.94497882694672608 -12 4.3301270218486989 -2.4999999949311431 -12 5 0 -12 2.3883545080289421 -0.94497882694672608 -12 5 0 -9 2.3883545080289421 -0.94497882694672608 -12 5 0 -9 2.465848112410058 1.4099871989758821 -12 2.3883545080289421 -0.94497882694672608 -9 5 0 -9 2.3883545080289421 -0.94497882694672608 -9 2.465848112410058 1.4099871989758821 -9 2.465848112410058 1.4099871989758821 -12 2.3883545080289421 -0.94497882694672608 -12 5 0 -12 2.465848112410058 1.4099871989758821 -12 5 0 -9 2.4999999879139869 4.3301270259000564 -9 4.3301270155636349 2.5000000058171929 -9 2.465848112410058 1.4099871989758821 -9 2.465848112410058 1.4099871989758821 -12 5 0 -12 4.3301270155636349 2.5000000058171929 -9 2.465848112410058 1.4099871989758821 -12 5 0 -9 5 0 -12 4.3301270155636349 2.5000000058171929 -12 2.465848112410058 1.4099871989758821 -12 4.3301270155636349 2.5000000058171929 -9 4.3301270155636349 2.5000000058171929 -9 5 0 -9 2.465848112410058 1.4099871989758821 -9 2.465848112410058 1.4099871989758821 -12 5 0 -9 4.3301270155636349 2.5000000058171929 -9 2.465848112410058 1.4099871989758821 -9 4.3301270155636349 2.5000000058171929 -6 4.3301270218486989 -2.4999999949311431 -9 5 0 -9 2.3883545080289421 -0.94497882694672608 -9 5 0 -6 2.3883545080289421 -0.94497882694672608 -9 5 0 -9 2.465848112410058 1.4099871989758821 -9 5 0 -6 4.3301270218486989 -2.4999999949311431 -9 2.3883545080289421 -0.94497882694672608 -9 2.217625015551433 -2.5696135239339939 -9 4.3301270218486989 -2.4999999949311431 -6 2.500000010727558 -4.3301270127286351 -9 4.3301270218486989 -2.4999999949311431 -9 2.217625015551433 -2.5696135239339939 -9 4.3301270218486989 -2.4999999949311431 -6 4.3301270218486989 -2.4999999949311431 -12 2.3883545080289421 -0.94497882694672608 -12 2.217625015551433 -2.5696135239339939 -12 4.3301270218486989 -2.4999999949311431 -9 2.3883545080289421 -0.94497882694672608 -9 4.3301270218486989 -2.4999999949311431 -9 2.217625015551433 -2.5696135239339939 -9 2.217625015551433 -2.5696135239339939 -12 4.3301270218486989 -2.4999999949311431 -12 5 0 -9 2.3883545080289421 -0.94497882694672608 -12 4.3301270218486989 -2.4999999949311431 -9 4.3301270218486989 -2.4999999949311431 -9 2.3883545080289421 -0.94497882694672608 -9 2.3883545080289421 -0.94497882694672608 -12 2.217625015551433 -2.5696135239339939 -12 4.3301270218486989 -2.4999999949311431 -9 2.500000010727558 -4.3301270127286351 -9 2.217625015551433 -2.5696135239339939 -9 2.217625015551433 -2.5696135239339939 -12 2.500000010727558 -4.3301270127286351 -12 4.3301270218486989 -2.4999999949311431 -12 2.217625015551433 -2.5696135239339939 -12 4.3301270218486989 -2.4999999949311431 -9 2.500000010727558 -4.3301270127286351 -12 4.3301270218486989 -2.4999999949311431 -9 2.217625015551433 -2.5696135239339939 -12 2.500000010727558 -4.3301270127286351 -9 2.500000010727558 -4.3301270127286351 -9 4.3301270218486989 -2.4999999949311431 -6 2.217625015551433 -2.5696135239339939 -9 2.500000010727558 -4.3301270127286351 -6 2.500000010727558 -4.3301270127286351 -6 4.3301270218486989 -2.4999999949311431 -3 2.217625015551433 -2.5696135239339939 -6 2.500000010727558 -4.3301270127286351 -3 4.3301270218486989 -2.4999999949311431 -3 2.3883545080289421 -0.94497882694672608 -3 2.3883545080289421 -0.94497882694672608 -6 2.217625015551433 -2.5696135239339939 -6 4.3301270218486989 -2.4999999949311431 -6 2.3883545080289421 -0.94497882694672608 -6 2.217625015551433 -2.5696135239339939 -6 4.3301270218486989 -2.4999999949311431 -3 4.3301270218486989 -2.4999999949311431 -6 5 0 -3 2.3883545080289421 -0.94497882694672608 -6 4.3301270218486989 -2.4999999949311431 -3 2.500000010727558 -4.3301270127286351 -6 4.3301270218486989 -2.4999999949311431 -6 2.217625015551433 -2.5696135239339939 -6 4.3301270218486989 -2.4999999949311431 -3 4.3301270218486989 -2.4999999949311431 -6 2.500000010727558 -4.3301270127286351 -6 2.217625015551433 -2.5696135239339939 -6 2.217625015551433 -2.5696135239339939 -9 2.3883545080289421 -0.94497882694672608 -6 4.3301270218486989 -2.4999999949311431 -6 2.217625015551433 -2.5696135239339939 -6 2.217625015551433 -2.5696135239339939 -9 4.3301270218486989 -2.4999999949311431 -9 5 0 -6 2.3883545080289421 -0.94497882694672608 -9 4.3301270218486989 -2.4999999949311431 -6 4.3301270218486989 -2.4999999949311431 -6 2.3883545080289421 -0.94497882694672608 -6 2.3883545080289421 -0.94497882694672608 -9 2.217625015551433 -2.5696135239339939 -9 2.3883545080289421 -0.94497882694672608 -9 5 0 -6 2.465848112410058 1.4099871989758821 -9 2.3883545080289421 -0.94497882694672608 -6 5 0 -6 4.3301270218486989 -2.4999999949311431 -6 2.3883545080289421 -0.94497882694672608 -6 2.3883545080289421 -0.94497882694672608 -9 5 0 -6 2.3883545080289421 -0.94497882694672608 -6 2.465848112410058 1.4099871989758821 -6 2.465848112410058 1.4099871989758821 -9 5 0 -9 4.3301270155636349 2.5000000058171929 -6 2.465848112410058 1.4099871989758821 -9 5 0 -6 4.3301270155636349 2.5000000058171929 -6 5 0 -6 2.465848112410058 1.4099871989758821 -6 2.465848112410058 1.4099871989758821 -9 2.4999999879139869 4.3301270259000564 -6 4.3301270155636349 2.5000000058171929 -6 2.465848112410058 1.4099871989758821 -6 2.465848112410058 1.4099871989758821 -9 5 0 -6 4.3301270155636349 2.5000000058171929 -3 2.465848112410058 1.4099871989758821 -6 5 0 -3 5 0 -6 4.3301270155636349 2.5000000058171929 -6 2.465848112410058 1.4099871989758821 -6 4.3301270155636349 2.5000000058171929 -3 2.3883545080289421 -0.94497882694672608 -6 5 0 -6 2.465848112410058 1.4099871989758821 -6 5 0 -3 2.3883545080289421 -0.94497882694672608 -6 5 0 -3 2.465848112410058 1.4099871989758821 -6 2.3883545080289421 -0.94497882694672608 -3 4.3301270218486989 -2.4999999949311431 -6 5 0 -6 2.3883545080289421 -0.94497882694672608 -6 5 0 -3 5 0 -3 2.3883545080289421 -0.94497882694672608 -3 2.465848112410058 1.4099871989758821 -3 2.465848112410058 1.4099871989758821 -6 2.3883545080289421 -0.94497882694672608 -3 5 0 -3 2.465848112410058 1.4099871989758821 -3 5 0 0 4.3301270218486989 -2.4999999949311431 -3 5 0 -3 2.3883545080289421 -0.94497882694672608 -3 5 0 0 5 0 -3 4.3301270218486989 -2.4999999949311431 -3 2.3883545080289421 -0.94497882694672608 -3 2.3883545080289421 -0.94497882694672608 -6 5 0 -3 4.3301270155636349 2.5000000058171929 -3 2.465848112410058 1.4099871989758821 -3 4.3301270155636349 2.5000000058171929 0 4.3301270155636349 2.5000000058171929 -3 5 0 -3 2.465848112410058 1.4099871989758821 -3 2.465848112410058 1.4099871989758821 -6 2.4999999879139869 4.3301270259000564 -3 4.3301270155636349 2.5000000058171929 -3 2.465848112410058 1.4099871989758821 -3 2.465848112410058 1.4099871989758821 -6 2.4999999879139869 4.3301270259000564 0 4.3301270155636349 2.5000000058171929 0 2.465848112410058 1.4099871989758821 0 2.465848112410058 1.4099871989758821 -3 5 0 -3 4.3301270155636349 2.5000000058171929 0 2.465848112410058 1.4099871989758821 -3 5 0 0 4.3301270155636349 2.5000000058171929 0 5 0 0 2.465848112410058 1.4099871989758821 0 2.465848112410058 1.4099871989758821 -3 5 0 0 4.3301270218486989 -2.4999999949311431 0 2.3883545080289421 -0.94497882694672608 0 2.3883545080289421 -0.94497882694672608 -3 5 0 0 2.3883545080289421 -0.94497882694672608 0 2.465848112410058 1.4099871989758821 0 2.465848112410058 1.4099871989758821 -3 2.3883545080289421 -0.94497882694672608 -3 5 0 0 2.465848112410058 1.4099871989758821 -3 2.3883545080289421 -0.94497882694672608 0 4.3301270218486989 -2.4999999949311431 0 2.500000010727558 -4.3301270127286351 0 2.217625015551433 -2.5696135239339939 0 2.217625015551433 -2.5696135239339939 -3 2.3883545080289421 -0.94497882694672608 0 4.3301270218486989 -2.4999999949311431 0 2.217625015551433 -2.5696135239339939 0 2.217625015551433 -2.5696135239339939 -3 4.3301270218486989 -2.4999999949311431 0 2.3883545080289421 -0.94497882694672608 0 2.3883545080289421 -0.94497882694672608 -3 2.217625015551433 -2.5696135239339939 -3 4.3301270218486989 -2.4999999949311431 -3 5 0 0 2.3883545080289421 -0.94497882694672608 -3 4.3301270218486989 -2.4999999949311431 0 4.3301270218486989 -2.4999999949311431 -3 2.500000010727558 -4.3301270127286351 -3 2.217625015551433 -2.5696135239339939 -3 2.217625015551433 -2.5696135239339939 -6 4.3301270218486989 -2.4999999949311431 -3 2.3883545080289421 -0.94497882694672608 -3 2.217625015551433 -2.5696135239339939 -3 4.3301270218486989 -2.4999999949311431 0 2.3883545080289421 -0.94497882694672608 -3 4.3301270218486989 -2.4999999949311431 -3 2.217625015551433 -2.5696135239339939 -3 2.217625015551433 -2.5696135239339939 -6 2.500000010727558 -4.3301270127286351 -3 4.3301270218486989 -2.4999999949311431 -3 2.217625015551433 -2.5696135239339939 -3 4.3301270218486989 -2.4999999949311431 0 2.500000010727558 -4.3301270127286351 -3 4.3301270218486989 -2.4999999949311431 0 2.217625015551433 -2.5696135239339939 -3 2.500000010727558 -4.3301270127286351 0 4.3301270155636349 2.5000000058171929 -9 2.4999999879139869 4.3301270259000564 -6 2.465848112410058 1.4099871989758821 -9 4.3301270155636349 2.5000000058171929 -6 4.3301270155636349 2.5000000058171929 -6 2.4999999879139869 4.3301270259000564 -6 2.465848112410058 1.4099871989758821 -6 2.4999999879139869 4.3301270259000564 -3 4.3301270155636349 2.5000000058171929 -6 2.4999999879139869 4.3301270259000564 -3 2.465848112410058 1.4099871989758821 -6 4.3301270155636349 2.5000000058171929 -3 4.3301270155636349 2.5000000058171929 -3 2.4999999879139869 4.3301270259000564 -3 2.465848112410058 1.4099871989758821 -3 2.4999999879139869 4.3301270259000564 0 4.3301270155636349 2.5000000058171929 -3 2.4999999879139869 4.3301270259000564 0 2.465848112410058 1.4099871989758821 -3 4.3301270155636349 2.5000000058171929 0 -6.2995949836986492e-09 5 0 2.4999999879139869 4.3301270259000564 0 0.37580157663508379 2.5408650916807378 0 0.37580157663508379 2.5408650916807378 -3 2.4999999879139869 4.3301270259000564 0 0.37580157663508379 2.5408650916807378 0 0.37580157663508379 2.5408650916807378 -3 2.465848112410058 1.4099871989758821 -3 2.4999999879139869 4.3301270259000564 -3 -6.2995949836986492e-09 5 0 0.37580157663508379 2.5408650916807378 -3 2.4999999879139869 4.3301270259000564 0 -6.2995949836986492e-09 5 -3 -2.4999999999999991 4.3301270189221936 0 -1.107852388446384 3.1911857209629071 -3 -6.2995949836986492e-09 5 0 -6.2995949836986492e-09 5 0 0.37580157663508379 2.5408650916807378 0 -1.107852388446384 3.1911857209629071 0 -1.107852388446384 3.1911857209629071 -3 -2.4999999999999991 4.3301270189221936 0 -6.2995949836986492e-09 5 0 -1.107852388446384 3.1911857209629071 0 -1.107852388446384 3.1911857209629071 -3 0.37580157663508379 2.5408650916807378 -3 -6.2995949836986492e-09 5 0 -1.107852388446384 3.1911857209629071 -3 0.37580157663508379 2.5408650916807378 0 0.37580157663508379 2.5408650916807378 0 -0.91506351183037493 1.5849364925866429 0 -1.107852388446384 3.1911857209629071 0 -1.107852388446384 3.1911857209629071 -3 0.37580157663508379 2.5408650916807378 -3 -6.2995949836986492e-09 5 -3 -1.107852388446384 3.1911857209629071 -3 -6.2995949836986492e-09 5 0 2.4999999879139869 4.3301270259000564 -3 -6.2995949836986492e-09 5 -3 0.37580157663508379 2.5408650916807378 -3 -6.2995949836986492e-09 5 0 2.4999999879139869 4.3301270259000564 -3 0.37580157663508379 2.5408650916807378 -3 2.465848112410058 1.4099871989758821 -3 2.4999999879139869 4.3301270259000564 0 2.4999999879139869 4.3301270259000564 -3 0.37580157663508379 2.5408650916807378 -3 0.37580157663508379 2.5408650916807378 -6 2.465848112410058 1.4099871989758821 -6 2.4999999879139869 4.3301270259000564 -6 0.37580157663508379 2.5408650916807378 -6 2.465848112410058 1.4099871989758821 -6 2.4999999879139869 4.3301270259000564 -3 2.4999999879139869 4.3301270259000564 -6 -6.2995949836986492e-09 5 -3 0.37580157663508379 2.5408650916807378 -6 2.4999999879139869 4.3301270259000564 -3 2.4999999879139869 4.3301270259000564 -6 -6.2995949836986492e-09 5 -6 0.37580157663508379 2.5408650916807378 -6 -6.2995949836986492e-09 5 -3 -6.2995949836986492e-09 5 -3 2.4999999879139869 4.3301270259000564 -3 0.37580157663508379 2.5408650916807378 -3 0.37580157663508379 2.5408650916807378 -6 0.37580157663508379 2.5408650916807378 -3 -0.91506351183037493 1.5849364925866429 -3 -1.107852388446384 3.1911857209629071 -3 -1.107852388446384 3.1911857209629071 -6 -6.2995949836986492e-09 5 -3 0.37580157663508379 2.5408650916807378 -3 -1.107852388446384 3.1911857209629071 -3 -1.107852388446384 3.1911857209629071 -6 0.37580157663508379 2.5408650916807378 -6 -6.2995949836986492e-09 5 -6 -1.107852388446384 3.1911857209629071 -6 -6.2995949836986492e-09 5 -3 0.37580157663508379 2.5408650916807378 -6 -6.2995949836986492e-09 5 -3 -1.107852388446384 3.1911857209629071 -6 0.37580157663508379 2.5408650916807378 -3 -2.4999999999999991 4.3301270189221936 -3 -6.2995949836986492e-09 5 -3 -1.107852388446384 3.1911857209629071 -3 -1.107852388446384 3.1911857209629071 -6 -6.2995949836986492e-09 5 -6 0.37580157663508379 2.5408650916807378 -6 -1.107852388446384 3.1911857209629071 -6 -1.107852388446384 3.1911857209629071 -9 -2.4999999999999991 4.3301270189221936 -6 -6.2995949836986492e-09 5 -6 -1.107852388446384 3.1911857209629071 -6 -1.107852388446384 3.1911857209629071 -9 0.37580157663508379 2.5408650916807378 -9 -6.2995949836986492e-09 5 -6 -1.107852388446384 3.1911857209629071 -9 0.37580157663508379 2.5408650916807378 -6 0.37580157663508379 2.5408650916807378 -6 -0.91506351183037493 1.5849364925866429 -6 -1.107852388446384 3.1911857209629071 -6 -1.107852388446384 3.1911857209629071 -9 2.4999999879139869 4.3301270259000564 -9 -6.2995949836986492e-09 5 -6 0.37580157663508379 2.5408650916807378 -9 2.4999999879139869 4.3301270259000564 -6 -6.2995949836986492e-09 5 -6 2.4999999879139869 4.3301270259000564 -6 0.37580157663508379 2.5408650916807378 -6 0.37580157663508379 2.5408650916807378 -9 2.4999999879139869 4.3301270259000564 -6 0.37580157663508379 2.5408650916807378 -6 0.37580157663508379 2.5408650916807378 -9 2.465848112410058 1.4099871989758821 -9 -6.2995949836986492e-09 5 -9 -2.4999999999999991 4.3301270189221936 -6 -1.107852388446384 3.1911857209629071 -9 -6.2995949836986492e-09 5 -6 -6.2995949836986492e-09 5 -6 -2.4999999999999991 4.3301270189221936 -3 -1.107852388446384 3.1911857209629071 -6 -6.2995949836986492e-09 5 -3 -2.4999999999999991 4.3301270189221936 -6 -1.107852388446384 3.1911857209629071 -6 -2.2253246846922492 2.366533744740174 -6 -2.2253246846922492 2.366533744740174 -9 -0.91506351183037493 1.5849364925866429 -6 -1.107852388446384 3.1911857209629071 -6 -1.107852388446384 3.1911857209629071 -9 -2.2253246846922492 2.366533744740174 -9 -1.107852388446384 3.1911857209629071 -9 -2.4999999999999991 4.3301270189221936 -6 -2.2253246846922492 2.366533744740174 -9 -1.107852388446384 3.1911857209629071 -6 -2.4999999999999991 4.3301270189221936 -9 -4.3301270221112951 2.4999999944763132 -6 -2.2253246846922492 2.366533744740174 -9 -2.4999999999999991 4.3301270189221936 -6 -4.3301270221112951 2.4999999944763132 -6 -2.4999999999999991 4.3301270189221936 -6 -2.2253246846922492 2.366533744740174 -6 -2.2253246846922492 2.366533744740174 -9 -0.91506351183037493 1.5849364925866429 -3 -1.107852388446384 3.1911857209629071 -3 -1.107852388446384 3.1911857209629071 -6 -2.2253246846922492 2.366533744740174 -6 -1.107852388446384 3.1911857209629071 -6 -2.4999999999999991 4.3301270189221936 -6 -2.2253246846922492 2.366533744740174 -6 -2.4999999999999991 4.3301270189221936 -3 -6.2995949836986492e-09 5 -6 -2.4999999999999991 4.3301270189221936 -6 -1.107852388446384 3.1911857209629071 -6 -2.4999999999999991 4.3301270189221936 -3 -2.4999999999999991 4.3301270189221936 -3 -1.107852388446384 3.1911857209629071 -3 -2.2253246846922492 2.366533744740174 -3 -2.2253246846922492 2.366533744740174 -6 -1.107852388446384 3.1911857209629071 -6 -2.4999999999999991 4.3301270189221936 -3 -2.2253246846922492 2.366533744740174 -6 -1.107852388446384 3.1911857209629071 -3 -2.4999999999999991 4.3301270189221936 -6 -4.3301270221112951 2.4999999944763132 -3 -2.2253246846922492 2.366533744740174 -6 -2.4999999999999991 4.3301270189221936 -3 -4.3301270221112951 2.4999999944763132 -3 -2.4999999999999991 4.3301270189221936 -3 -2.2253246846922492 2.366533744740174 -3 -2.2253246846922492 2.366533744740174 -6 -2.4999999999999991 4.3301270189221936 -6 -4.3301270221112951 2.4999999944763132 -6 -2.2253246846922492 2.366533744740174 -6 -4.3301270221112951 2.4999999944763132 -3 -2.4999999999999991 4.3301270189221936 -3 -4.3301270221112951 2.4999999944763132 -3 -2.2253246846922492 2.366533744740174 -3 -4.3301270221112951 2.4999999944763132 0 -1.107852388446384 3.1911857209629071 -3 -2.4999999999999991 4.3301270189221936 -3 -2.2253246846922492 2.366533744740174 -3 -2.4999999999999991 4.3301270189221936 0 -6.2995949836986492e-09 5 -3 -2.4999999999999991 4.3301270189221936 -3 -1.107852388446384 3.1911857209629071 -3 -2.4999999999999991 4.3301270189221936 0 -4.3301270221112951 2.4999999944763132 0 -2.4999999999999991 4.3301270189221936 0 -2.2253246846922492 2.366533744740174 0 -2.2253246846922492 2.366533744740174 -3 -0.91506351183037493 1.5849364925866429 0 -1.107852388446384 3.1911857209629071 0 -1.107852388446384 3.1911857209629071 -3 -2.2253246846922492 2.366533744740174 -3 -2.4999999999999991 4.3301270189221936 -3 -4.3301270221112951 2.4999999944763132 0 -2.2253246846922492 2.366533744740174 -3 -2.4999999999999991 4.3301270189221936 0 -1.107852388446384 3.1911857209629071 -3 -2.4999999999999991 4.3301270189221936 0 -2.2253246846922492 2.366533744740174 -3 -1.107852388446384 3.1911857209629071 0 -2.4999999999999991 4.3301270189221936 0 -1.107852388446384 3.1911857209629071 0 -2.2253246846922492 2.366533744740174 0 -2.2253246846922492 2.366533744740174 -3 -5 -1.397247784140632e-08 0 -4.3301270221112951 2.4999999944763132 0 -2.2735805010731909 0.22641949675281539 0 -2.2735805010731909 0.22641949675281539 -3 -4.3301270221112951 2.4999999944763132 -3 -5 -1.397247784140632e-08 0 -2.2735805010731909 0.22641949675281539 -3 -4.3301270221112951 2.4999999944763132 0 -4.3301270221112951 2.4999999944763132 -3 -2.2735805010731909 0.22641949675281539 -3 -2.2253246846922492 2.366533744740174 -3 -4.3301270221112951 2.4999999944763132 0 -4.3301270221112951 2.4999999944763132 -3 -5 -1.397247784140632e-08 -3 -2.2735805010731909 0.22641949675281539 -3 -5 -1.397247784140632e-08 0 -2.2735805010731909 0.22641949675281539 -3 -5 -1.397247784140632e-08 -3 -2.9547160992544761 -1.820741508163664 -3 -5 -1.397247784140632e-08 0 -5 -1.397247784140632e-08 -3 -4.3301270160527148 -2.500000004970083 0 -2.9547160992544761 -1.820741508163664 -3 -5 -1.397247784140632e-08 0 -2.2735805010731909 0.22641949675281539 -3 -5 -1.397247784140632e-08 0 -2.9547160992544761 -1.820741508163664 -3 -2.2735805010731909 0.22641949675281539 0 -5 -1.397247784140632e-08 0 -2.2735805010731909 0.22641949675281539 0 -2.9547160992544761 -1.820741508163664 0 -2.9547160992544761 -1.820741508163664 -3 -0.66987297914647026 -2.499999999706382 -3 -2.2735805010731909 0.22641949675281539 -3 -2.9547160992544761 -1.820741508163664 -3 -2.2735805010731909 0.22641949675281539 0 -2.2735805010731909 0.22641949675281539 -3 -0.66987297914647026 -2.499999999706382 -3 0.20080558631870429 0.033909897404034287 -3 -2.2735805010731909 0.22641949675281539 0 -2.2735805010731909 0.22641949675281539 -3 0.20080558631870429 0.033909897404034287 -3 -0.91506351183037493 1.5849364925866429 -3 -2.2735805010731909 0.22641949675281539 0 -2.2735805010731909 0.22641949675281539 -3 -0.91506351183037493 1.5849364925866429 -3 -2.2253246846922492 2.366533744740174 -3 -2.2735805010731909 0.22641949675281539 0 -0.91506351183037493 1.5849364925866429 -3 -1.107852388446384 3.1911857209629071 -3 -2.2253246846922492 2.366533744740174 -3 -0.91506351183037493 1.5849364925866429 0 -2.2735805010731909 0.22641949675281539 0 -0.91506351183037493 1.5849364925866429 0 -0.91506351183037493 1.5849364925866429 -3 -2.2253246846922492 2.366533744740174 -3 -1.107852388446384 3.1911857209629071 0 -0.91506351183037493 1.5849364925866429 0 -2.2253246846922492 2.366533744740174 0 -2.2253246846922492 2.366533744740174 -3 -4.3301270221112951 2.4999999944763132 0 -2.2735805010731909 0.22641949675281539 0 -2.2735805010731909 0.22641949675281539 -3 -2.2253246846922492 2.366533744740174 -3 -0.91506351183037493 1.5849364925866429 0 -2.2735805010731909 0.22641949675281539 0 -2.2253246846922492 2.366533744740174 0 -2.2253246846922492 2.366533744740174 -3 -2.2735805010731909 0.22641949675281539 0 -4.3301270221112951 2.4999999944763132 0 -2.2253246846922492 2.366533744740174 0 -2.2253246846922492 2.366533744740174 -3 -0.91506351183037493 1.5849364925866429 -3 0.37580157663508379 2.5408650916807378 0 -1.107852388446384 3.1911857209629071 -3 -0.91506351183037493 1.5849364925866429 0 0.37580157663508379 2.5408650916807378 0 0.20080558631870429 0.033909897404034287 0 -0.91506351183037493 1.5849364925866429 0 -0.91506351183037493 1.5849364925866429 -3 0.20080558631870429 0.033909897404034287 0 -2.2735805010731909 0.22641949675281539 0 -0.91506351183037493 1.5849364925866429 0 -0.91506351183037493 1.5849364925866429 -3 0.20080558631870429 0.033909897404034287 0 0.37580157663508379 2.5408650916807378 0 0.37580157663508379 2.5408650916807378 -3 -0.91506351183037493 1.5849364925866429 -3 -0.66987297914647026 -2.499999999706382 0 -2.2735805010731909 0.22641949675281539 0 0.20080558631870429 0.033909897404034287 0 0.20080558631870429 0.033909897404034287 -3 -2.2735805010731909 0.22641949675281539 0 0.20080558631870429 0.033909897404034287 0 0.20080558631870429 0.033909897404034287 -3 -0.91506351183037493 1.5849364925866429 -3 0.20080558631870429 0.033909897404034287 -3 -0.66987297914647026 -2.499999999706382 0 0.95458002071209891 -1.657898275923388 -3 0.20080558631870429 0.033909897404034287 0 -2.2735805010731909 0.22641949675281539 0 -0.66987297914647026 -2.499999999706382 0 -0.66987297914647026 -2.499999999706382 -3 0.20080558631870429 0.033909897404034287 -3 0.20080558631870429 0.033909897404034287 0 2.3883545080289421 -0.94497882694672608 0 0.95458002071209891 -1.657898275923388 0 0.95458002071209891 -1.657898275923388 -3 2.3883545080289421 -0.94497882694672608 0 0.20080558631870429 0.033909897404034287 0 0.20080558631870429 0.033909897404034287 -3 0.95458002071209891 -1.657898275923388 -3 0.20080558631870429 0.033909897404034287 -3 2.3883545080289421 -0.94497882694672608 0 2.465848112410058 1.4099871989758821 -3 0.20080558631870429 0.033909897404034287 0 2.3883545080289421 -0.94497882694672608 0 0.20080558631870429 0.033909897404034287 0 2.465848112410058 1.4099871989758821 0 2.465848112410058 1.4099871989758821 -3 0.37580157663508379 2.5408650916807378 0 2.4999999879139869 4.3301270259000564 0 2.465848112410058 1.4099871989758821 0 2.465848112410058 1.4099871989758821 -3 0.37580157663508379 2.5408650916807378 -3 0.20080558631870429 0.033909897404034287 0 2.465848112410058 1.4099871989758821 -3 0.37580157663508379 2.5408650916807378 0 0.20080558631870429 0.033909897404034287 0 0.37580157663508379 2.5408650916807378 0 2.465848112410058 1.4099871989758821 0 2.465848112410058 1.4099871989758821 -3 0.37580157663508379 2.5408650916807378 -3 0.20080558631870429 0.033909897404034287 -3 2.465848112410058 1.4099871989758821 -3 0.20080558631870429 0.033909897404034287 0 0.20080558631870429 0.033909897404034287 -3 2.3883545080289421 -0.94497882694672608 -3 2.465848112410058 1.4099871989758821 -3 2.3883545080289421 -0.94497882694672608 0 2.3883545080289421 -0.94497882694672608 -3 0.20080558631870429 0.033909897404034287 -3 0.95458002071209891 -1.657898275923388 -3 2.3883545080289421 -0.94497882694672608 0 -0.91506351183037493 1.5849364925866429 -3 0.37580157663508379 2.5408650916807378 -3 -1.107852388446384 3.1911857209629071 -3 0.37580157663508379 2.5408650916807378 0 0.20080558631870429 0.033909897404034287 -3 0.37580157663508379 2.5408650916807378 -3 -0.91506351183037493 1.5849364925866429 -3 0.20080558631870429 0.033909897404034287 0 0.20080558631870429 0.033909897404034287 -3 0.37580157663508379 2.5408650916807378 -3 0.37580157663508379 2.5408650916807378 -6 -0.91506351183037493 1.5849364925866429 -6 0.20080558631870429 0.033909897404034287 -6 0.37580157663508379 2.5408650916807378 -6 -0.91506351183037493 1.5849364925866429 -6 0.20080558631870429 0.033909897404034287 -3 -0.91506351183037493 1.5849364925866429 -6 0.37580157663508379 2.5408650916807378 -6 -1.107852388446384 3.1911857209629071 -6 0.37580157663508379 2.5408650916807378 -3 0.20080558631870429 0.033909897404034287 -3 -2.2735805010731909 0.22641949675281539 -3 -0.91506351183037493 1.5849364925866429 -3 -0.91506351183037493 1.5849364925866429 -6 -0.91506351183037493 1.5849364925866429 -6 0.37580157663508379 2.5408650916807378 -3 -1.107852388446384 3.1911857209629071 -6 -0.91506351183037493 1.5849364925866429 -3 0.37580157663508379 2.5408650916807378 -3 0.20080558631870429 0.033909897404034287 -3 -0.91506351183037493 1.5849364925866429 -3 -0.91506351183037493 1.5849364925866429 -6 0.20080558631870429 0.033909897404034287 -6 -0.66987297914647026 -2.499999999706382 -3 0.95458002071209891 -1.657898275923388 -6 0.20080558631870429 0.033909897404034287 -3 -2.2735805010731909 0.22641949675281539 -3 -0.66987297914647026 -2.499999999706382 -3 -0.66987297914647026 -2.499999999706382 -6 0.20080558631870429 0.033909897404034287 -6 -0.66987297914647026 -2.499999999706382 -3 -2.2735805010731909 0.22641949675281539 -3 0.20080558631870429 0.033909897404034287 -3 0.20080558631870429 0.033909897404034287 -6 -2.2735805010731909 0.22641949675281539 -3 0.20080558631870429 0.033909897404034287 -3 0.20080558631870429 0.033909897404034287 -6 -0.91506351183037493 1.5849364925866429 -6 2.3883545080289421 -0.94497882694672608 -3 0.20080558631870429 0.033909897404034287 -3 0.20080558631870429 0.033909897404034287 -6 0.95458002071209891 -1.657898275923388 -6 2.3883545080289421 -0.94497882694672608 -6 0.20080558631870429 0.033909897404034287 -6 0.95458002071209891 -1.657898275923388 -6 2.3883545080289421 -0.94497882694672608 -3 0.20080558631870429 0.033909897404034287 -3 2.3883545080289421 -0.94497882694672608 -3 0.95458002071209891 -1.657898275923388 -3 0.95458002071209891 -1.657898275923388 -6 0.20080558631870429 0.033909897404034287 -6 2.3883545080289421 -0.94497882694672608 -3 2.465848112410058 1.4099871989758821 -6 0.20080558631870429 0.033909897404034287 -3 0.20080558631870429 0.033909897404034287 -6 2.3883545080289421 -0.94497882694672608 -6 2.465848112410058 1.4099871989758821 -6 2.3883545080289421 -0.94497882694672608 -3 2.3883545080289421 -0.94497882694672608 -3 0.20080558631870429 0.033909897404034287 -3 2.465848112410058 1.4099871989758821 -3 2.465848112410058 1.4099871989758821 -6 0.37580157663508379 2.5408650916807378 -3 2.4999999879139869 4.3301270259000564 -3 2.465848112410058 1.4099871989758821 -3 2.465848112410058 1.4099871989758821 -6 0.37580157663508379 2.5408650916807378 -6 0.20080558631870429 0.033909897404034287 -3 2.465848112410058 1.4099871989758821 -6 0.37580157663508379 2.5408650916807378 -3 0.37580157663508379 2.5408650916807378 -6 0.20080558631870429 0.033909897404034287 -6 2.465848112410058 1.4099871989758821 -6 0.20080558631870429 0.033909897404034287 -3 0.20080558631870429 0.033909897404034287 -3 0.37580157663508379 2.5408650916807378 -3 2.465848112410058 1.4099871989758821 -3 2.465848112410058 1.4099871989758821 -6 0.37580157663508379 2.5408650916807378 -9 0.20080558631870429 0.033909897404034287 -6 2.465848112410058 1.4099871989758821 -9 0.37580157663508379 2.5408650916807378 -6 0.37580157663508379 2.5408650916807378 -6 2.4999999879139869 4.3301270259000564 -6 2.465848112410058 1.4099871989758821 -6 2.465848112410058 1.4099871989758821 -9 0.20080558631870429 0.033909897404034287 -6 0.37580157663508379 2.5408650916807378 -6 2.465848112410058 1.4099871989758821 -6 2.465848112410058 1.4099871989758821 -9 2.3883545080289421 -0.94497882694672608 -6 0.20080558631870429 0.033909897404034287 -6 0.20080558631870429 0.033909897404034287 -9 0.95458002071209891 -1.657898275923388 -9 0.20080558631870429 0.033909897404034287 -6 2.3883545080289421 -0.94497882694672608 -6 0.95458002071209891 -1.657898275923388 -6 0.95458002071209891 -1.657898275923388 -9 0.20080558631870429 0.033909897404034287 -9 2.3883545080289421 -0.94497882694672608 -6 2.465848112410058 1.4099871989758821 -9 0.20080558631870429 0.033909897404034287 -6 2.3883545080289421 -0.94497882694672608 -6 0.20080558631870429 0.033909897404034287 -6 2.465848112410058 1.4099871989758821 -6 2.465848112410058 1.4099871989758821 -9 -2.2735805010731909 0.22641949675281539 -6 0.20080558631870429 0.033909897404034287 -6 0.20080558631870429 0.033909897404034287 -9 -0.91506351183037493 1.5849364925866429 -9 -0.66987297914647026 -2.499999999706382 -6 -2.2735805010731909 0.22641949675281539 -6 0.20080558631870429 0.033909897404034287 -6 0.20080558631870429 0.033909897404034287 -9 -2.2735805010731909 0.22641949675281539 -6 -0.66987297914647026 -2.499999999706382 -6 -0.66987297914647026 -2.499999999706382 -9 0.20080558631870429 0.033909897404034287 -9 0.20080558631870429 0.033909897404034287 -9 -0.66987297914647026 -2.499999999706382 -6 0.95458002071209891 -1.657898275923388 -9 0.20080558631870429 0.033909897404034287 -6 -0.91506351183037493 1.5849364925866429 -9 0.37580157663508379 2.5408650916807378 -6 -1.107852388446384 3.1911857209629071 -9 -0.91506351183037493 1.5849364925866429 -6 0.20080558631870429 0.033909897404034287 -6 -2.2735805010731909 0.22641949675281539 -6 -0.91506351183037493 1.5849364925866429 -6 -0.91506351183037493 1.5849364925866429 -9 0.20080558631870429 0.033909897404034287 -6 0.37580157663508379 2.5408650916807378 -6 0.37580157663508379 2.5408650916807378 -9 -0.91506351183037493 1.5849364925866429 -9 0.37580157663508379 2.5408650916807378 -6 0.20080558631870429 0.033909897404034287 -6 -0.91506351183037493 1.5849364925866429 -6 -0.91506351183037493 1.5849364925866429 -9 -2.2735805010731909 0.22641949675281539 -6 -4.3301270221112951 2.4999999944763132 -6 -2.2253246846922492 2.366533744740174 -6 -2.2253246846922492 2.366533744740174 -9 -1.107852388446384 3.1911857209629071 -6 -0.91506351183037493 1.5849364925866429 -6 -2.2253246846922492 2.366533744740174 -6 -2.2253246846922492 2.366533744740174 -9 -4.3301270221112951 2.4999999944763132 -6 -2.2735805010731909 0.22641949675281539 -6 -2.2735805010731909 0.22641949675281539 -9 -2.2253246846922492 2.366533744740174 -9 -2.2735805010731909 0.22641949675281539 -6 -0.91506351183037493 1.5849364925866429 -6 -0.91506351183037493 1.5849364925866429 -9 -2.2253246846922492 2.366533744740174 -9 -0.91506351183037493 1.5849364925866429 -6 -2.2735805010731909 0.22641949675281539 -6 -2.2253246846922492 2.366533744740174 -6 -2.2253246846922492 2.366533744740174 -9 -5 -1.397247784140632e-08 -6 -4.3301270221112951 2.4999999944763132 -6 -2.2735805010731909 0.22641949675281539 -6 -2.2735805010731909 0.22641949675281539 -9 -4.3301270221112951 2.4999999944763132 -9 -5 -1.397247784140632e-08 -6 -2.2735805010731909 0.22641949675281539 -9 -4.3301270221112951 2.4999999944763132 -6 -5 -1.397247784140632e-08 -3 -4.3301270221112951 2.4999999944763132 -3 -2.2735805010731909 0.22641949675281539 -3 -2.2735805010731909 0.22641949675281539 -6 -4.3301270221112951 2.4999999944763132 -6 -2.2735805010731909 0.22641949675281539 -6 -2.2253246846922492 2.366533744740174 -6 -4.3301270221112951 2.4999999944763132 -3 -4.3301270221112951 2.4999999944763132 -6 -5 -1.397247784140632e-08 -6 -2.2735805010731909 0.22641949675281539 -6 -5 -1.397247784140632e-08 -3 -4.3301270221112951 2.4999999944763132 -6 -5 -1.397247784140632e-08 -3 -2.2735805010731909 0.22641949675281539 -6 -4.3301270221112951 2.4999999944763132 -3 -1.107852388446384 3.1911857209629071 -3 -0.91506351183037493 1.5849364925866429 -3 -2.2253246846922492 2.366533744740174 -3 -2.2253246846922492 2.366533744740174 -6 -2.2735805010731909 0.22641949675281539 -3 -4.3301270221112951 2.4999999944763132 -3 -2.2253246846922492 2.366533744740174 -3 -2.2253246846922492 2.366533744740174 -6 -0.91506351183037493 1.5849364925866429 -6 -1.107852388446384 3.1911857209629071 -6 -2.2253246846922492 2.366533744740174 -6 -0.91506351183037493 1.5849364925866429 -3 -0.91506351183037493 1.5849364925866429 -3 -2.2735805010731909 0.22641949675281539 -3 -2.2253246846922492 2.366533744740174 -3 -2.2253246846922492 2.366533744740174 -6 -2.2735805010731909 0.22641949675281539 -6 -0.91506351183037493 1.5849364925866429 -6 -2.2253246846922492 2.366533744740174 -6 -2.2735805010731909 0.22641949675281539 -3 -2.2735805010731909 0.22641949675281539 -3 -0.91506351183037493 1.5849364925866429 -3 -0.91506351183037493 1.5849364925866429 -6 -2.2253246846922492 2.366533744740174 -6 -4.3301270221112951 2.4999999944763132 -3 -2.2735805010731909 0.22641949675281539 -3 -2.2735805010731909 0.22641949675281539 -6 -2.2253246846922492 2.366533744740174 -6 -2.2735805010731909 0.22641949675281539 -6 -0.66987297914647026 -2.499999999706382 -6 0.20080558631870429 0.033909897404034287 -6 -2.2735805010731909 0.22641949675281539 -3 -2.2735805010731909 0.22641949675281539 -6 0.20080558631870429 0.033909897404034287 -6 -0.91506351183037493 1.5849364925866429 -6 -2.2735805010731909 0.22641949675281539 -3 -0.66987297914647026 -2.499999999706382 -6 -2.2735805010731909 0.22641949675281539 -6 -2.9547160992544761 -1.820741508163664 -6 -2.2735805010731909 0.22641949675281539 -3 -5 -1.397247784140632e-08 -6 -4.3301270160527148 -2.500000004970083 -3 -2.9547160992544761 -1.820741508163664 -6 -5 -1.397247784140632e-08 -3 -5 -1.397247784140632e-08 -3 -2.2735805010731909 0.22641949675281539 -3 -2.9547160992544761 -1.820741508163664 -3 -2.9547160992544761 -1.820741508163664 -6 -2.2735805010731909 0.22641949675281539 -6 -5 -1.397247784140632e-08 -6 -2.9547160992544761 -1.820741508163664 -6 -5 -1.397247784140632e-08 -3 -2.2735805010731909 0.22641949675281539 -6 -5 -1.397247784140632e-08 -3 -2.9547160992544761 -1.820741508163664 -6 -2.2735805010731909 0.22641949675281539 -3 -5 -1.397247784140632e-08 -9 -4.3301270160527148 -2.500000004970083 -6 -2.9547160992544761 -1.820741508163664 -9 -5 -1.397247784140632e-08 -6 -2.2735805010731909 0.22641949675281539 -9 -5 -1.397247784140632e-08 -6 -2.9547160992544761 -1.820741508163664 -9 -2.2735805010731909 0.22641949675281539 -6 -5 -1.397247784140632e-08 -6 -2.2735805010731909 0.22641949675281539 -6 -2.9547160992544761 -1.820741508163664 -6 -2.9547160992544761 -1.820741508163664 -9 -0.66987297914647026 -2.499999999706382 -9 -2.2735805010731909 0.22641949675281539 -6 -2.9547160992544761 -1.820741508163664 -9 -0.66987297914647026 -2.499999999706382 -6 -2.2735805010731909 0.22641949675281539 -6 -0.66987297914647026 -2.499999999706382 -6 -2.9547160992544761 -1.820741508163664 -6 -2.9547160992544761 -1.820741508163664 -9 -2.5000000000000022 -4.3301270189221919 -6 -0.66987297914647026 -2.499999999706382 -6 -0.66987297914647026 -2.499999999706382 -9 -2.9547160992544761 -1.820741508163664 -9 -0.66987297914647026 -2.499999999706382 -6 -2.5000000000000022 -4.3301270189221919 -6 -2.9547160992544761 -1.820741508163664 -6 -2.9547160992544761 -1.820741508163664 -9 -2.5000000000000022 -4.3301270189221919 -6 -4.3301270160527148 -2.500000004970083 -6 -2.9547160992544761 -1.820741508163664 -6 -2.9547160992544761 -1.820741508163664 -9 -4.3301270160527148 -2.500000004970083 -6 -5 -1.397247784140632e-08 -6 -2.9547160992544761 -1.820741508163664 -6 -2.9547160992544761 -1.820741508163664 -9 -4.3301270160527148 -2.500000004970083 -9 -2.5000000000000022 -4.3301270189221919 -6 -2.9547160992544761 -1.820741508163664 -9 -4.3301270160527148 -2.500000004970083 -6 -4.3301270160527148 -2.500000004970083 -6 -2.5000000000000022 -4.3301270189221919 -3 -2.9547160992544761 -1.820741508163664 -6 -4.3301270160527148 -2.500000004970083 -3 -5 -1.397247784140632e-08 -6 -4.3301270160527148 -2.500000004970083 -6 -2.9547160992544761 -1.820741508163664 -6 -4.3301270160527148 -2.500000004970083 -3 -4.3301270160527148 -2.500000004970083 -3 -5 -1.397247784140632e-08 -3 -2.9547160992544761 -1.820741508163664 -3 -2.9547160992544761 -1.820741508163664 -6 -2.5000000000000022 -4.3301270189221919 -3 -4.3301270160527148 -2.500000004970083 -3 -2.9547160992544761 -1.820741508163664 -3 -2.9547160992544761 -1.820741508163664 -6 -0.66987297914647026 -2.499999999706382 -3 -2.5000000000000022 -4.3301270189221919 -3 -2.9547160992544761 -1.820741508163664 -3 -2.9547160992544761 -1.820741508163664 -6 -2.2735805010731909 0.22641949675281539 -3 -0.66987297914647026 -2.499999999706382 -3 -2.9547160992544761 -1.820741508163664 -3 -2.9547160992544761 -1.820741508163664 -6 -2.5000000000000022 -4.3301270189221919 -3 -0.66987297914647026 -2.499999999706382 -3 -0.66987297914647026 -2.499999999706382 -6 -2.9547160992544761 -1.820741508163664 -6 -0.66987297914647026 -2.499999999706382 -6 -2.2735805010731909 0.22641949675281539 -3 -2.9547160992544761 -1.820741508163664 -6 -0.66987297914647026 -2.499999999706382 -3 -2.5000000000000022 -4.3301270189221919 -6 -0.66987297914647026 -2.499999999706382 -6 -2.9547160992544761 -1.820741508163664 -6 -2.5000000000000022 -4.3301270189221919 -3 -4.3301270160527148 -2.500000004970083 -6 -2.5000000000000022 -4.3301270189221919 -6 -2.9547160992544761 -1.820741508163664 -6 -2.5000000000000022 -4.3301270189221919 -3 -2.5000000000000022 -4.3301270189221919 -6 6.9142305214597846e-09 -5 -3 -0.66987297914647026 -2.499999999706382 -6 -2.5000000000000022 -4.3301270189221919 -3 -2.5000000000000022 -4.3301270189221919 -9 6.9142305214597846e-09 -5 -6 -0.66987297914647026 -2.499999999706382 -9 -2.5000000000000022 -4.3301270189221919 -6 -0.66987297914647026 -2.499999999706382 -9 6.9142305214597846e-09 -5 -6 0.91506351643986317 -3.4150635091400758 -9 -0.66987297914647026 -2.499999999706382 -6 6.9142305214597846e-09 -5 -6 -2.5000000000000022 -4.3301270189221919 -6 -0.66987297914647026 -2.499999999706382 -6 -0.66987297914647026 -2.499999999706382 -9 6.9142305214597846e-09 -5 -6 -0.66987297914647026 -2.499999999706382 -6 0.91506351643986317 -3.4150635091400758 -6 0.91506351643986317 -3.4150635091400758 -9 0.95458002071209891 -1.657898275923388 -9 -0.66987297914647026 -2.499999999706382 -6 0.91506351643986317 -3.4150635091400758 -9 0.91506351643986317 -3.4150635091400758 -6 -0.66987297914647026 -2.499999999706382 -6 0.20080558631870429 0.033909897404034287 -6 0.95458002071209891 -1.657898275923388 -6 0.95458002071209891 -1.657898275923388 -9 -0.66987297914647026 -2.499999999706382 -6 0.95458002071209891 -1.657898275923388 -6 0.91506351643986317 -3.4150635091400758 -6 0.95458002071209891 -1.657898275923388 -9 0.95458002071209891 -1.657898275923388 -6 2.3883545080289421 -0.94497882694672608 -6 2.217625015551433 -2.5696135239339939 -6 2.217625015551433 -2.5696135239339939 -9 2.3883545080289421 -0.94497882694672608 -6 0.95458002071209891 -1.657898275923388 -6 0.95458002071209891 -1.657898275923388 -9 2.217625015551433 -2.5696135239339939 -9 0.91506351643986317 -3.4150635091400758 -6 0.95458002071209891 -1.657898275923388 -6 2.217625015551433 -2.5696135239339939 -6 2.217625015551433 -2.5696135239339939 -9 0.95458002071209891 -1.657898275923388 -9 0.91506351643986317 -3.4150635091400758 -6 2.217625015551433 -2.5696135239339939 -9 0.95458002071209891 -1.657898275923388 -6 6.9142305214597846e-09 -5 -9 2.500000010727558 -4.3301270127286351 -6 0.91506351643986317 -3.4150635091400758 -9 6.9142305214597846e-09 -5 -6 2.500000010727558 -4.3301270127286351 -6 6.9142305214597846e-09 -5 -6 0.91506351643986317 -3.4150635091400758 -6 0.91506351643986317 -3.4150635091400758 -9 2.500000010727558 -4.3301270127286351 -6 0.91506351643986317 -3.4150635091400758 -6 2.217625015551433 -2.5696135239339939 -6 2.217625015551433 -2.5696135239339939 -9 0.91506351643986317 -3.4150635091400758 -9 2.500000010727558 -4.3301270127286351 -6 2.217625015551433 -2.5696135239339939 -9 0.91506351643986317 -3.4150635091400758 -6 2.500000010727558 -4.3301270127286351 -3 6.9142305214597846e-09 -5 -3 0.91506351643986317 -3.4150635091400758 -3 0.91506351643986317 -3.4150635091400758 -6 0.91506351643986317 -3.4150635091400758 -6 2.500000010727558 -4.3301270127286351 -6 2.217625015551433 -2.5696135239339939 -6 2.500000010727558 -4.3301270127286351 -3 0.91506351643986317 -3.4150635091400758 -6 2.500000010727558 -4.3301270127286351 -3 2.217625015551433 -2.5696135239339939 -6 0.91506351643986317 -3.4150635091400758 -3 2.500000010727558 -4.3301270127286351 -3 0.91506351643986317 -3.4150635091400758 -3 2.217625015551433 -2.5696135239339939 -3 2.217625015551433 -2.5696135239339939 -6 6.9142305214597846e-09 -5 -6 2.500000010727558 -4.3301270127286351 -6 0.91506351643986317 -3.4150635091400758 -6 2.500000010727558 -4.3301270127286351 -3 6.9142305214597846e-09 -5 -6 2.500000010727558 -4.3301270127286351 -3 0.91506351643986317 -3.4150635091400758 -6 6.9142305214597846e-09 -5 -3 0.95458002071209891 -1.657898275923388 -6 0.91506351643986317 -3.4150635091400758 -3 2.217625015551433 -2.5696135239339939 -6 0.95458002071209891 -1.657898275923388 -3 2.3883545080289421 -0.94497882694672608 -3 0.95458002071209891 -1.657898275923388 -3 0.95458002071209891 -1.657898275923388 -6 2.217625015551433 -2.5696135239339939 -6 2.3883545080289421 -0.94497882694672608 -6 0.95458002071209891 -1.657898275923388 -6 2.217625015551433 -2.5696135239339939 -6 2.3883545080289421 -0.94497882694672608 -3 0.95458002071209891 -1.657898275923388 -3 2.3883545080289421 -0.94497882694672608 -3 2.217625015551433 -2.5696135239339939 -3 2.217625015551433 -2.5696135239339939 -6 0.91506351643986317 -3.4150635091400758 -3 0.95458002071209891 -1.657898275923388 -3 2.217625015551433 -2.5696135239339939 -3 2.217625015551433 -2.5696135239339939 -6 0.95458002071209891 -1.657898275923388 -6 0.91506351643986317 -3.4150635091400758 -6 2.217625015551433 -2.5696135239339939 -6 0.91506351643986317 -3.4150635091400758 -3 -0.66987297914647026 -2.499999999706382 -3 0.20080558631870429 0.033909897404034287 -3 0.95458002071209891 -1.657898275923388 -3 0.95458002071209891 -1.657898275923388 -6 0.20080558631870429 0.033909897404034287 -6 -0.66987297914647026 -2.499999999706382 -6 0.95458002071209891 -1.657898275923388 -6 -0.66987297914647026 -2.499999999706382 -3 -0.66987297914647026 -2.499999999706382 -3 0.95458002071209891 -1.657898275923388 -3 0.91506351643986317 -3.4150635091400758 -3 0.95458002071209891 -1.657898275923388 -6 0.95458002071209891 -1.657898275923388 -6 -0.66987297914647026 -2.499999999706382 -6 0.91506351643986317 -3.4150635091400758 -6 -0.66987297914647026 -2.499999999706382 -3 0.95458002071209891 -1.657898275923388 -6 -0.66987297914647026 -2.499999999706382 -3 0.91506351643986317 -3.4150635091400758 -6 0.91506351643986317 -3.4150635091400758 -3 6.9142305214597846e-09 -5 -3 -0.66987297914647026 -2.499999999706382 -3 0.91506351643986317 -3.4150635091400758 -3 0.91506351643986317 -3.4150635091400758 -6 -0.66987297914647026 -2.499999999706382 -6 6.9142305214597846e-09 -5 -6 0.91506351643986317 -3.4150635091400758 -6 6.9142305214597846e-09 -5 -3 -0.66987297914647026 -2.499999999706382 -6 6.9142305214597846e-09 -5 -3 0.91506351643986317 -3.4150635091400758 -6 -0.66987297914647026 -2.499999999706382 -3 -2.5000000000000022 -4.3301270189221919 -6 6.9142305214597846e-09 -5 -6 -0.66987297914647026 -2.499999999706382 -6 6.9142305214597846e-09 -5 -3 6.9142305214597846e-09 -5 -3 -2.5000000000000022 -4.3301270189221919 -3 -0.66987297914647026 -2.499999999706382 -3 -0.66987297914647026 -2.499999999706382 -6 -0.66987297914647026 -2.499999999706382 -3 6.9142305214597846e-09 -5 -3 0.91506351643986317 -3.4150635091400758 -3 6.9142305214597846e-09 -5 0 -2.5000000000000022 -4.3301270189221919 -3 6.9142305214597846e-09 -5 -3 -0.66987297914647026 -2.499999999706382 -3 6.9142305214597846e-09 -5 0 0.95458002071209891 -1.657898275923388 -3 -0.66987297914647026 -2.499999999706382 -3 0.91506351643986317 -3.4150635091400758 -3 -0.66987297914647026 -2.499999999706382 0 0.20080558631870429 0.033909897404034287 -3 -0.66987297914647026 -2.499999999706382 -3 0.95458002071209891 -1.657898275923388 -3 -0.66987297914647026 -2.499999999706382 0 2.3883545080289421 -0.94497882694672608 -3 0.95458002071209891 -1.657898275923388 -3 2.217625015551433 -2.5696135239339939 -3 2.3883545080289421 -0.94497882694672608 0 0.95458002071209891 -1.657898275923388 -3 0.91506351643986317 -3.4150635091400758 -3 2.217625015551433 -2.5696135239339939 -3 0.91506351643986317 -3.4150635091400758 0 0.91506351643986317 -3.4150635091400758 -3 2.500000010727558 -4.3301270127286351 -3 2.217625015551433 -2.5696135239339939 -3 2.500000010727558 -4.3301270127286351 0 6.9142305214597846e-09 -5 -3 2.500000010727558 -4.3301270127286351 -3 0.91506351643986317 -3.4150635091400758 -3 2.500000010727558 -4.3301270127286351 0 2.500000010727558 -4.3301270127286351 0 0.91506351643986317 -3.4150635091400758 0 2.217625015551433 -2.5696135239339939 0 2.217625015551433 -2.5696135239339939 -3 0.91506351643986317 -3.4150635091400758 -3 2.500000010727558 -4.3301270127286351 0 2.217625015551433 -2.5696135239339939 -3 0.91506351643986317 -3.4150635091400758 0 2.500000010727558 -4.3301270127286351 0 6.9142305214597846e-09 -5 0 0.91506351643986317 -3.4150635091400758 0 0.91506351643986317 -3.4150635091400758 -3 6.9142305214597846e-09 -5 -3 2.500000010727558 -4.3301270127286351 0 0.91506351643986317 -3.4150635091400758 -3 6.9142305214597846e-09 -5 0 0.91506351643986317 -3.4150635091400758 0 0.95458002071209891 -1.657898275923388 0 2.217625015551433 -2.5696135239339939 0 2.217625015551433 -2.5696135239339939 -3 0.95458002071209891 -1.657898275923388 -3 0.91506351643986317 -3.4150635091400758 0 2.217625015551433 -2.5696135239339939 -3 0.95458002071209891 -1.657898275923388 0 0.95458002071209891 -1.657898275923388 0 2.3883545080289421 -0.94497882694672608 0 2.217625015551433 -2.5696135239339939 0 2.217625015551433 -2.5696135239339939 -3 2.3883545080289421 -0.94497882694672608 0 0.95458002071209891 -1.657898275923388 0 0.95458002071209891 -1.657898275923388 -3 2.217625015551433 -2.5696135239339939 -3 0.95458002071209891 -1.657898275923388 -3 -0.66987297914647026 -2.499999999706382 0 0.91506351643986317 -3.4150635091400758 -3 0.91506351643986317 -3.4150635091400758 0 -0.66987297914647026 -2.499999999706382 0 0.95458002071209891 -1.657898275923388 0 0.91506351643986317 -3.4150635091400758 0 0.95458002071209891 -1.657898275923388 -3 -0.66987297914647026 -2.499999999706382 0 0.20080558631870429 0.033909897404034287 0 0.95458002071209891 -1.657898275923388 0 0.95458002071209891 -1.657898275923388 -3 6.9142305214597846e-09 -5 0 -2.5000000000000022 -4.3301270189221919 0 -0.66987297914647026 -2.499999999706382 0 -0.66987297914647026 -2.499999999706382 -3 -0.66987297914647026 -2.499999999706382 -3 6.9142305214597846e-09 -5 0 0.91506351643986317 -3.4150635091400758 -3 -0.66987297914647026 -2.499999999706382 0 6.9142305214597846e-09 -5 0 -0.66987297914647026 -2.499999999706382 0 0.91506351643986317 -3.4150635091400758 0 0.91506351643986317 -3.4150635091400758 -3 -2.5000000000000022 -4.3301270189221919 -3 6.9142305214597846e-09 -5 0 -0.66987297914647026 -2.499999999706382 -3 -2.5000000000000022 -4.3301270189221919 0 -2.5000000000000022 -4.3301270189221919 -3 -0.66987297914647026 -2.499999999706382 -3 -2.9547160992544761 -1.820741508163664 -3 -2.5000000000000022 -4.3301270189221919 0 -4.3301270160527148 -2.500000004970083 -3 -2.5000000000000022 -4.3301270189221919 -3 -2.9547160992544761 -1.820741508163664 -3 -2.5000000000000022 -4.3301270189221919 0 -2.5000000000000022 -4.3301270189221919 0 -0.66987297914647026 -2.499999999706382 0 -0.66987297914647026 -2.499999999706382 -3 -2.9547160992544761 -1.820741508163664 -3 -0.66987297914647026 -2.499999999706382 0 -2.5000000000000022 -4.3301270189221919 0 -2.9547160992544761 -1.820741508163664 0 -2.9547160992544761 -1.820741508163664 -3 -0.66987297914647026 -2.499999999706382 -3 -2.2735805010731909 0.22641949675281539 0 -2.9547160992544761 -1.820741508163664 -3 -0.66987297914647026 -2.499999999706382 0 -2.2735805010731909 0.22641949675281539 0 -0.66987297914647026 -2.499999999706382 0 -2.9547160992544761 -1.820741508163664 0 -2.9547160992544761 -1.820741508163664 -3 -4.3301270160527148 -2.500000004970083 0 -5 -1.397247784140632e-08 0 -2.9547160992544761 -1.820741508163664 0 -2.9547160992544761 -1.820741508163664 -3 -2.5000000000000022 -4.3301270189221919 0 -4.3301270160527148 -2.500000004970083 0 -2.9547160992544761 -1.820741508163664 0 -2.9547160992544761 -1.820741508163664 -3 -4.3301270160527148 -2.500000004970083 -3 -2.5000000000000022 -4.3301270189221919 0 -2.9547160992544761 -1.820741508163664 -3 -4.3301270160527148 -2.500000004970083 0 -5 -1.397247784140632e-08 -3 -4.3301270160527148 -2.500000004970083 -3 -2.9547160992544761 -1.820741508163664 -3 -4.3301270160527148 -2.500000004970083 0 
</DataArray>
</Points>
<Cells>
<DataArray type="UInt32" Name="connectivity" format="ascii">
0 1 2 3 4 5 6 7 8 9 10 11 12 13 14 15 16 17 18 19 20 21 22 23 24 25 26 27 28 29 30 31 32 33 34 35 36 37 38 39 40 41 42 43 44 45 46 47 48 49 50 51 52 53 54 55 56 57 58 59 60 61 62 63 64 65 66 67 68 69 70 71 72 73 74 75 76 77 78 79 80 81 82 83 84 85 86 87 88 89 90 91 92 93 94 95 96 97 98 99 100 101 102 103 104 105 106 107 108 109 110 111 112 113 114 115 116 117 118 119 120 121 122 123 124 125 126 127 128 129 130 131 132 133 134 135 136 137 138 139 140 141 142 143 144 145 146 147 148 149 150 151 152 153 154 155 156 157 158 159 160 161 162 163 164 165 166 167 168 169 170 171 172 173 174 175 176 177 178 179 180 181 182 183 184 185 186 187 188 189 190 191 192 193 194 195 196 197 198 199 200 201 202 203 204 205 206 207 208 209 210 211 212 213 214 215 216 217 218 219 220 221 222 223 224 225 226 227 228 229 230 231 232 233 234 235 236 237 238 239 240 241 242 243 244 245 246 247 248 249 250 251 252 253 254 255 256 257 258 259 260 261 262 263 264 265 266 267 268 269 270 271 272 273 274 275 276 277 278 279 280 281 282 283 284 285 286 287 288 289 290 291 292 293 294 295 296 297 298 299 300 301 302 303 304 305 306 307 308 309 310 311 312 313 314 315 316 317 318 319 320 321 322 323 324 325 326 327 328 329 330 331 332 333 334 335 336 337 338 339 340 341 342 343 344 345 346 347 348 349 350 351 352 353 354 355 356 357 358 359 360 361 362 363 364 365 366 367 368 369 370 371 372 373 374 375 376 377 378 379 380 381 382 383 384 385 386 387 388 389 390 391 392 393 394 395 396 397 398 399 400 401 402 403 404 405 406 407 408 409 410 411 412 413 414 415 416 417 418 419 420 421 422 423 424 425 426 427 428 429 430 431 432 433 434 435 436 437 438 439 440 441 442 443 444 445 446 447 448 449 450 451 452 453 454 455 456 457 458 459 460 461 462 463 464 465 466 467 468 469 470 471 472 473 474 475 476 477 478 479 480 481 482 483 484 485 486 487 488 489 490 491 492 493 494 495 496 497 498 499 500 501 502 503 504 505 506 507 508 509 510 511 512 513 514 515 516 517 518 519 520 521 522 523 524 525 526 527 528 529 530 531 532 533 534 535 536 537 538 539 540 541 542 543 544 545 546 547 548 549 550 551 552 553 554 555 556 557 558 559 560 561 562 563 564 565 566 567 568 569 570 571 572 573 574 575 576 577 578 579 580 581 582 583 584 585 586 587 588 589 590 591 592 593 594 595 596 597 598 599 600 601 602 603 604 605 606 607 608 609 610 611 612 613 614 615 616 617 618 619 620 621 622 623 624 625 626 627 628 629 630 631 632 633 634 635 636 637 638 639 640 641 642 643 644 645 646 647 648 649 650 651 652 653 654 655 656 657 658 659 660 661 662 663 664 665 666 667 668 669 670 671 672 673 674 675 676 677 678 679 680 681 682 683 684 685 686 687 688 689 690 691 692 693 694 695 696 697 698 699 700 701 702 703 704 705 706 707 708 709 710 711 712 713 714 715 716 717 718 719 720 721 722 723 724 725 726 727 728 729 730 731 732 733 734 735 736 737 738 739 740 741 742 743 744 745 746 747 748 749 750 751 752 753 754 755 756 757 758 759 760 761 762 763 764 765 766 767 768 769 770 771 772 773 774 775 776 777 778 779 780 781 782 783 784 785 786 787 788 789 790 791 792 793 794 795 796 797 798 799 800 801 802 803 804 805 806 807 808 809 810 811 812 813 814 815 816 817 818 819 820 821 822 823 824 825 826 827 828 829 830 831 832 833 834 835 836 837 838 839 840 841 842 843 844 845 846 847 848 849 850 851 852 853 854 855 856 857 858 859 860 861 862 863 864 865 866 867 868 869 870 871 872 873 874 875 876 877 878 879 880 881 882 883 884 885 886 887 888 889 890 891 892 893 894 895 896 897 898 899 900 901 902 903 904 905 906 907 908 909 910 911 912 913 914 915 916 917 918 919 920 921 922 923 924 925 926 927 928 929 930 931 932 933 934 935 936 937 938 939 940 941 942 943 944 945 946 947 948 949 950 951 952 953 954 955 956 957 958 959 960 961 962 963 964 965 966 967 968 969 970 971 972 973 974 975 976 977 978 979 980 981 982 983 984 985 986 987 988 989 990 991 992 993 994 995 996 997 998 999 1000 1001 1002 1003 1004 1005 1006 1007 1008 1009 1010 1011 1012 1013 1014 1015 1016 1017 1018 1019 1020 1021 1022 1023 1024 1025 1026 1027 1028 1029 1030 1031 1032 1033 1034 1035 1036 1037 1038 1039 1040 1041 1042 1043 1044 1045 1046 1047 1048 1049 1050 1051 1052 1053 1054 1055 1056 1057 1058 1059 1060 1061 1062 1063 1064 1065 1066 1067 1068 1069 1070 1071 1072 1073 1074 1075 1076 1077 1078 1079 1080 1081 1082 1083 1084 1085 1086 1087 1088 1089 1090 1091 1092 1093 1094 1095 1096 1097 1098 1099 1100 1101 1102 1103 1104 1105 1106 1107 1108 1109 1110 1111 1112 1113 1114 1115 1116 1117 1118 1119 1120 1121 1122 1123 1124 1125 1126 1127 1128 1129 1130 1131 1132 1133 1134 1135 1136 1137 1138 1139 1140 1141 1142 1143 1144 1145 1146 1147 1148 1149 1150 1151 1152 1153 1154 1155 1156 1157 1158 1159 1160 1161 1162 1163 1164 1165 1166 1167 1168 1169 1170 1171 1172 1173 1174 1175 1176 1177 1178 1179 1180 1181 1182 1183 1184 1185 1186 1187 1188 1189 1190 1191 1192 1193 1194 1195 1196 1197 1198 1199 1200 1201 1202 1203 1204 1205 1206 1207 1208 1209 1210 1211 1212 1213 1214 1215 1216 1217 1218 1219 1220 1221 1222 1223 1224 1225 1226 1227 1228 1229 1230 1231 1232 1233 1234 1235 1236 1237 1238 1239 1240 1241 1242 1243 1244 1245 1246 1247 1248 1249 1250 1251 1252 1253 1254 1255 1256 1257 1258 1259 1260 1261 1262 1263 1264 1265 1266 1267 1268 1269 1270 1271 1272 1273 1274 1275 1276 1277 1278 1279 1280 1281 1282 1283 1284 1285 1286 1287 1288 1289 1290 1291 1292 1293 1294 1295 1296 1297 1298 1299 1300 1301 1302 1303 1304 1305 1306 1307 1308 1309 1310 1311 1312 1313 1314 1315 1316 1317 1318 1319 1320 1321 1322 1323 1324 1325 1326 1327 1328 1329 1330 1331 1332 1333 1334 1335 1336 1337 1338 1339 1340 1341 1342 1343 1344 1345 1346 1347 1348 1349 1350 1351 1352 1353 1354 1355 1356 1357 1358 1359 1360 1361 1362 1363 1364 1365 1366 1367 1368 1369 1370 1371 1372 1373 1374 1375 1376 1377 1378 1379 1380 1381 1382 1383 1384 1385 1386 1387 1388 1389 1390 1391 1392 1393 1394 1395 1396 1397 1398 1399 1400 1401 1402 1403 1404 1405 1406 1407 1408 1409 1410 1411 1412 1413 1414 1415 1416 1417 1418 1419 1420 1421 1422 1423 1424 1425 1426 1427 1428 1429 1430 1431 1432 1433 1434 1435 1436 1437 1438 1439 1440 1441 1442 1443 1444 1445 1446 1447 1448 1449 1450 1451 1452 1453 1454 1455 1456 1457 1458 1459 1460 1461 1462 1463 1464 1465 1466 1467 1468 1469 1470 1471 1472 1473 1474 1475 1476 1477 1478 1479 1480 1481 1482 1483 1484 1485 1486 1487 1488 1489 1490 1491 1492 1493 1494 1495 1496 1497 1498 1499 1500 1501 1502 1503 1504 1505 1506 1507 1508 1509 1510 1511 1512 1513 1514 1515 1516 1517 1518 1519 1520 1521 1522 1523 1524 1525 1526 1527 1528 1529 1530 1531 1532 1533 1534 1535 1536 1537 1538 1539 1540 1541 1542 1543 1544 1545 1546 1547 1548 1549 1550 1551 1552 1553 1554 1555 1556 1557 1558 1559 1560 1561 1562 1563 1564 1565 1566 1567 1568 1569 1570 1571 1572 1573 1574 1575 1576 1577 1578 1579 1580 1581 1582 1583 1584 1585 1586 1587 1588 1589 1590 1591 1592 1593 1594 1595 1596 1597 1598 1599 1600 1601 1602 1603 1604 1605 1606 1607 1608 1609 1610 1611 1612 1613 1614 1615 1616 1617 1618 1619 1620 1621 1622 1623 1624 1625 1626 1627 1628 1629 1630 1631 1632 1633 1634 1635 1636 1637 1638 1639 1640 1641 1642 1643 1644 1645 1646 1647 1648 1649 1650 1651 1652 1653 1654 1655 1656 1657 1658 1659 1660 1661 1662 1663 1664 1665 1666 1667 1668 1669 1670 1671 1672 1673 1674 1675 1676 1677 1678 1679 1680 1681 1682 1683 1684 1685 1686 1687 1688 1689 1690 1691 1692 1693 1694 1695 1696 1697 1698 1699 1700 1701 1702 1703 1704 1705 1706 1707 1708 1709 1710 1711 1712 1713 1714 1715 1716 1717 1718 1719 1720 1721 1722 1723 1724 1725 1726 1727 1728 1729 1730 1731 1732 1733 1734 1735 1736 1737 1738 1739 1740 1741 1742 1743 1744 1745 1746 1747 1748 1749 1750 1751 1752 1753 1754 1755 1756 1757 1758 1759 1760 1761 1762 1763 1764 1765 1766 1767 1768 1769 1770 1771 1772 1773 1774 1775 1776 1777 1778 1779 1780 1781 1782 1783 1784 1785 1786 1787 1788 1789 1790 1791 1792 1793 1794 1795 1796 1797 1798 1799 1800 1801 1802 1803 1804 1805 1806 1807 1808 1809 1810 1811 1812 1813 1814 1815 1816 1817 1818 1819 1820 1821 1822 1823 1824 1825 1826 1827 1828 1829 1830 1831 1832 1833 1834 1835 1836 1837 1838 1839 1840 1841 1842 1843 1844 1845 1846 1847 1848 1849 1850 1851 1852 1853 1854 1855 1856 1857 1858 1859 1860 1861 1862 1863 1864 1865 1866 1867 1868 1869 1870 1871 1872 1873 1874 1875 1876 1877 1878 1879 1880 1881 1882 1883 1884 1885 1886 1887 1888 1889 1890 1891 1892 1893 1894 1895 1896 1897 1898 1899 1900 1901 1902 1903 1904 1905 1906 1907 1908 1909 1910 1911 1912 1913 1914 1915 1916 1917 1918 1919 1920 1921 1922 1923 1924 1925 1926 1927 1928 1929 1930 1931 1932 1933 1934 1935 1936 1937 1938 1939 1940 1941 1942 1943 1944 1945 1946 1947 1948 1949 1950 1951 1952 1953 1954 1955 1956 1957 1958 1959 1960 1961 1962 1963 1964 1965 1966 1967 1968 1969 1970 1971 1972 1973 1974 1975 1976 1977 1978 1979 1980 1981 1982 1983 1984 1985 1986 1987 1988 1989 1990 1991 1992 1993 1994 1995 1996 1997 1998 1999 2000 2001 2002 2003 2004 2005 2006 2007 2008 2009 2010 2011 2012 2013 2014 2015 2016 2017 2018 2019 2020 2021 2022 2023 2024 2025 2026 2027 2028 2029 2030 2031 2032 2033 2034 2035 2036 2037 2038 2039 2040 2041 2042 2043 2044 2045 2046 2047 2048 2049 2050 2051 2052 2053 2054 2055 2056 2057 2058 2059 2060 2061 2062 2063 2064 2065 2066 2067 2068 2069 2070 2071 2072 2073 2074 2075 2076 2077 2078 2079 2080 2081 2082 2083 2084 2085 2086 2087 2088 2089 2090 2091 2092 2093 2094 2095 2096 2097 2098 2099 2100 2101 2102 2103 2104 2105 2106 2107 2108 2109 2110 2111 2112 2113 2114 2115 2116 2117 2118 2119 2120 2121 2122 2123 2124 2125 2126 2127 2128 2129 2130 2131 2132 2133 2134 2135 2136 2137 2138 2139 2140 2141 2142 2143 2144 2145 2146 2147 2148 2149 2150 2151 2152 2153 2154 2155 2156 2157 2158 2159 
</DataArray>
<DataArray type="UInt32" Name="offsets" format="ascii">
4 8 12 16 20 24 28 32 36 40 44 48 52 56 60 64 68 72 76 80 84 88 92 96 100 104 108 112 116 120 124 128 132 136 140 144 148 152 156 160 164 168 172 176 180 184 188 192 196 200 204 208 212 216 220 224 228 232 236 240 244 248 252 256 260 264 268 272 276 280 284 288 292 296 300 304 308 312 316 320 324 328 332 336 340 344 348 352 356 360 364 368 372 376 380 384 388 392 396 400 404 408 412 416 420 424 428 432 436 440 444 448 452 456 460 464 468 472 476 480 484 488 492 496 500 504 508 512 516 520 524 528 532 536 540 544 548 552 556 560 564 568 572 576 580 584 588 592 596 600 604 608 612 616 620 624 628 632 636 640 644 648 652 656 660 664 668 672 676 680 684 688 692 696 700 704 708 712 716 720 724 728 732 736 740 744 748 752 756 760 764 768 772 776 780 784 788 792 796 800 804 808 812 816 820 824 828 832 836 840 844 848 852 856 860 864 868 872 876 880 884 888 892 896 900 904 908 912 916 920 924 928 932 936 940 944 948 952 956 960 964 968 972 976 980 984 988 992 996 1000 1004 1008 1012 1016 1020 1024 1028 1032 1036 1040 1044 1048 1052 1056 1060 1064 1068 1072 1076 1080 1084 1088 1092 1096 1100 1104 1108 1112 1116 1120 1124 1128 1132 1136 1140 1144 1148 1152 1156 1160 1164 1168 1172 1176 1180 1184 1188 1192 1196 1200 1204 1208 1212 1216 1220 1224 1228 1232 1236 1240 1244 1248 1252 1256 1260 1264 1268 1272 1276 1280 1284 1288 1292 1296 1300 1304 1308 1312 1316 1320 1324 1328 1332 1336 1340 1344 1348 1352 1356 1360 1364 1368 1372 1376 1380 1384 1388 1392 1396 1400 1404 1408 1412 1416 1420 1424 1428 1432 1436 1440 1444 1448 1452 1456 1460 1464 1468 1472 1476 1480 1484 1488 1492 1496 1500 1504 1508 1512 1516 1520 1524 1528 1532 1536 1540 1544 1548 1552 1556 1560 1564 1568 1572 1576 1580 1584 1588 1592 1596 1600 1604 1608 1612 1616 1620 1624 1628 1632 1636 1640 1644 1648 1652 1656 1660 1664 1668 1672 1676 1680 1684 1688 1692 1696 1700 1704 1708 1712 1716 1720 1724 1728 1732 1736 1740 1744 1748 1752 1756 1760 1764 1768 1772 1776 1780 1784 1788 1792 1796 1800 1804 1808 1812 1816 1820 1824 1828 1832 1836 1840 1844 1848 1852 1856 1860 1864 1868 1872 1876 1880 1884 1888 1892 1896 1900 1904 1908 1912 1916 1920 1924 1928 1932 1936 1940 1944 1948 1952 1956 1960 1964 1968 1972 1976 1980 1984 1988 1992 1996 2000 2004 2008 2012 2016 2020 2024 2028 2032 2036 2040 2044 2048 2052 2056 2060 2064 2068 2072 2076 2080 2084 2088 2092 2096 2100 2104 2108 2112 2116 2120 2124 2128 2132 2136 2140 2144 2148 2152 2156 2160 
</DataArray>
<DataArray type="UInt32" Name="types" format="ascii">
10 10 10 10 10 10 10 10 10 10 10 10 10 10 10 10 10 10 10 10 10 10 10 10 10 10 10 10 10 10 10 10 10 10 10 10 10 10 10 10 10 10 10 10 10 10 10 10 10 10 10 10 10 10 10 10 10 10 10 10 10 10 10 10 10 10 10 10 10 10 10 10 10 10 10 10 10 10 10 10 10 10 10 10 10 10 10 10 10 10 10 10 10 10 10 10 10 10 10 10 10 10 10 10 10 10 10 10 10 10 10 10 10 10 10 10 10 10 10 10 10 10 10 10 10 10 10 10 10 10 10 10 10 10 10 10 10 10 10 10 10 10 10 10 10 10 10 10 10 10 10 10 10 10 10 10 10 10 10 10 10 10 10 10 10 10 10 10 10 10 10 10 10 10 10 10 10 10 10 10 10 10 10 10 10 10 10 10 10 10 10 10 10 10 10 10 10 10 10 10 10 10 10 10 10 10 10 10 10 10 10 10 10 10 10 10 10 10 10 10 10 10 10 10 10 10 10 10 10 10 10 10 10 10 10 10 10 10 10 10 10 10 10 10 10 10 10 10 10 10 10 10 10 10 10 10 10 10 10 10 10 10 10 10 10 10 10 10 10 10 10 10 10 10 10 10 10 10 10 10 10 10 10 10 10 10 10 10 10 10 10 10 10 10 10 10 10 10 10 10 10 10 10 10 10 10 10 10 10 10 10 10 10 10 10 10 10 10 10 10 10 10 10 10 10 10 10 10 10 10 10 10 10 10 10 10 10 10 10 10 10 10 10 10 10 10 10 10 10 10 10 10 10 10 10 10 10 10 10 10 10 10 10 10 10 10 10 10 10 10 10 10 10 10 10 10 10 10 10 10 10 10 10 10 10 10 10 10 10 10 10 10 10 10 10 10 10 10 10 10 10 10 10 10 10 10 10 10 10 10 10 10 10 10 10 10 10 10 10 10 10 10 10 10 10 10 10 10 10 10 10 10 10 10 10 10 10 10 10 10 10 10 10 10 10 10 10 10 10 10 10 10 10 10 10 10 10 10 10 10 10 10 10 10 10 10 10 10 10 10 10 10 10 10 10 10 10 10 10 10 10 10 10 10 10 10 10 10 10 10 10 10 10 10 10 10 10 10 10 10 10 10 10 10 10 10 10 10 10 10 10 10 10 10 10 10 10 10 10 10 10 10 10 10 10 10 10 10 10 10 10 10 10 10 10 10 10 10 10 10 
</DataArray>
</Cells>
<PointData Scalars="" Vectors="displacement," Tensors="">
<DataArray type="Float64" Name="displacement" NumberOfComponents="3" format="ascii">
-1.3343357854856724e-07 -1.9517211024580744e-08 -0.00025021888033931454 -1.27598700440135e-07 4.9916451127843288e-08 -0.00025023841968930356 -8.4333608851355118e-08 -2.3212551232944728e-08 -0.00025021819409292193 2.4515339222823886e-08 1.6152691055267775e-08 -1.874993483614091e-07 -1.007547812206055e-07 -8.6367717447451655e-08 -0.00025023337905603774 -1.3343357854856724e-07 -1.9517211024580744e-08 -0.00025021888033931454 -8.4333608851355118e-08 -2.3212551232944728e-08 -0.00025021819409292193 2.4515339222823886e-08 1.6152691055267775e-08 -1.874993483614091e-07 -5.4630253097252602e-08 -3.5568346936606201e-08 -1.0558484185808464e-07 -1.0075478122060549e-07 -8.6367717447451668e-08 -0.00025023337905603769 2.4515339222823886e-08 1.6152691055267775e-08 -1.874993483614091e-07 -1.3343357854856724e-07 -1.9517211024580744e-08 -0.00025021888033931454 -5.229606373689552e-08 -4.3714324776519096e-09 -2.4536007303828893e-07 -5.4630253097252602e-08 -3.5568346936606201e-08 -1.0558484185808464e-07 2.4515339222823886e-08 1.6152691055267775e-08 -1.874993483614091e-07 -1.3343357854856724e-07 -1.9517211024580744e-08 -0.00025021888033931454 -2.6317444029008699e-09 1.133215411557322e-08 -2.146836494381651e-07 -5.4678897971931178e-08 1.3877861469942286e-08 -0.00025020484121338066 2.4515339222823886e-08 1.6152691055267775e-08 -1.874993483614091e-07 -4.0156495094733106e-08 -5.0909892174194909e-08 -0.00025020400112433713 -1.007547812206055e-07 -8.6367717447451655e-08 -0.00025023337905603774 -4.0156495094733112e-08 -5.0909892174194909e-08 -0.00025020400112433713 -2.6317444029008699e-09 1.133215411557322e-08 -2.146836494381651e-07 2.4515339222823886e-08 1.6152691055267775e-08 -1.874993483614091e-07 -5.4678897971931151e-08 1.3877861469942272e-08 -0.0002502048412133806 -4.0156495094733106e-08 -5.0909892174194909e-08 -0.00025020400112433713 -8.4333608851355118e-08 -2.3212551232944728e-08 -0.00025021819409292193 2.4515339222823886e-08 1.6152691055267775e-08 -1.874993483614091e-07 -4.0156495094733106e-08 -5.0909892174194909e-08 -0.00025020400112433713 -1.0075478122060551e-07 -8.6367717447451655e-08 -0.00025023337905603774 -8.4333608851355105e-08 -2.3212551232944718e-08 -0.00025021819409292188 2.4515339222823886e-08 1.6152691055267775e-08 -1.874993483614091e-07 -2.4656542245968197e-08 -4.6470940278932231e-08 -2.3441208488411725e-07 -5.1940788078518691e-08 -1.2724766743459271e-07 -0.00025020779713669477 -2.6317444029008699e-09 1.133215411557322e-08 -2.146836494381651e-07 -1.007547812206055e-07 -8.6367717447451655e-08 -0.00025023337905603774 -2.4656542245968197e-08 -4.6470940278932231e-08 -2.3441208488411725e-07 -2.6317444029008649e-09 1.1332154115573226e-08 -2.146836494381651e-07 2.4515339222823886e-08 1.6152691055267775e-08 -1.874993483614091e-07 -1.007547812206055e-07 -8.6367717447451655e-08 -0.00025023337905603774 -5.4630253097252602e-08 -3.5568346936606201e-08 -1.0558484185808464e-07 -2.4656542245968197e-08 -4.6470940278932231e-08 -2.3441208488411725e-07 2.4515339222823886e-08 1.6152691055267775e-08 -1.874993483614091e-07 -1.007547812206055e-07 -8.6367717447451655e-08 -0.00025023337905603774 -2.4656542245968197e-08 -4.6470940278932231e-08 -2.3441208488411725e-07 5.0248071517187929e-09 -5.2721002443280929e-08 -1.8098153659434347e-07 -2.6317444029008699e-09 1.133215411557322e-08 -2.146836494381651e-07 -5.1940788078518697e-08 -1.2724766743459269e-07 -0.00025020779713669477 -2.6317444029008699e-09 1.133215411557322e-08 -2.146836494381651e-07 5.024807151718797e-09 -5.2721002443280929e-08 -1.809815365943188e-07 -4.8807927322646051e-09 1.6546720749348468e-08 -9.7709436023644976e-08 -5.1940788078518697e-08 -1.2724766743459269e-07 -0.00025020779713669477 -2.6317444029008699e-09 1.133215411557322e-08 -2.146836494381651e-07 -5.1940788078518691e-08 -1.2724766743459274e-07 -0.00025020779713669472 -4.8807927322646051e-09 1.6546720749348472e-08 -9.7709436023653565e-08 -4.0156495094733106e-08 -5.0909892174194909e-08 -0.00025020400112433713 3.7898004420652125e-09 2.5030924134431526e-09 -1.8649050362157096e-07 -2.6317444029008699e-09 1.133215411557322e-08 -2.146836494381651e-07 5.7104019324669832e-09 -9.1897631381187e-09 -7.2571550107096204e-08 -4.0156495094733106e-08 -5.0909892174194909e-08 -0.00025020400112433713 5.7104019324669832e-09 -9.1897631381187e-09 -7.2571550107096204e-08 -2.6317444029008724e-09 1.1332154115573217e-08 -2.1468364943817744e-07 -4.8807927322646051e-09 1.6546720749348468e-08 -9.7709436023644976e-08 -4.0156495094733106e-08 -5.0909892174194909e-08 -0.00025020400112433713 5.7104019324669832e-09 -9.1897631381187e-09 -7.2571550107096204e-08 -4.0156495094733086e-08 -5.0909892174194949e-08 -0.00025020400112433719 -4.8807927322646026e-09 1.6546720749348465e-08 -9.7709436023650217e-08 -5.1082545419339247e-09 -8.4144271412481956e-08 -0.00025018509000215454 5.3188333682316065e-08 -2.6640315953121518e-08 -0.0002501954095354735 1.2402477596162581e-08 -4.2727359215986243e-08 -0.00025018016837533773 5.7104019324669832e-09 -9.1897631381187e-09 -7.2571550107096204e-08 -1.2701606378698953e-08 1.1315006910720363e-08 -9.8543755952144346e-08 -1.2601085779152973e-08 4.7781328529163841e-09 -1.7697878244650629e-07 5.7104019324669832e-09 -9.1897631381186983e-09 -7.2571550107096191e-08 -1.2701606378698953e-08 1.1315006910720363e-08 -9.8543755952144346e-08 5.3188333682316065e-08 -2.6640315953121518e-08 -0.0002501954095354735 5.7104019324669832e-09 -9.1897631381187e-09 -7.2571550107096204e-08 -5.1082545419339247e-09 -8.4144271412481956e-08 -0.00025018509000215454 -1.2701606378698953e-08 1.1315006910720363e-08 -9.8543755952144346e-08 1.2402477596162571e-08 -4.2727359215986243e-08 -0.00025018016837533773 5.7104019324669832e-09 -9.1897631381187e-09 -7.2571550107096204e-08 -4.8807927322646051e-09 1.6546720749348468e-08 -9.7709436023644976e-08 -1.2701606378698953e-08 1.1315006910720363e-08 -9.8543755952144346e-08 -5.1082545419339247e-09 -8.4144271412481956e-08 -0.00025018509000215454 -4.8807927322646051e-09 1.6546720749348468e-08 -9.7709436023644976e-08 2.9118619677527048e-08 -4.4973808968901839e-08 -1.3795280966625935e-07 -1.2701606378698953e-08 1.1315006910720363e-08 -9.8543755952144346e-08 1.9424295919174155e-08 -1.3542565328836913e-07 -0.0002501974827172554 5.024807151718797e-09 -5.2721002443280929e-08 -1.809815365943188e-07 1.9424295919174158e-08 -1.3542565328836916e-07 -0.00025019748271725545 -4.8807927322646051e-09 1.6546720749348468e-08 -9.7709436023644976e-08 -5.1940788078518684e-08 -1.2724766743459269e-07 -0.00025020779713669472 5.024807151718797e-09 -5.2721002443280929e-08 -1.809815365943188e-07 2.9118619677527055e-08 -4.4973808968901859e-08 -1.3795280966625935e-07 -4.8807927322646051e-09 1.6546720749348468e-08 -9.7709436023644976e-08 1.9424295919174152e-08 -1.3542565328836916e-07 -0.00025019748271725545 -4.8807927322646051e-09 1.6546720749348468e-08 -9.7709436023644976e-08 1.9424295919174155e-08 -1.3542565328836913e-07 -0.0002501974827172554 -1.2701606378698953e-08 1.1315006910720365e-08 -9.8543755952139807e-08 -5.1082545419339247e-09 -8.4144271412481956e-08 -0.00025018509000215454 1.9424295919174155e-08 -1.3542565328836913e-07 -0.0002501974827172554 -5.1940788078518677e-08 -1.2724766743459266e-07 -0.00025020779713669466 -5.1082545419339247e-09 -8.4144271412481956e-08 -0.00025018509000215454 -4.8807927322646051e-09 1.6546720749348468e-08 -9.7709436023644976e-08 1.9424295919174155e-08 -1.3542565328836913e-07 -0.0002501974827172554 -5.1082545419339247e-09 -8.4144271412481956e-08 -0.00025018509000215454 3.6403420007829073e-08 -7.0372824622666825e-08 -0.00025018849820706559 -1.2701606378698953e-08 1.1315006910720363e-08 -9.8543755952144346e-08 1.2402477596162571e-08 -4.2727359215986243e-08 -0.00025018016837533773 5.3188333682316071e-08 -2.6640315953121518e-08 -0.0002501954095354735 3.6403420007829073e-08 -7.0372824622666825e-08 -0.00025018849820706559 -1.2701606378698953e-08 1.1315006910720363e-08 -9.8543755952144346e-08 -5.1082545419339247e-09 -8.4144271412481956e-08 -0.00025018509000215454 1.2402477596162571e-08 -4.2727359215986243e-08 -0.00025018016837533773 3.6403420007829073e-08 -7.0372824622666825e-08 -0.00025018849820706559 -1.2701606378698953e-08 1.1315006910720363e-08 -9.8543755952144346e-08 -4.0156495094733106e-08 -5.0909892174194909e-08 -0.00025020400112433713 1.2402477596162573e-08 -4.2727359215986243e-08 -0.00025018016837533773 -5.1082545419339247e-09 -8.4144271412481956e-08 -0.00025018509000215454 5.7104019324669832e-09 -9.1897631381187e-09 -7.2571550107096204e-08 -4.0156495094733106e-08 -5.0909892174194909e-08 -0.00025020400112433713 4.6057934970028016e-09 -1.6605689098350552e-10 -0.00025019723058800877 1.2402477596162571e-08 -4.2727359215986243e-08 -0.00025018016837533773 5.7104019324669832e-09 -9.1897631381187e-09 -7.2571550107096204e-08 -5.1940788078518684e-08 -1.2724766743459269e-07 -0.00025020779713669472 -4.0156495094733106e-08 -5.0909892174194909e-08 -0.00025020400112433713 -5.1082545419339247e-09 -8.4144271412481956e-08 -0.00025018509000215454 -4.8807927322646051e-09 1.6546720749348468e-08 -9.7709436023644976e-08 -5.1940788078518684e-08 -1.2724766743459269e-07 -0.00025020779713669472 -1.007547812206055e-07 -8.6367717447451641e-08 -0.00025023337905603774 -4.0156495094733106e-08 -5.0909892174194909e-08 -0.00025020400112433713 -2.6317444029008587e-09 1.1332154115573236e-08 -2.1468364943810986e-07 -4.0156495094733106e-08 -5.0909892174194909e-08 -0.00025020400112433713 -5.1940788078518684e-08 -1.2724766743459269e-07 -0.00025020779713669472 -5.1082545419339247e-09 -8.4144271412481956e-08 -0.00025018509000215454 1.3426780549622452e-08 -1.0928201407951814e-07 -0.00050024200001112676 1.3426780549622435e-08 -1.0928201407951815e-07 -0.00050024200001112676 -1.7767082337222e-08 -5.5699082247880275e-08 -0.00050024083700374962 2.1585867124284082e-08 -7.3840220243886668e-08 -0.00050023715947510375 -5.1082545419339247e-09 -8.4144271412481956e-08 -0.00025018509000215454 -4.0156495094733106e-08 -5.0909892174194909e-08 -0.00025020400112433713 1.3426780549622437e-08 -1.0928201407951818e-07 -0.00050024200001112676 -5.1082545419339238e-09 -8.4144271412481943e-08 -0.00025018509000215454 -1.7767082337222e-08 -5.5699082247880275e-08 -0.00050024083700374962 1.3426780549622435e-08 -1.0928201407951815e-07 -0.00050024200001112676 -4.4958730802290727e-08 -1.0091876310881224e-07 -0.00050025161271369982 -1.7767082337222e-08 -5.5699082247880275e-08 -0.00050024083700374962 -4.0156495094733106e-08 -5.0909892174194909e-08 -0.00025020400112433708 -1.007547812206055e-07 -8.6367717447451655e-08 -0.00025023337905603774 -5.1940788078518677e-08 -1.2724766743459266e-07 -0.00025020779713669472 -4.0156495094733106e-08 -5.0909892174194909e-08 -0.00025020400112433713 1.3426780549622452e-08 -1.0928201407951814e-07 -0.00050024200001112676 4.6057934970028016e-09 -1.6605689098350552e-10 -0.00025019723058800877 -4.0156495094733106e-08 -5.0909892174194909e-08 -0.00025020400112433713 1.2402477596162571e-08 -4.2727359215986243e-08 -0.00025018016837533773 -1.7767082337222e-08 -5.5699082247880275e-08 -0.00050024083700374962 1.2402477596162571e-08 -4.2727359215986243e-08 -0.00025018016837533773 -1.7767082337221964e-08 -5.5699082247880275e-08 -0.00050024083700374972 -5.1082545419339222e-09 -8.4144271412481956e-08 -0.00025018509000215454 2.1585867124284082e-08 -7.3840220243886668e-08 -0.00050023715947510375 -1.7767082337222e-08 -5.5699082247880275e-08 -0.00050024083700374962 5.2846910863537093e-09 3.397641671536603e-09 -0.00050024025274754305 2.1896623729260335e-08 -3.3945269603411072e-08 -0.00050023625603702149 1.2402477596162571e-08 -4.2727359215986243e-08 -0.00025018016837533773 1.2402477596162571e-08 -4.2727359215986243e-08 -0.00025018016837533773 -4.0156495094733106e-08 -5.0909892174194909e-08 -0.00025020400112433713 -5.1082545419339247e-09 -8.4144271412481956e-08 -0.00025018509000215454 -1.7767082337222e-08 -5.5699082247880275e-08 -0.00050024083700374962 -1.7767082337222e-08 -5.5699082247880275e-08 -0.00050024083700374962 2.1896623729260335e-08 -3.3945269603411072e-08 -0.00050023625603702149 2.1585867124284082e-08 -7.3840220243886668e-08 -0.00050023715947510375 1.2402477596162571e-08 -4.2727359215986243e-08 -0.00025018016837533773 2.1896623729260335e-08 -3.3945269603411072e-08 -0.00050023625603702149 5.4738586949261167e-08 -1.5669805572913536e-08 -0.00050024205920415452 5.1803901583393827e-08 -5.3004591313856798e-08 -0.00050023749207254726 3.6403420007829073e-08 -7.0372824622666825e-08 -0.00025018849820706559 5.3188333682316065e-08 -2.6640315953121518e-08 -0.0002501954095354735 1.2402477596162569e-08 -4.2727359215986249e-08 -0.00025018016837533773 3.6403420007829073e-08 -7.0372824622666825e-08 -0.00025018849820706559 5.473858694926116e-08 -1.5669805572913532e-08 -0.00050024205920415452 5.473858694926116e-08 -1.5669805572913532e-08 -0.00050024205920415452 2.1896623729260341e-08 -3.3945269603411065e-08 -0.00050023625603702149 1.2402477596162571e-08 -4.2727359215986243e-08 -0.00025018016837533773 3.6403420007829073e-08 -7.0372824622666825e-08 -0.00025018849820706559 1.2402477596162571e-08 -4.2727359215986243e-08 -0.00025018016837533773 2.1585867124284082e-08 -7.3840220243886668e-08 -0.00050023715947510375 3.6403420007829073e-08 -7.0372824622666825e-08 -0.00025018849820706559 2.1896623729260335e-08 -3.3945269603411072e-08 -0.00050023625603702149 1.2402477596162571e-08 -4.2727359215986243e-08 -0.00025018016837533773 -5.1082545419339247e-09 -8.4144271412481956e-08 -0.00025018509000215454 3.6403420007829073e-08 -7.0372824622666825e-08 -0.00025018849820706559 2.1585867124284082e-08 -7.3840220243886668e-08 -0.00050023715947510375 2.1585867124284082e-08 -7.3840220243886668e-08 -0.00050023715947510375 2.1896623729260335e-08 -3.3945269603411072e-08 -0.00050023625603702149 5.1803901583393827e-08 -5.3004591313856798e-08 -0.00050023749207254726 3.6403420007829073e-08 -7.0372824622666825e-08 -0.00025018849820706559 -5.1940788078518684e-08 -1.2724766743459269e-07 -0.00025020779713669472 1.9424295919174155e-08 -1.3542565328836913e-07 -0.0002501974827172554 -5.1082545419339247e-09 -8.4144271412481956e-08 -0.00025018509000215454 6.642087414701967e-08 -8.7910564642098427e-08 -0.00050023819146391153 6.6420874147019657e-08 -8.7910564642098453e-08 -0.00050023819146391153 1.3426780549622429e-08 -1.0928201407951814e-07 -0.00050024200001112665 2.1585867124284082e-08 -7.3840220243886668e-08 -0.00050023715947510375 -5.1082545419339247e-09 -8.4144271412481956e-08 -0.00025018509000215454 -5.1940788078518684e-08 -1.2724766743459269e-07 -0.00025020779713669472 6.6420874147019683e-08 -8.791056464209844e-08 -0.00050023819146391153 -5.1082545419339247e-09 -8.4144271412481956e-08 -0.00025018509000215454 1.3426780549622435e-08 -1.0928201407951815e-07 -0.00050024200001112676 -5.1082545419339247e-09 -8.4144271412481956e-08 -0.00025018509000215454 6.6420874147019657e-08 -8.7910564642098453e-08 -0.00050023819146391153 3.6403420007829073e-08 -7.0372824622666838e-08 -0.00025018849820706565 2.1585867124284082e-08 -7.3840220243886668e-08 -0.00050023715947510375 -5.1082545419339247e-09 -8.4144271412481956e-08 -0.00025018509000215454 1.9424295919174152e-08 -1.3542565328836913e-07 -0.0002501974827172554 3.6403420007829073e-08 -7.0372824622666825e-08 -0.00025018849820706559 6.6420874147019657e-08 -8.7910564642098453e-08 -0.00050023819146391153 6.6420874147019657e-08 -8.7910564642098453e-08 -0.00050023819146391153 2.1585867124284082e-08 -7.3840220243886668e-08 -0.00050023715947510375 5.1803901583393827e-08 -5.3004591313856798e-08 -0.00050023749207254726 3.6403420007829073e-08 -7.0372824622666825e-08 -0.00025018849820706559 1.3426780549622435e-08 -1.0928201407951815e-07 -0.00050024200001112676 6.642087414701967e-08 -8.7910564642098453e-08 -0.00050023819146391153 2.1585867124284082e-08 -7.3840220243886668e-08 -0.00050023715947510375 5.4071423932316163e-08 -9.771340770311664e-08 -0.0007502751787797575 2.1585867124284082e-08 -7.3840220243886668e-08 -0.00050023715947510375 6.6420874147019657e-08 -8.7910564642098466e-08 -0.00050023819146391153 5.1803901583393827e-08 -5.3004591313856798e-08 -0.00050023749207254726 5.4071423932316169e-08 -9.771340770311664e-08 -0.00075027517877975739 2.1896623729260335e-08 -3.3945269603411072e-08 -0.00050023625603702149 2.1585867124284082e-08 -7.3840220243886668e-08 -0.00050023715947510375 5.1803901583393827e-08 -5.3004591313856798e-08 -0.00050023749207254726 1.9438015019120402e-08 -7.5938936899935206e-08 -0.00075027510874081757 5.473858694926116e-08 -1.5669805572913532e-08 -0.00050024205920415452 2.1896623729260335e-08 -3.3945269603411078e-08 -0.00050023625603702149 5.1803901583393827e-08 -5.3004591313856798e-08 -0.00050023749207254726 5.3678577509339144e-08 -1.9711874958898098e-08 -0.00075027778990767436 2.1896623729260335e-08 -3.3945269603411072e-08 -0.00050023625603702149 -1.7767082337222e-08 -5.5699082247880275e-08 -0.00050024083700374962 2.1585867124284082e-08 -7.3840220243886668e-08 -0.00050023715947510375 -1.6531867343532541e-08 -5.5269525013683349e-08 -0.00075027594242896311 5.2846910863537093e-09 3.397641671536603e-09 -0.00050024025274754305 -1.7767082337222e-08 -5.5699082247880275e-08 -0.00050024083700374962 2.1896623729260335e-08 -3.3945269603411072e-08 -0.00050023625603702149 -1.6531867343532541e-08 -5.5269525013683349e-08 -0.00075027594242896311 -4.4958730802290727e-08 -1.0091876310881225e-07 -0.00050025161271369982 1.3426780549622435e-08 -1.0928201407951814e-07 -0.00050024200001112676 -1.7767082337222e-08 -5.5699082247880275e-08 -0.00050024083700374962 -1.935921391230247e-09 -1.1165147847182357e-07 -0.00075027557098400564 -1.7767082337222e-08 -5.5699082247880275e-08 -0.00050024083700374962 1.3426780549622435e-08 -1.0928201407951815e-07 -0.00050024200001112676 2.1585867124284082e-08 -7.3840220243886668e-08 -0.00050023715947510375 -1.935921391230247e-09 -1.1165147847182357e-07 -0.00075027557098400564 -4.4958730802290727e-08 -1.0091876310881225e-07 -0.00050025161271369982 -1.7767082337222004e-08 -5.5699082247880269e-08 -0.00050024083700374962 -6.5685885123521322e-08 -4.3493823005673333e-08 -0.00050024550998187386 -5.7170131312420513e-08 -9.580784415035745e-08 -0.00075027874210762454 -8.7987077514641463e-08 -6.6310177692373026e-08 -0.00050024682621775045 -4.4958730802290727e-08 -1.0091876310881225e-07 -0.00050025161271369982 -6.5685885123521322e-08 -4.3493823005673333e-08 -0.00050024550998187386 -5.7170131312420513e-08 -9.580784415035745e-08 -0.00075027874210762454 -1.007547812206055e-07 -8.6367717447451655e-08 -0.00025023337905603774 1.3426780549622462e-08 -1.0928201407951817e-07 -0.00050024200001112676 -4.0156495094733106e-08 -5.0909892174194909e-08 -0.00025020400112433713 -4.4958730802290727e-08 -1.0091876310881225e-07 -0.00050025161271369982 -1.007547812206055e-07 -8.6367717447451655e-08 -0.00025023337905603774 -4.0156495094733099e-08 -5.0909892174194902e-08 -0.00025020400112433713 -8.4333608851355118e-08 -2.3212551232944728e-08 -0.00025021819409292193 -4.4958730802290727e-08 -1.0091876310881225e-07 -0.00050025161271369982 -1.3343357854856724e-07 -1.9517211024580744e-08 -0.00025021888033931454 -1.007547812206055e-07 -8.6367717447451655e-08 -0.00025023337905603774 -8.4333608851355118e-08 -2.3212551232944728e-08 -0.00025021819409292193 -4.4958730802290727e-08 -1.0091876310881225e-07 -0.00050025161271369982 -5.0936197914133925e-08 3.0296488786698019e-09 -0.0005002427671052975 -1.7767082337222e-08 -5.5699082247880275e-08 -0.00050024083700374962 -6.5685885123521322e-08 -4.3493823005673333e-08 -0.00050024550998187386 -8.4333608851355118e-08 -2.3212551232944728e-08 -0.00025021819409292193 -1.7767082337222e-08 -5.5699082247880275e-08 -0.00050024083700374962 -4.4958730802290734e-08 -1.0091876310881225e-07 -0.00050025161271369982 -6.5685885123521335e-08 -4.349382300567332e-08 -0.00050024550998187375 -8.4333608851355118e-08 -2.3212551232944728e-08 -0.00025021819409292193 -4.4958730802290727e-08 -1.0091876310881225e-07 -0.00050025161271369982 -1.7767082337222e-08 -5.5699082247880289e-08 -0.00050024083700374962 -4.0156495094733106e-08 -5.0909892174194909e-08 -0.00025020400112433713 -8.4333608851355118e-08 -2.3212551232944728e-08 -0.00025021819409292193 -4.0156495094733106e-08 -5.0909892174194909e-08 -0.00025020400112433713 -5.0936197914133918e-08 3.0296488786698172e-09 -0.0005002427671052975 -8.4333608851355118e-08 -2.3212551232944728e-08 -0.00025021819409292193 -1.7767082337222e-08 -5.5699082247880275e-08 -0.00050024083700374962 -4.4958730802290727e-08 -1.0091876310881225e-07 -0.00050025161271369982 -8.7987077514641463e-08 -6.6310177692373026e-08 -0.00050024682621775045 -6.5685885123521322e-08 -4.3493823005673333e-08 -0.00050024550998187386 -8.4333608851355118e-08 -2.3212551232944728e-08 -0.00025021819409292193 -1.3343357854856724e-07 -1.9517211024580744e-08 -0.00025021888033931454 -4.495873080229074e-08 -1.0091876310881227e-07 -0.00050025161271369982 -8.4333608851355118e-08 -2.3212551232944728e-08 -0.00025021819409292193 -8.7987077514641463e-08 -6.6310177692373026e-08 -0.00050024682621775045 -8.7987077514641463e-08 -6.6310177692373026e-08 -0.00050024682621775045 -1.0916633378490418e-07 -1.3238966798271569e-08 -0.00050025404021855169 -6.5685885123521322e-08 -4.3493823005673333e-08 -0.00050024550998187386 -8.4333608851355118e-08 -2.3212551232944728e-08 -0.00025021819409292193 -1.27598700440135e-07 4.9916451127843288e-08 -0.00025023841968930356 -1.3343357854856724e-07 -1.9517211024580744e-08 -0.00025021888033931454 -8.4333608851355118e-08 -2.3212551232944728e-08 -0.00025021819409292193 -8.7987077514641463e-08 -6.6310177692373026e-08 -0.00050024682621775045 -1.0916633378490418e-07 -1.3238966798271571e-08 -0.00050025404021855169 -8.7987077514641463e-08 -6.6310177692373026e-08 -0.00050024682621775045 -6.5685885123521322e-08 -4.3493823005673333e-08 -0.00050024550998187386 -9.7769179645463082e-08 -5.4078258485153684e-08 -0.00075027702942207246 -5.0936197914133925e-08 3.0296488786698019e-09 -0.0005002427671052975 -1.7767082337222e-08 -5.5699082247880275e-08 -0.00050024083700374962 5.2846910863537093e-09 3.397641671536603e-09 -0.00050024025274754305 -5.0721136044743309e-08 5.2339010090858129e-09 -0.00075027703796391981 -1.7767082337222e-08 -5.5699082247880275e-08 -0.00050024083700374962 -5.0936197914133918e-08 3.029648878669811e-09 -0.0005002427671052975 -6.5685885123521322e-08 -4.3493823005673333e-08 -0.00050024550998187386 -5.0721136044743303e-08 5.2339010090858137e-09 -0.00075027703796391992 -5.0936197914133925e-08 3.0296488786698019e-09 -0.0005002427671052975 5.2846910863537093e-09 3.397641671536603e-09 -0.00050024025274754305 -1.9840411601414138e-08 3.6185590964921887e-08 -0.00050023862220984297 -5.0721136044743309e-08 5.2339010090858129e-09 -0.00075027703796391981 -5.0936197914133925e-08 3.0296488786698019e-09 -0.0005002427671052975 -1.0916633378490418e-07 -1.3238966798271571e-08 -0.00050025404021855169 -6.5685885123521322e-08 -4.3493823005673333e-08 -0.00050024550998187386 -1.1167746200380276e-07 1.9373243851282114e-09 -0.0007502802669258783 -1.0916633378490418e-07 -1.3238966798271571e-08 -0.00050025404021855169 -5.0936197914133925e-08 3.0296488786698019e-09 -0.0005002427671052975 -6.5685885123521322e-08 -4.3493823005673333e-08 -0.00050024550998187386 -8.4333608851355118e-08 -2.3212551232944728e-08 -0.00025021819409292193 -5.4678897971931151e-08 1.3877861469942272e-08 -0.0002502048412133806 -1.27598700440135e-07 4.9916451127843288e-08 -0.00025023841968930356 -8.4333608851355118e-08 -2.3212551232944728e-08 -0.00025021819409292193 -1.0916633378490418e-07 -1.3238966798271571e-08 -0.00050025404021855169 -5.4678897971931151e-08 1.3877861469942272e-08 -0.0002502048412133806 -1.0916633378490418e-07 -1.3238966798271566e-08 -0.00050025404021855169 -8.4333608851355118e-08 -2.3212551232944728e-08 -0.00025021819409292193 -5.0936197914133925e-08 3.0296488786698019e-09 -0.0005002427671052975 -1.27598700440135e-07 4.9916451127843288e-08 -0.00025023841968930356 -8.798707751464145e-08 -6.6310177692373052e-08 -0.00050024682621775055 -8.4333608851355131e-08 -2.3212551232944718e-08 -0.00025021819409292193 -1.0916633378490418e-07 -1.3238966798271571e-08 -0.00050025404021855169 -4.0156495094733106e-08 -5.0909892174194909e-08 -0.00025020400112433713 -5.4678897971931145e-08 1.3877861469942277e-08 -0.0002502048412133806 -8.4333608851355118e-08 -2.3212551232944728e-08 -0.00025021819409292193 -5.0936197914133918e-08 3.0296488786697957e-09 -0.0005002427671052976 -5.4678897971931151e-08 1.3877861469942272e-08 -0.0002502048412133806 4.6057934970028016e-09 -1.6605689098350552e-10 -0.00025019723058800877 -7.0302580726627986e-09 4.0878228207723121e-08 -0.00025017992597111088 -5.0936197914133925e-08 3.0296488786698019e-09 -0.0005002427671052975 -5.4678897971931151e-08 1.3877861469942272e-08 -0.0002502048412133806 -4.0156495094733106e-08 -5.0909892174194909e-08 -0.00025020400112433713 4.6057934970028016e-09 -1.6605689098350552e-10 -0.00025019723058800877 -5.0936197914133925e-08 3.0296488786698019e-09 -0.0005002427671052975 -2.5386416215678113e-08 6.925740974876676e-08 -0.00050024065343358696 -1.9840411601414138e-08 3.6185590964921887e-08 -0.00050023862220984297 -5.1285251412034779e-08 5.0050822470883951e-08 -0.00050023980822751452 -3.5772131634693689e-08 6.6277824803623663e-08 -0.0002501937011439103 -5.4678897971931151e-08 1.3877861469942272e-08 -0.0002502048412133806 -7.0302580726627986e-09 4.0878228207723121e-08 -0.00025017992597111088 -3.5772131634693689e-08 6.6277824803623663e-08 -0.0002501937011439103 -5.0936197914133925e-08 3.0296488786698019e-09 -0.0005002427671052975 -7.0302580726627986e-09 4.0878228207723121e-08 -0.00025017992597111088 -5.4880723271249961e-10 8.0956147784799919e-08 -0.00025019046185398113 -3.5772131634693689e-08 6.6277824803623663e-08 -0.0002501937011439103 -1.9840411601414138e-08 3.6185590964921887e-08 -0.00050023862220984297 -1.9840411601414138e-08 3.6185590964921887e-08 -0.00050023862220984297 -5.0936197914133925e-08 3.0296488786698019e-09 -0.0005002427671052975 -5.1285251412034779e-08 5.0050822470883951e-08 -0.00050023980822751452 -3.5772131634693689e-08 6.6277824803623663e-08 -0.0002501937011439103 -5.0936197914133925e-08 3.0296488786698019e-09 -0.0005002427671052975 -1.9840411601414138e-08 3.6185590964921887e-08 -0.00050023862220984297 -7.0302580726627986e-09 4.0878228207723121e-08 -0.00025017992597111088 -3.5772131634693689e-08 6.6277824803623663e-08 -0.0002501937011439103 -5.0936197914133925e-08 3.0296488786698019e-09 -0.0005002427671052975 -1.0132617969739203e-07 4.3164325712993229e-08 -0.00050024831347220654 -5.1285251412034779e-08 5.0050822470883951e-08 -0.00050023980822751452 -3.5772131634693689e-08 6.6277824803623663e-08 -0.0002501937011439103 -1.0132617969739205e-07 4.3164325712993216e-08 -0.00050024831347220654 -5.0936197914133925e-08 3.0296488786698019e-09 -0.0005002427671052975 -5.4678897971931151e-08 1.3877861469942272e-08 -0.0002502048412133806 -3.5772131634693689e-08 6.6277824803623663e-08 -0.0002501937011439103 -8.5148260759979407e-08 1.0636643457822838e-07 -0.00025022557610489168 -1.0916633378490418e-07 -1.3238966798271571e-08 -0.00050025404021855169 -5.4678897971931151e-08 1.3877861469942272e-08 -0.0002502048412133806 -1.0132617969739205e-07 4.3164325712993216e-08 -0.00050024831347220654 -8.5148260759979407e-08 1.0636643457822838e-07 -0.00025022557610489168 -1.2759870044013497e-07 4.9916451127843275e-08 -0.00025023841968930361 -5.4678897971931151e-08 1.3877861469942272e-08 -0.0002502048412133806 -1.0916633378490418e-07 -1.3238966798271571e-08 -0.00050025404021855169 -1.0916633378490418e-07 -1.3238966798271571e-08 -0.00050025404021855169 -1.0132617969739205e-07 4.3164325712993216e-08 -0.00050024831347220654 -5.0936197914133925e-08 3.0296488786698019e-09 -0.0005002427671052975 -5.4678897971931151e-08 1.3877861469942272e-08 -0.0002502048412133806 -8.5148260759979407e-08 1.0636643457822838e-07 -0.00025022557610489168 -5.4678897971931151e-08 1.3877861469942272e-08 -0.0002502048412133806 -3.5772131634693689e-08 6.6277824803623663e-08 -0.0002501937011439103 -1.0132617969739205e-07 4.3164325712993216e-08 -0.00050024831347220654 -1.0132617969739205e-07 4.3164325712993216e-08 -0.00050024831347220654 -1.0916633378490418e-07 -1.3238966798271568e-08 -0.00050025404021855179 -5.0936197914133925e-08 3.0296488786698019e-09 -0.0005002427671052975 -1.1167746200380276e-07 1.9373243851282114e-09 -0.0007502802669258783 -1.0132617969739205e-07 4.3164325712993216e-08 -0.00050024831347220654 -5.0936197914133925e-08 3.0296488786698019e-09 -0.0005002427671052975 -5.1285251412034779e-08 5.0050822470883951e-08 -0.00050023980822751452 -9.5744835648322365e-08 5.7468822276808474e-08 -0.00075027895345607532 -1.9840411601414138e-08 3.6185590964921887e-08 -0.00050023862220984297 -2.5386416215678113e-08 6.925740974876676e-08 -0.00050024065343358696 -5.1285251412034779e-08 5.0050822470883951e-08 -0.00050023980822751452 -1.9295948113568093e-08 3.6141544592859821e-08 -0.00075027660235657881 -5.0936197914133925e-08 3.0296488786698019e-09 -0.0005002427671052975 -1.9840411601414138e-08 3.6185590964921887e-08 -0.00050023862220984297 -5.1285251412034779e-08 5.0050822470883951e-08 -0.00050023980822751452 -5.0721136044743309e-08 5.2339010090858129e-09 -0.00075027703796391981 5.2846910863537093e-09 3.397641671536603e-09 -0.00050024025274754305 1.2958524787157049e-08 5.6981117402416433e-08 -0.00050024595673333846 -1.9840411601414138e-08 3.6185590964921887e-08 -0.00050023862220984297 4.8934179529054856e-09 1.8440425392450775e-09 -0.00075027640125934262 -1.9840411601414138e-08 3.6185590964921887e-08 -0.00050023862220984297 1.2958524787157059e-08 5.6981117402416426e-08 -0.00050024595673333857 -2.5386416215678113e-08 6.925740974876676e-08 -0.00050024065343358696 1.0879332673147105e-08 5.7044345152255223e-08 -0.00075027953838612005 5.2846910863537093e-09 3.397641671536603e-09 -0.00050024025274754305 5.473858694926116e-08 -1.5669805572913532e-08 -0.00050024205920415452 5.7243456372447605e-08 3.4702788551355982e-08 -0.00050025573264682105 5.3678577509339137e-08 -1.9711874958898098e-08 -0.00075027778990767425 5.473858694926116e-08 -1.5669805572913532e-08 -0.00050024205920415452 5.2846910863537093e-09 3.397641671536603e-09 -0.00050024025274754305 2.1896623729260335e-08 -3.3945269603411072e-08 -0.00050023625603702149 5.3678577509339144e-08 -1.9711874958898098e-08 -0.00075027778990767436 1.2958524787157059e-08 5.6981117402416426e-08 -0.00050024595673333857 5.2846910863537093e-09 3.397641671536603e-09 -0.00050024025274754305 5.7243456372447605e-08 3.4702788551355982e-08 -0.00050025573264682105 4.8934179529054856e-09 1.8440425392450775e-09 -0.00075027640125934262 3.7099632791143467e-08 5.4392440780152459e-08 -0.00025020752259783004 5.2846910863537093e-09 3.397641671536603e-09 -0.00050024025274754305 6.9846965321350981e-08 1.9622309312412043e-08 -0.00025024113379916403 1.2958524787157059e-08 5.6981117402416426e-08 -0.00050024595673333857 1.2958524787157059e-08 5.6981117402416426e-08 -0.00050024595673333857 4.487843609676738e-08 1.0091015139895346e-07 -0.00050026569374201366 5.7243456372447605e-08 3.4702788551355982e-08 -0.00050025573264682105 6.9846965321350981e-08 1.9622309312412043e-08 -0.00025024113379916403 5.2846910863537093e-09 3.397641671536603e-09 -0.00050024025274754305 1.2958524787157059e-08 5.6981117402416426e-08 -0.00050024595673333857 5.7243456372447598e-08 3.4702788551355982e-08 -0.00050025573264682094 6.9846965321350981e-08 1.9622309312412043e-08 -0.00025024113379916403 3.7099632791143467e-08 5.4392440780152459e-08 -0.00025020752259783004 4.6057934970028016e-09 -1.6605689098350552e-10 -0.00025019723058800877 6.9846965321350981e-08 1.9622309312412043e-08 -0.00025024113379916403 5.2846910863537093e-09 3.397641671536603e-09 -0.00050024025274754305 5.3188333682316065e-08 -2.6640315953121518e-08 -0.0002501954095354735 4.6057934970028016e-09 -1.6605689098350552e-10 -0.00025019723058800877 1.2402477596162571e-08 -4.2727359215986243e-08 -0.00025018016837533773 5.473858694926116e-08 -1.5669805572913532e-08 -0.00050024205920415452 5.473858694926116e-08 -1.5669805572913532e-08 -0.00050024205920415452 5.2846910863537093e-09 3.397641671536603e-09 -0.00050024025274754305 4.6057934970027751e-09 -1.6605689098354054e-10 -0.00025019723058800883 1.2402477596162571e-08 -4.2727359215986243e-08 -0.00025018016837533773 5.473858694926116e-08 -1.5669805572913532e-08 -0.00050024205920415452 5.2846910863537093e-09 3.397641671536603e-09 -0.00050024025274754305 5.7243456372447605e-08 3.4702788551355982e-08 -0.00050025573264682105 6.9846965321350981e-08 1.9622309312412043e-08 -0.00025024113379916403 4.6057934970028016e-09 -1.6605689098350552e-10 -0.00025019723058800877 5.3188333682316065e-08 -2.6640315953121518e-08 -0.0002501954095354735 6.9846965321350981e-08 1.9622309312412043e-08 -0.00025024113379916403 5.4738586949261154e-08 -1.5669805572913532e-08 -0.00050024205920415452 4.6057934970028016e-09 -1.6605689098350552e-10 -0.00025019723058800877 5.4738586949261147e-08 -1.5669805572913509e-08 -0.00050024205920415441 6.9846965321350981e-08 1.9622309312412043e-08 -0.00025024113379916403 5.2846910863537093e-09 3.397641671536603e-09 -0.00050024025274754305 5.2846910863537093e-09 3.397641671536603e-09 -0.00050024025274754305 5.473858694926116e-08 -1.5669805572913532e-08 -0.00050024205920415452 2.1896623729260335e-08 -3.3945269603411072e-08 -0.00050023625603702149 1.2402477596162571e-08 -4.2727359215986243e-08 -0.00025018016837533773 -5.0936197914133925e-08 3.0296488786698019e-09 -0.0005002427671052975 5.2846910863537093e-09 3.397641671536603e-09 -0.00050024025274754305 4.6057934970027892e-09 -1.6605689098354002e-10 -0.00025019723058800877 -7.0302580726627986e-09 4.0878228207723121e-08 -0.00025017992597111088 -5.0936197914133925e-08 3.0296488786698019e-09 -0.0005002427671052975 -1.7767082337222e-08 -5.5699082247880275e-08 -0.00050024083700374962 -4.0156495094733165e-08 -5.0909892174194929e-08 -0.00025020400112433702 4.6057934970028264e-09 -1.6605689098349828e-10 -0.00025019723058800877 4.6057934970028016e-09 -1.6605689098350552e-10 -0.00025019723058800877 -1.7767082337222e-08 -5.5699082247880262e-08 -0.00050024083700374951 1.2402477596162571e-08 -4.2727359215986243e-08 -0.00025018016837533773 5.2846910863537093e-09 3.397641671536603e-09 -0.00050024025274754305 -1.7767082337222e-08 -5.5699082247880275e-08 -0.00050024083700374962 -5.0936197914133925e-08 3.0296488786698019e-09 -0.0005002427671052975 5.2846910863537093e-09 3.397641671536603e-09 -0.00050024025274754305 4.6057934970028016e-09 -1.6605689098350552e-10 -0.00025019723058800877 5.2846910863537093e-09 3.397641671536603e-09 -0.00050024025274754305 -5.0936197914133925e-08 3.0296488786698019e-09 -0.0005002427671052975 -1.9840411601414138e-08 3.6185590964921887e-08 -0.00050023862220984297 -7.0302580726627986e-09 4.0878228207723121e-08 -0.00025017992597111088 1.2958524787157059e-08 5.6981117402416426e-08 -0.00050024595673333857 5.2846910863537093e-09 3.397641671536603e-09 -0.00050024025274754305 -1.9840411601414138e-08 3.6185590964921887e-08 -0.00050023862220984297 -7.0302580726627986e-09 4.0878228207723121e-08 -0.00025017992597111088 4.6057934970028016e-09 -1.6605689098350552e-10 -0.00025019723058800877 3.709963279114346e-08 5.4392440780152466e-08 -0.00025020752259782999 -7.0302580726627986e-09 4.0878228207723121e-08 -0.00025017992597111088 5.2846910863537093e-09 3.397641671536603e-09 -0.00050024025274754305 5.2846910863537093e-09 3.397641671536603e-09 -0.00050024025274754305 1.2958524787157048e-08 5.698111740241644e-08 -0.00050024595673333857 3.7099632791143513e-08 5.4392440780152453e-08 -0.00025020752259783009 -7.0302580726628499e-09 4.0878228207723134e-08 -0.00025017992597111094 -7.0302580726627986e-09 4.0878228207723121e-08 -0.00025017992597111088 1.2958524787157059e-08 5.6981117402416426e-08 -0.00050024595673333857 -5.4880723271250706e-10 8.0956147784799919e-08 -0.00025019046185398113 -1.9840411601414138e-08 3.6185590964921887e-08 -0.00050023862220984297 -7.0302580726627986e-09 4.0878228207723121e-08 -0.00025017992597111088 3.7099632791143467e-08 5.4392440780152459e-08 -0.00025020752259783004 -5.4880723271250551e-10 8.0956147784799919e-08 -0.00025019046185398113 1.2958524787157059e-08 5.6981117402416426e-08 -0.00050024595673333857 4.6057934970028016e-09 -1.6605689098350552e-10 -0.00025019723058800877 -5.4678897971931151e-08 1.3877861469942272e-08 -0.0002502048412133806 -7.0302580726627986e-09 4.0878228207723121e-08 -0.00025017992597111088 -6.1942179473936845e-09 8.8918491904671647e-09 -6.9361775426195375e-08 3.7099632791143467e-08 5.4392440780152459e-08 -0.00025020752259783004 4.6057934970028016e-09 -1.6605689098350552e-10 -0.00025019723058800877 -7.0302580726627986e-09 4.0878228207723121e-08 -0.00025017992597111088 -6.1942179473936845e-09 8.8918491904671647e-09 -6.9361775426195375e-08 -4.0156495094733106e-08 -5.0909892174194909e-08 -0.00025020400112433713 -5.4678897971931151e-08 1.3877861469942272e-08 -0.0002502048412133806 4.6057934970028016e-09 -1.6605689098350552e-10 -0.00025019723058800877 3.7898004420652125e-09 2.5030924134431526e-09 -1.8649050362157096e-07 5.3188333682316065e-08 -2.6640315953121518e-08 -0.0002501954095354735 4.6057934970028016e-09 -1.6605689098350552e-10 -0.00025019723058800877 6.9846965321350981e-08 1.9622309312412043e-08 -0.00025024113379916403 -1.981031899162508e-08 -1.3053255521277102e-08 -2.5384922472413525e-07 4.6057934970028016e-09 -1.6605689098350552e-10 -0.00025019723058800877 5.3188333682316065e-08 -2.6640315953121518e-08 -0.0002501954095354735 1.2402477596162571e-08 -4.2727359215986243e-08 -0.00025018016837533773 5.7104019324669832e-09 -9.1897631381187e-09 -7.2571550107096204e-08 3.7099632791143467e-08 5.4392440780152459e-08 -0.00025020752259783004 1.0163474980442917e-07 8.6141509951463425e-08 -0.0002502573609038702 6.9846965321350981e-08 1.9622309312412043e-08 -0.00025024113379916403 -1.981031899162508e-08 -1.3053255521277102e-08 -2.5384922472413525e-07 4.6057934970028016e-09 -1.6605689098350552e-10 -0.00025019723058800877 3.7099632791143467e-08 5.4392440780152459e-08 -0.00025020752259783004 6.9846965321350968e-08 1.9622309312412043e-08 -0.00025024113379916397 -1.981031899162508e-08 -1.3053255521277102e-08 -2.5384922472413525e-07 -6.1795051726824054e-10 -1.3447605925006931e-08 -1.8495013923313404e-07 4.6057934970028016e-09 -1.6605689098350552e-10 -0.00025019723058800877 -1.981031899162508e-08 -1.3053255521277102e-08 -2.5384922472413525e-07 3.7099632791143467e-08 5.4392440780152459e-08 -0.00025020752259783004 -6.1795051726824054e-10 -1.3447605925006931e-08 -1.8495013923313404e-07 3.7898004420652125e-09 2.5030924134431526e-09 -1.8649050362157096e-07 -1.981031899162508e-08 -1.3053255521277102e-08 -2.5384922472413525e-07 4.6057934970028016e-09 -1.6605689098350552e-10 -0.00025019723058800877 3.7898004420652125e-09 2.5030924134431526e-09 -1.8649050362157096e-07 -1.2601085779152973e-08 4.7781328529163841e-09 -1.7697878244650629e-07 -1.981031899162508e-08 -1.3053255521277102e-08 -2.5384922472413525e-07 5.3188333682316051e-08 -2.6640315953121511e-08 -0.00025019540953547344 5.3188333682316065e-08 -2.6640315953121518e-08 -0.0002501954095354735 4.6057934970028016e-09 -1.6605689098350552e-10 -0.00025019723058800877 3.7898004420651802e-09 2.5030924134431576e-09 -1.8649050362162329e-07 5.7104019324669832e-09 -9.1897631381187e-09 -7.2571550107096204e-08 3.7898004420652125e-09 2.5030924134431526e-09 -1.8649050362157096e-07 5.3188333682316018e-08 -2.6640315953121501e-08 -0.00025019540953547344 -1.981031899162508e-08 -1.3053255521277102e-08 -2.5384922472413525e-07 4.6057934970028016e-09 -1.6605689098350552e-10 -0.00025019723058800877 -1.2601085779152973e-08 4.7781328529163841e-09 -1.7697878244650629e-07 3.7898004420652125e-09 2.5030924134431526e-09 -1.8649050362157096e-07 5.7104019324669832e-09 -9.1897631381187e-09 -7.2571550107096204e-08 5.3188333682316065e-08 -2.6640315953121518e-08 -0.0002501954095354735 -5.4678897971931151e-08 1.3877861469942272e-08 -0.0002502048412133806 -4.0156495094733106e-08 -5.0909892174194909e-08 -0.00025020400112433713 -2.6317444029008703e-09 1.1332154115573273e-08 -2.1468364943809099e-07 3.7898004420652183e-09 2.5030924134431352e-09 -1.8649050362156974e-07 -5.4678897971931151e-08 1.3877861469942272e-08 -0.0002502048412133806 4.6057934970028016e-09 -1.6605689098350552e-10 -0.00025019723058800877 3.7898004420651976e-09 2.5030924134431526e-09 -1.8649050362156029e-07 -6.1942179473936845e-09 8.8918491904671647e-09 -6.9361775426195375e-08 3.7898004420652125e-09 2.5030924134431526e-09 -1.8649050362157096e-07 -4.0156495094733106e-08 -5.0909892174194909e-08 -0.00025020400112433708 5.7104019324669832e-09 -9.1897631381187e-09 -7.2571550107096204e-08 4.6057934970028016e-09 -1.6605689098350552e-10 -0.00025019723058800877 4.6057934970028016e-09 -1.6605689098350552e-10 -0.00025019723058800877 3.7099632791143473e-08 5.4392440780152479e-08 -0.00025020752259783004 -6.1795051726824715e-10 -1.3447605925006979e-08 -1.8495013923315998e-07 -6.1942179473936646e-09 8.8918491904672342e-09 -6.9361775426271435e-08 -6.1942179473936845e-09 8.8918491904671647e-09 -6.9361775426195375e-08 -6.1795051726824054e-10 -1.3447605925006931e-08 -1.8495013923313404e-07 5.4298365209367417e-09 -1.6140624106410229e-08 -8.8469806688513281e-08 3.7099632791143467e-08 5.4392440780152459e-08 -0.00025020752259783004 -6.1942179473936845e-09 8.8918491904671647e-09 -6.9361775426195375e-08 3.7099632791143467e-08 5.4392440780152459e-08 -0.00025020752259783004 5.4298365209367392e-09 -1.6140624106410229e-08 -8.8469806688516232e-08 -7.0302580726627986e-09 4.0878228207723121e-08 -0.00025017992597111088 3.7898004420652125e-09 2.5030924134431526e-09 -1.8649050362157096e-07 -6.1795051726824302e-10 -1.3447605925006926e-08 -1.8495013923313401e-07 -6.1942179473936845e-09 8.8918491904671647e-09 -6.9361775426195375e-08 4.6057934970028016e-09 -1.6605689098350552e-10 -0.00025019723058800877 -5.4678897971931151e-08 1.3877861469942272e-08 -0.0002502048412133806 -7.0302580726627986e-09 4.0878228207723121e-08 -0.00025017992597111088 -6.1942179473936845e-09 8.8918491904671647e-09 -6.9361775426195375e-08 1.3274573465569649e-08 -1.1032833297540104e-08 -1.0743403236596264e-07 9.3687658351422778e-09 -6.9492423254036639e-09 -2.3280771384232593e-07 -6.1942179473936845e-09 8.8918491904671647e-09 -6.9361775426195375e-08 1.3274573465569649e-08 -1.1032833297540104e-08 -1.0743403236596264e-07 -5.4678897971931151e-08 1.3877861469942272e-08 -0.0002502048412133806 -8.5148260759979407e-08 1.0636643457822838e-07 -0.00025022557610489168 -5.4678897971931151e-08 1.3877861469942272e-08 -0.0002502048412133806 9.3687658351422778e-09 -6.9492423254036639e-09 -2.3280771384232593e-07 1.3274573465569649e-08 -1.1032833297540104e-08 -1.0743403236596264e-07 -6.1942179473936845e-09 8.8918491904671647e-09 -6.9361775426195375e-08 5.4298365209367417e-09 -1.6140624106410229e-08 -8.8469806688513281e-08 1.3274573465569649e-08 -1.1032833297540104e-08 -1.0743403236596264e-07 -7.0302580726627986e-09 4.0878228207723121e-08 -0.00025017992597111088 -7.0302580726627986e-09 4.0878228207723121e-08 -0.00025017992597111088 -5.4678897971931151e-08 1.3877861469942272e-08 -0.0002502048412133806 -3.5772131634693689e-08 6.6277824803623663e-08 -0.0002501937011439103 1.3274573465569649e-08 -1.1032833297540104e-08 -1.0743403236596264e-07 -5.4678897971931151e-08 1.3877861469942272e-08 -0.0002502048412133806 -8.5148260759979394e-08 1.0636643457822838e-07 -0.00025022557610489168 -3.5772131634693689e-08 6.6277824803623663e-08 -0.0002501937011439103 1.3274573465569649e-08 -1.1032833297540104e-08 -1.0743403236596264e-07 -5.4880723271250551e-10 8.0956147784799919e-08 -0.00025019046185398113 -7.0302580726627986e-09 4.0878228207723121e-08 -0.00025017992597111088 -3.5772131634693689e-08 6.6277824803623663e-08 -0.0002501937011439103 1.3274573465569649e-08 -1.1032833297540104e-08 -1.0743403236596264e-07 -2.6317444029008699e-09 1.133215411557322e-08 -2.146836494381651e-07 9.3687658351422712e-09 -6.9492423254036697e-09 -2.3280771384232595e-07 2.4515339222823886e-08 1.6152691055267775e-08 -1.874993483614091e-07 -5.4678897971931184e-08 1.3877861469942282e-08 -0.00025020484121338071 9.3687658351422778e-09 -6.9492423254036639e-09 -2.3280771384232593e-07 3.7898004420652125e-09 2.5030924134431526e-09 -1.8649050362157096e-07 -6.1942179473936845e-09 8.8918491904671647e-09 -6.9361775426195375e-08 -5.4678897971931151e-08 1.3877861469942272e-08 -0.0002502048412133806 9.3687658351422778e-09 -6.9492423254036639e-09 -2.3280771384232593e-07 -2.6317444029008699e-09 1.133215411557322e-08 -2.146836494381651e-07 3.7898004420652125e-09 2.5030924134431526e-09 -1.8649050362157096e-07 -5.4678897971931151e-08 1.3877861469942272e-08 -0.0002502048412133806 -5.229606373689552e-08 -4.3714324776519096e-09 -2.4536007303828893e-07 -1.3343357854856716e-07 -1.9517211024580628e-08 -0.0002502188803393146 2.4515339222823869e-08 1.6152691055267752e-08 -1.8749934836139843e-07 -1.27598700440135e-07 4.9916451127843288e-08 -0.00025023841968930356 9.3687658351422778e-09 -6.9492423254036639e-09 -2.3280771384232593e-07 -1.27598700440135e-07 4.9916451127843288e-08 -0.00025023841968930356 2.4515339222823886e-08 1.6152691055267775e-08 -1.874993483614009e-07 -5.4678897971931151e-08 1.3877861469942272e-08 -0.0002502048412133806 9.3687658351422778e-09 -6.9492423254036639e-09 -2.3280771384232593e-07 -5.229606373689552e-08 -4.3714324776519096e-09 -2.4536007303828893e-07 2.4515339222823886e-08 1.6152691055267775e-08 -1.874993483614091e-07 -1.27598700440135e-07 4.9916451127843288e-08 -0.00025023841968930356 -1.27598700440135e-07 4.9916451127843288e-08 -0.00025023841968930356 -5.4678897971931151e-08 1.3877861469942272e-08 -0.0002502048412133806 -8.4333608851355118e-08 -2.3212551232944728e-08 -0.00025021819409292193 2.4515339222823886e-08 1.6152691055267775e-08 -1.874993483614091e-07 -1.27598700440135e-07 4.9916451127843288e-08 -0.00025023841968930356 -8.5148260759979407e-08 1.0636643457822838e-07 -0.00025022557610489168 -5.4678897971931151e-08 1.3877861469942272e-08 -0.0002502048412133806 9.3687658351422778e-09 -6.9492423254036639e-09 -2.3280771384232593e-07 -4.6484191154416567e-08 2.5656677431239789e-08 -2.4541161592443774e-07 -5.229606373689552e-08 -4.3714324776519047e-09 -2.453600730383136e-07 9.3687658351422778e-09 -6.9492423254036639e-09 -2.3280771384232593e-07 -1.27598700440135e-07 4.9916451127843288e-08 -0.00025023841968930356 -4.6484191154416567e-08 2.5656677431239789e-08 -2.4541161592443774e-07 -1.27598700440135e-07 4.9916451127843288e-08 -0.00025023841968930356 9.3687658351422778e-09 -6.9492423254036639e-09 -2.3280771384232593e-07 -8.5148260759979407e-08 1.0636643457822838e-07 -0.00025022557610489168 -4.6484191154416567e-08 2.5656677431239789e-08 -2.4541161592443774e-07 9.3687658351422778e-09 -6.9492423254036639e-09 -2.3280771384232593e-07 1.3274573465569649e-08 -1.1032833297540104e-08 -1.0743403236596264e-07 -8.5148260759979407e-08 1.0636643457822838e-07 -0.00025022557610489168 -2.977977127914775e-08 4.4554550194284106e-08 -1.4612565559655322e-07 -4.6484191154416567e-08 2.5656677431239789e-08 -2.4541161592443774e-07 1.3274573465569649e-08 -1.1032833297540104e-08 -1.0743403236596264e-07 -8.5148260759979407e-08 1.0636643457822838e-07 -0.00025022557610489168 -7.0302580726627986e-09 4.0878228207723121e-08 -0.00025017992597111088 -5.4880723271250675e-10 8.0956147784799919e-08 -0.00025019046185398113 5.4298365209367417e-09 -1.6140624106410229e-08 -8.8469806688513281e-08 1.3274573465569649e-08 -1.1032833297540104e-08 -1.0743403236596264e-07 -2.977977127914775e-08 4.4554550194284106e-08 -1.4612565559655322e-07 -8.5148260759979367e-08 1.0636643457822838e-07 -0.00025022557610489173 1.3274573465569649e-08 -1.1032833297540104e-08 -1.0743403236596264e-07 -1.9503247008972251e-08 1.3539520840680331e-07 -0.00025020225134767682 5.4298365209367417e-09 -1.6140624106410229e-08 -8.8469806688513281e-08 -2.977977127914775e-08 4.4554550194284106e-08 -1.4612565559655322e-07 1.3274573465569649e-08 -1.1032833297540104e-08 -1.0743403236596264e-07 -1.9503247008972251e-08 1.3539520840680331e-07 -0.00025020225134767682 5.4298365209367417e-09 -1.6140624106410229e-08 -8.8469806688513281e-08 -1.9503247008972251e-08 1.3539520840680331e-07 -0.00025020225134767682 1.3274573465569649e-08 -1.1032833297540104e-08 -1.0743403236596264e-07 -5.4880723271250551e-10 8.0956147784799919e-08 -0.00025019046185398113 -3.9995677422286106e-09 5.3151295352235741e-08 -2.0220336942486865e-07 -2.977977127914775e-08 4.4554550194284106e-08 -1.4612565559655322e-07 5.4298365209367417e-09 -1.6140624106410229e-08 -8.8469806688513281e-08 -1.9503247008972251e-08 1.3539520840680331e-07 -0.00025020225134767682 -1.9503247008972251e-08 1.3539520840680331e-07 -0.00025020225134767682 -5.4880723271250551e-10 8.0956147784799919e-08 -0.00025019046185398113 -3.5772131634693689e-08 6.6277824803623663e-08 -0.0002501937011439103 1.3274573465569649e-08 -1.1032833297540104e-08 -1.0743403236596264e-07 -8.5148260759979407e-08 1.0636643457822838e-07 -0.00025022557610489168 -1.9503247008972251e-08 1.3539520840680331e-07 -0.00025020225134767682 -3.5772131634693689e-08 6.6277824803623663e-08 -0.0002501937011439103 1.3274573465569649e-08 -1.1032833297540104e-08 -1.0743403236596264e-07 -1.9503247008972251e-08 1.3539520840680331e-07 -0.00025020225134767682 -8.5148260759979407e-08 1.0636643457822838e-07 -0.00025022557610489168 -3.5772131634693689e-08 6.6277824803623663e-08 -0.0002501937011439103 -1.0132617969739205e-07 4.3164325712993216e-08 -0.00050024831347220654 5.2027443691116554e-08 1.2723516436666733e-07 -0.00025022355304271887 -1.9503247008972251e-08 1.3539520840680331e-07 -0.00025020225134767682 -5.4880723271250551e-10 8.0956147784799919e-08 -0.00025019046185398113 -6.6338696455658401e-08 8.7950437897466745e-08 -0.00050024114170626576 -1.9840411601414138e-08 3.6185590964921887e-08 -0.00050023862220984297 -2.5386416215678107e-08 6.925740974876676e-08 -0.00050024065343358696 -5.4880723271250551e-10 8.0956147784799919e-08 -0.00025019046185398113 -3.5772131634693689e-08 6.6277824803623663e-08 -0.0002501937011439103 -1.9503247008972251e-08 1.3539520840680331e-07 -0.00025020225134767682 -1.0132617969739205e-07 4.3164325712993202e-08 -0.00050024831347220665 -3.5772131634693689e-08 6.6277824803623663e-08 -0.0002501937011439103 -6.6338696455658401e-08 8.7950437897466745e-08 -0.00050024114170626576 -1.0132617969739205e-07 4.3164325712993216e-08 -0.00050024831347220654 -6.6338696455658401e-08 8.7950437897466745e-08 -0.00050024114170626576 -5.1285251412034779e-08 5.0050822470883951e-08 -0.00050023980822751452 -3.5772131634693689e-08 6.6277824803623663e-08 -0.0002501937011439103 -6.6338696455658401e-08 8.7950437897466745e-08 -0.00050024114170626576 -2.5386416215678113e-08 6.925740974876676e-08 -0.00050024065343358696 -5.1285251412034779e-08 5.0050822470883951e-08 -0.00050023980822751452 -3.5772131634693689e-08 6.6277824803623663e-08 -0.0002501937011439103 -5.4880723271250551e-10 8.0956147784799919e-08 -0.00025019046185398113 -1.9503247008972251e-08 1.3539520840680331e-07 -0.00025020225134767682 -3.5772131634693689e-08 6.6277824803623663e-08 -0.0002501937011439103 -6.6338696455658401e-08 8.7950437897466745e-08 -0.00050024114170626576 -5.4880723271250551e-10 8.0956147784799919e-08 -0.00025019046185398113 -6.6338696455658401e-08 8.7950437897466745e-08 -0.00050024114170626576 -3.5772131634693689e-08 6.6277824803623663e-08 -0.0002501937011439103 -2.5386416215678113e-08 6.925740974876676e-08 -0.00050024065343358696 -1.3462529912989022e-08 1.0927989520859933e-07 -0.00050025051295578694 -6.6338696455658401e-08 8.7950437897466745e-08 -0.00050024114170626576 -2.5386416215678113e-08 6.925740974876676e-08 -0.00050024065343358696 -5.4065449859294321e-08 9.7719860352851002e-08 -0.00075027673232631821 -2.5386416215678113e-08 6.925740974876676e-08 -0.00050024065343358696 -6.6338696455658401e-08 8.7950437897466745e-08 -0.00050024114170626576 -5.1285251412034779e-08 5.0050822470883951e-08 -0.00050023980822751452 -5.4065449859294321e-08 9.7719860352851002e-08 -0.00075027673232631821 -6.6338696455658401e-08 8.7950437897466745e-08 -0.00050024114170626576 -1.0132617969739205e-07 4.3164325712993216e-08 -0.00050024831347220654 -5.1285251412034779e-08 5.0050822470883951e-08 -0.00050023980822751452 -9.5744835648322365e-08 5.7468822276808474e-08 -0.00075027895345607532 5.2027443691116554e-08 1.2723516436666733e-07 -0.00025022355304271887 -6.6338696455658414e-08 8.7950437897466719e-08 -0.00050024114170626566 -5.4880723271250551e-10 8.0956147784799919e-08 -0.00025019046185398113 -1.3462529912989022e-08 1.0927989520859933e-07 -0.00050025051295578694 4.487843609676738e-08 1.0091015139895346e-07 -0.00050026569374201366 -1.3462529912989022e-08 1.0927989520859933e-07 -0.00050025051295578694 1.2958524787157059e-08 5.6981117402416426e-08 -0.00050024595673333857 1.9986818360505363e-09 1.116572222619556e-07 -0.0007502804505242881 4.487843609676738e-08 1.0091015139895346e-07 -0.00050026569374201366 1.2958524787157064e-08 5.698111740241642e-08 -0.00050024595673333857 5.7243456372447605e-08 3.4702788551355982e-08 -0.00050025573264682105 5.7208702163205677e-08 9.5795927571383418e-08 -0.00075028641821073662 1.2958524787157059e-08 5.6981117402416426e-08 -0.00050024595673333857 -1.3462529912989022e-08 1.0927989520859933e-07 -0.00050025051295578694 -2.5386416215678113e-08 6.925740974876676e-08 -0.00050024065343358696 1.9986818360505404e-09 1.116572222619556e-07 -0.00075028045052428821 1.2958524787157059e-08 5.6981117402416426e-08 -0.00050024595673333857 -1.9840411601414141e-08 3.6185590964921887e-08 -0.00050023862220984297 -2.5386416215678113e-08 6.925740974876676e-08 -0.00050024065343358696 -5.4880723271250551e-10 8.0956147784799919e-08 -0.00025019046185398113 3.7099632791143467e-08 5.4392440780152459e-08 -0.00025020752259783004 -1.3462529912989032e-08 1.0927989520859933e-07 -0.00050025051295578694 -5.4880723271250551e-10 8.0956147784799919e-08 -0.00025019046185398113 1.2958524787157059e-08 5.6981117402416426e-08 -0.00050024595673333857 3.7099632791143467e-08 5.4392440780152459e-08 -0.00025020752259783004 5.2027443691116554e-08 1.2723516436666733e-07 -0.00025022355304271887 -5.4880723271250551e-10 8.0956147784799919e-08 -0.00025019046185398113 -1.3462529912989022e-08 1.0927989520859933e-07 -0.00050025051295578694 -6.6338696455658401e-08 8.7950437897466745e-08 -0.00050024114170626576 -1.3462529912989019e-08 1.0927989520859935e-07 -0.00050025051295578694 -2.5386416215678113e-08 6.925740974876676e-08 -0.00050024065343358696 -5.4880723271250551e-10 8.0956147784799919e-08 -0.00025019046185398113 -1.3462529912989022e-08 1.0927989520859933e-07 -0.00050025051295578694 1.2958524787157059e-08 5.6981117402416426e-08 -0.00050024595673333857 -2.5386416215678113e-08 6.925740974876676e-08 -0.00050024065343358696 -5.4880723271250551e-10 8.0956147784799919e-08 -0.00025019046185398113 1.0163474980442917e-07 8.6141509951463425e-08 -0.0002502573609038702 3.7099632791143467e-08 5.4392440780152453e-08 -0.00025020752259783004 6.9846965321350981e-08 1.9622309312412043e-08 -0.00025024113379916403 4.487843609676738e-08 1.0091015139895346e-07 -0.00050026569374201366 -1.3462529912989022e-08 1.0927989520859933e-07 -0.00050025051295578694 4.487843609676738e-08 1.0091015139895346e-07 -0.00050026569374201366 1.2958524787157059e-08 5.6981117402416426e-08 -0.00050024595673333857 3.7099632791143467e-08 5.4392440780152459e-08 -0.00025020752259783004 1.0163474980442917e-07 8.6141509951463425e-08 -0.0002502573609038702 5.2027443691116554e-08 1.2723516436666733e-07 -0.00025022355304271887 3.7099632791143467e-08 5.4392440780152459e-08 -0.00025020752259783004 -1.3462529912989006e-08 1.0927989520859935e-07 -0.00050025051295578694 1.0163474980442917e-07 8.6141509951463425e-08 -0.0002502573609038702 -1.3462529912989009e-08 1.0927989520859933e-07 -0.00050025051295578683 3.7099632791143467e-08 5.4392440780152459e-08 -0.00025020752259783004 4.487843609676738e-08 1.0091015139895346e-07 -0.00050026569374201366 4.487843609676738e-08 1.0091015139895346e-07 -0.00050026569374201366 1.2958524787157061e-08 5.6981117402416426e-08 -0.00050024595673333846 3.709963279114346e-08 5.4392440780152493e-08 -0.00025020752259782993 6.9846965321350981e-08 1.9622309312412043e-08 -0.00025024113379916403 5.2027443691116554e-08 1.2723516436666733e-07 -0.00025022355304271887 1.0163474980442917e-07 8.6141509951463425e-08 -0.0002502573609038702 3.7099632791143467e-08 5.4392440780152459e-08 -0.00025020752259783004 -6.1795051726824054e-10 -1.3447605925006931e-08 -1.8495013923313404e-07 -1.9503247008972251e-08 1.3539520840680331e-07 -0.00025020225134767682 5.2027443691116567e-08 1.2723516436666733e-07 -0.00025022355304271887 -5.4880723271250551e-10 8.0956147784799919e-08 -0.00025019046185398113 5.4298365209367417e-09 -1.6140624106410229e-08 -8.8469806688513281e-08 3.7099632791143467e-08 5.4392440780152459e-08 -0.00025020752259783004 -7.0302580726628027e-09 4.0878228207723121e-08 -0.00025017992597111088 -5.4880723271250551e-10 8.0956147784799919e-08 -0.00025019046185398113 5.4298365209367417e-09 -1.6140624106410229e-08 -8.8469806688513281e-08 5.2027443691116554e-08 1.2723516436666733e-07 -0.00025022355304271887 3.7099632791143467e-08 5.4392440780152459e-08 -0.00025020752259783004 -5.4880723271250551e-10 8.0956147784799919e-08 -0.00025019046185398113 5.4298365209367417e-09 -1.6140624106410229e-08 -8.8469806688513281e-08 -6.1795051726824054e-10 -1.3447605925006931e-08 -1.8495013923313404e-07 5.2027443691116554e-08 1.2723516436666733e-07 -0.00025022355304271887 5.4298365209367417e-09 -1.6140624106410229e-08 -8.8469806688513281e-08 3.7099632791143467e-08 5.4392440780152459e-08 -0.00025020752259783004 -6.1795051726824054e-10 -1.3447605925006931e-08 -1.8495013923313404e-07 -3.9995677422286106e-09 5.3151295352235741e-08 -2.0220336942486865e-07 5.4298365209367417e-09 -1.6140624106410229e-08 -8.8469806688513281e-08 5.2027443691116554e-08 1.2723516436666733e-07 -0.00025022355304271887 -3.9995677422286106e-09 5.3151295352235741e-08 -2.0220336942486865e-07 -1.9503247008972195e-08 1.3539520840680331e-07 -0.00025020225134767682 5.4298365209367417e-09 -1.6140624106410229e-08 -8.8469806688513281e-08 5.2027443691116554e-08 1.2723516436666733e-07 -0.00025022355304271887 2.4287453478274798e-08 4.6341723712261945e-08 -2.7341340314470416e-07 5.2027443691116548e-08 1.272351643666673e-07 -0.00025022355304271882 -6.1795051726824054e-10 -1.3447605925006931e-08 -1.8495013923313404e-07 1.0163474980442917e-07 8.6141509951463425e-08 -0.0002502573609038702 1.0163474980442917e-07 8.6141509951463425e-08 -0.0002502573609038702 3.709963279114346e-08 5.4392440780152453e-08 -0.00025020752259782999 -6.1795051726822379e-10 -1.344760592500695e-08 -1.8495013923303187e-07 -1.981031899162508e-08 -1.3053255521277102e-08 -2.5384922472413525e-07 2.4287453478274798e-08 4.6341723712261945e-08 -2.7341340314470416e-07 -6.1795051726824581e-10 -1.3447605925006935e-08 -1.8495013923313404e-07 -1.981031899162508e-08 -1.3053255521277102e-08 -2.5384922472413525e-07 1.0163474980442917e-07 8.6141509951463425e-08 -0.0002502573609038702 2.4287453478274798e-08 4.6341723712261945e-08 -2.7341340314470416e-07 -3.9995677422286106e-09 5.3151295352235741e-08 -2.0220336942486865e-07 -6.1795051726824054e-10 -1.3447605925006931e-08 -1.8495013923313404e-07 5.2027443691116541e-08 1.2723516436666733e-07 -0.00025022355304271882 5.3715567239874649e-08 3.4992219461098201e-08 -1.8640963322591444e-07 1.0163474980442917e-07 8.6141509951463425e-08 -0.0002502573609038702 -1.981031899162508e-08 -1.3053255521277102e-08 -2.5384922472413525e-07 1.337732895207655e-07 1.9292399297714796e-08 -0.00025024723238748349 5.3715567239874649e-08 3.4992219461098201e-08 -1.8640963322591444e-07 2.4287453478274798e-08 4.6341723712261945e-08 -2.7341340314470416e-07 -1.981031899162508e-08 -1.3053255521277102e-08 -2.5384922472413525e-07 1.0163474980442917e-07 8.6141509951463425e-08 -0.0002502573609038702 1.337732895207655e-07 1.9292399297714796e-08 -0.00025024723238748349 4.487843609676738e-08 1.0091015139895346e-07 -0.00050026569374201366 6.9846965321350981e-08 1.9622309312412043e-08 -0.00025024113379916403 8.7884080248261777e-08 6.6381539533842793e-08 -0.00050026256749161253 1.337732895207655e-07 1.9292399297714796e-08 -0.00025024723238748349 1.0163474980442917e-07 8.6141509951463425e-08 -0.0002502573609038702 6.9846965321350981e-08 1.9622309312412043e-08 -0.00025024113379916403 4.487843609676738e-08 1.0091015139895346e-07 -0.00050026569374201366 8.7884080248261777e-08 6.6381539533842793e-08 -0.00050026256749161253 4.487843609676738e-08 1.0091015139895346e-07 -0.00050026569374201366 5.7243456372447605e-08 3.4702788551355982e-08 -0.00050025573264682105 5.7208702163205677e-08 9.5795927571383418e-08 -0.00075028641821073662 2.9118619677527048e-08 -4.4973808968901839e-08 -1.3795280966625935e-07 8.4821253333047671e-08 -1.0696125020657987e-07 -0.00025021796588940547 -1.2701606378698953e-08 1.1315006910720363e-08 -9.8543755952144346e-08 1.9424295919174155e-08 -1.3542565328836913e-07 -0.0002501974827172554 8.4821253333047737e-08 -1.0696125020657987e-07 -0.00025021796588940541 1.9424295919174155e-08 -1.3542565328836913e-07 -0.0002501974827172554 3.6403420007829073e-08 -7.0372824622666825e-08 -0.00025018849820706559 -1.2701606378698953e-08 1.1315006910720363e-08 -9.8543755952144346e-08 5.3188333682316065e-08 -2.6640315953121518e-08 -0.0002501954095354735 8.4821253333047737e-08 -1.0696125020657987e-07 -0.00025021796588940541 3.6403420007829073e-08 -7.0372824622666825e-08 -0.00025018849820706559 -1.2701606378698953e-08 1.1315006910720363e-08 -9.8543755952144346e-08 2.9118619677527048e-08 -4.4973808968901839e-08 -1.3795280966625935e-07 4.7289773373842139e-08 -2.4815525089344449e-08 -2.0212898752873218e-07 -1.2701606378698953e-08 1.1315006910720363e-08 -9.8543755952144346e-08 8.4821253333047737e-08 -1.0696125020657987e-07 -0.00025021796588940541 8.4821253333047737e-08 -1.0696125020657987e-07 -0.00025021796588940541 5.3188333682316058e-08 -2.6640315953121498e-08 -0.0002501954095354735 -1.2601085779152973e-08 4.7781328529163841e-09 -1.7697878244650629e-07 -1.2701606378698953e-08 1.1315006910720363e-08 -9.8543755952144346e-08 4.7289773373842139e-08 -2.4815525089344449e-08 -2.0212898752873218e-07 -1.2601085779152981e-08 4.778132852916389e-09 -1.7697878244650626e-07 -1.2701606378698953e-08 1.1315006910720363e-08 -9.8543755952144346e-08 8.4821253333047737e-08 -1.0696125020657987e-07 -0.00025021796588940541 4.7289773373842139e-08 -2.4815525089344449e-08 -2.0212898752873218e-07 1.2751886842458198e-07 -4.9479449671063034e-08 -0.00025025251611431168 -1.2601085779152971e-08 4.7781328529163874e-09 -1.7697878244649731e-07 8.4821253333047737e-08 -1.0696125020657987e-07 -0.00025021796588940541 4.7289773373842139e-08 -2.4815525089344449e-08 -2.0212898752873218e-07 5.2083130816358839e-08 4.0616559748946306e-09 -2.7385065704059372e-07 -1.2601085779152973e-08 4.7781328529163841e-09 -1.7697878244650629e-07 1.2751886842458198e-07 -4.9479449671063034e-08 -0.00025025251611431168 -1.2601085779152973e-08 4.7781328529163841e-09 -1.7697878244650629e-07 5.2083130816358839e-08 4.0616559748946306e-09 -2.7385065704059372e-07 -1.981031899162508e-08 -1.3053255521277102e-08 -2.5384922472413525e-07 1.27518868424582e-07 -4.9479449671063054e-08 -0.00025025251611431179 -1.2601085779152973e-08 4.7781328529163841e-09 -1.7697878244650629e-07 1.27518868424582e-07 -4.947944967106304e-08 -0.00025025251611431168 -1.981031899162508e-08 -1.3053255521277102e-08 -2.5384922472413525e-07 5.3188333682316065e-08 -2.6640315953121518e-08 -0.0002501954095354735 5.2083130816358839e-08 4.0616559748946306e-09 -2.7385065704059372e-07 5.3715567239874655e-08 3.4992219461098194e-08 -1.8640963322593911e-07 -1.981031899162508e-08 -1.3053255521277102e-08 -2.5384922472413525e-07 1.337732895207655e-07 1.9292399297714796e-08 -0.00025024723238748349 5.2083130816358839e-08 4.0616559748946306e-09 -2.7385065704059372e-07 1.337732895207655e-07 1.9292399297714796e-08 -0.00025024723238748349 -1.981031899162508e-08 -1.3053255521277102e-08 -2.5384922472413525e-07 1.2751886842458198e-07 -4.9479449671063034e-08 -0.00025025251611431168 1.0163474980442917e-07 8.6141509951463425e-08 -0.0002502573609038702 1.337732895207655e-07 1.9292399297714796e-08 -0.00025024723238748349 6.9846965321350981e-08 1.9622309312412043e-08 -0.00025024113379916403 -1.981031899162508e-08 -1.3053255521277102e-08 -2.5384922472413525e-07 1.337732895207655e-07 1.9292399297714796e-08 -0.00025024723238748349 1.2751886842458198e-07 -4.9479449671063034e-08 -0.00025025251611431168 6.9846965321350981e-08 1.9622309312412043e-08 -0.00025024113379916403 -1.981031899162508e-08 -1.3053255521277102e-08 -2.5384922472413525e-07 1.2751886842458198e-07 -4.9479449671063034e-08 -0.00025025251611431168 8.4821253333047737e-08 -1.0696125020657987e-07 -0.00025021796588940541 5.3188333682316065e-08 -2.6640315953121518e-08 -0.0002501954095354735 -1.2601085779153001e-08 4.7781328529163948e-09 -1.769787824463904e-07 1.2751886842458198e-07 -4.9479449671063034e-08 -0.00025025251611431168 5.3188333682316065e-08 -2.6640315953121518e-08 -0.0002501954095354735 6.9846965321350981e-08 1.9622309312412043e-08 -0.00025024113379916403 -1.981031899162508e-08 -1.3053255521277102e-08 -2.5384922472413525e-07 1.0922064007601779e-07 1.3358028508209834e-08 -0.00050026195920845008 1.0146909724761833e-07 -4.2926799156051146e-08 -0.00050024715028150132 5.473858694926116e-08 -1.5669805572913532e-08 -0.00050024205920415452 5.3188333682316071e-08 -2.6640315953121524e-08 -0.00025019540953547339 8.4821253333047737e-08 -1.0696125020657987e-07 -0.00025021796588940541 1.2751886842458198e-07 -4.9479449671063034e-08 -0.00025025251611431168 5.3188333682316065e-08 -2.6640315953121518e-08 -0.0002501954095354735 1.0922064007601779e-07 1.3358028508209834e-08 -0.00050026195920845008 5.3188333682316065e-08 -2.6640315953121518e-08 -0.0002501954095354735 1.0922064007601782e-07 1.3358028508209839e-08 -0.00050026195920845019 6.9846965321350981e-08 1.9622309312412043e-08 -0.00025024113379916403 5.473858694926116e-08 -1.5669805572913532e-08 -0.00050024205920415452 1.0922064007601779e-07 1.3358028508209834e-08 -0.00050026195920845008 5.473858694926116e-08 -1.5669805572913532e-08 -0.00050024205920415452 5.7243456372447605e-08 3.4702788551355982e-08 -0.00050025573264682105 6.9846965321350981e-08 1.9622309312412043e-08 -0.00025024113379916403 5.3188333682316065e-08 -2.6640315953121518e-08 -0.0002501954095354735 1.2751886842458198e-07 -4.9479449671063034e-08 -0.00025025251611431168 6.9846965321350981e-08 1.9622309312412043e-08 -0.00025024113379916403 1.0922064007601779e-07 1.3358028508209864e-08 -0.00050026195920845019 4.487843609676738e-08 1.0091015139895346e-07 -0.00050026569374201366 8.7884080248261777e-08 6.6381539533842793e-08 -0.00050026256749161253 5.7243456372447605e-08 3.4702788551355982e-08 -0.00050025573264682105 6.9846965321350981e-08 1.9622309312412043e-08 -0.00025024113379916403 1.2751886842458198e-07 -4.9479449671063034e-08 -0.00025025251611431168 8.7884080248261777e-08 6.6381539533842793e-08 -0.00050026256749161253 6.9846965321350981e-08 1.9622309312412043e-08 -0.00025024113379916403 1.0922064007601779e-07 1.3358028508209834e-08 -0.00050026195920845008 1.2751886842458198e-07 -4.9479449671063034e-08 -0.00025025251611431168 1.3377328952076547e-07 1.9292399297714799e-08 -0.00025024723238748349 6.9846965321350981e-08 1.9622309312412043e-08 -0.00025024113379916403 8.7884080248261777e-08 6.6381539533842793e-08 -0.00050026256749161253 8.7884080248261777e-08 6.6381539533842793e-08 -0.00050026256749161253 1.0922064007601779e-07 1.3358028508209834e-08 -0.00050026195920845008 5.7243456372447605e-08 3.4702788551355982e-08 -0.00050025573264682105 6.9846965321350981e-08 1.9622309312412043e-08 -0.00025024113379916403 1.0922064007601779e-07 1.3358028508209834e-08 -0.00050026195920845008 8.7884080248261777e-08 6.638153953384278e-08 -0.00050026256749161253 5.7243456372447605e-08 3.4702788551355982e-08 -0.00050025573264682105 9.7730547757860205e-08 5.4132379381378804e-08 -0.00075028510637628154 1.0146909724761833e-07 -4.2926799156051146e-08 -0.00050024715028150132 1.0922064007601779e-07 1.3358028508209834e-08 -0.00050026195920845008 5.473858694926116e-08 -1.5669805572913532e-08 -0.00050024205920415452 1.1166223626720387e-07 -1.8627543377309616e-09 -0.00075028487475607198 5.473858694926116e-08 -1.5669805572913532e-08 -0.00050024205920415452 1.0922064007601779e-07 1.3358028508209834e-08 -0.00050026195920845008 5.7243456372447605e-08 3.4702788551355982e-08 -0.00050025573264682105 1.1166223626720387e-07 -1.8627543377309686e-09 -0.00075028487475607209 1.0146909724761833e-07 -4.2926799156051146e-08 -0.00050024715028150132 5.4738586949261154e-08 -1.5669805572913536e-08 -0.00050024205920415441 5.1803901583393827e-08 -5.3004591313856798e-08 -0.00050023749207254726 9.5730962348654994e-08 -5.7487925009227455e-08 -0.00075027916092194815 6.6420874147019657e-08 -8.7910564642098453e-08 -0.00050023819146391153 1.0146909724761833e-07 -4.2926799156051146e-08 -0.00050024715028150132 5.1803901583393827e-08 -5.3004591313856798e-08 -0.00050023749207254726 9.5730962348654994e-08 -5.7487925009227455e-08 -0.00075027916092194815 8.4821253333047737e-08 -1.0696125020657987e-07 -0.00025021796588940541 5.3188333682316051e-08 -2.6640315953121518e-08 -0.00025019540953547344 3.6403420007829073e-08 -7.0372824622666825e-08 -0.00025018849820706559 1.0146909724761833e-07 -4.2926799156051146e-08 -0.00050024715028150132 5.473858694926116e-08 -1.5669805572913532e-08 -0.00050024205920415452 1.0146909724761833e-07 -4.2926799156051146e-08 -0.00050024715028150132 5.1803901583393827e-08 -5.3004591313856798e-08 -0.00050023749207254726 3.6403420007829073e-08 -7.0372824622666825e-08 -0.00025018849820706559 8.4821253333047737e-08 -1.0696125020657987e-07 -0.00025021796588940541 1.0922064007601779e-07 1.3358028508209834e-08 -0.00050026195920845008 5.3188333682316065e-08 -2.6640315953121521e-08 -0.0002501954095354735 1.0146909724761833e-07 -4.2926799156051146e-08 -0.00050024715028150132 1.0146909724761833e-07 -4.2926799156051146e-08 -0.00050024715028150132 5.4738586949261147e-08 -1.5669805572913536e-08 -0.00050024205920415452 5.3188333682316065e-08 -2.6640315953121518e-08 -0.0002501954095354735 3.6403420007829073e-08 -7.0372824622666825e-08 -0.00025018849820706559 1.0146909724761833e-07 -4.2926799156051146e-08 -0.00050024715028150132 6.6420874147019657e-08 -8.7910564642098453e-08 -0.00050023819146391153 5.1803901583393827e-08 -5.3004591313856798e-08 -0.00050023749207254726 3.6403420007829073e-08 -7.0372824622666825e-08 -0.00025018849820706559 1.9424295919174155e-08 -1.3542565328836913e-07 -0.0002501974827172554 8.4821253333047737e-08 -1.0696125020657987e-07 -0.00025021796588940541 3.6403420007829073e-08 -7.0372824622666825e-08 -0.00025018849820706559 1.0146909724761833e-07 -4.2926799156051146e-08 -0.00050024715028150132 1.9424295919174155e-08 -1.3542565328836913e-07 -0.0002501974827172554 1.0146909724761834e-07 -4.292679915605112e-08 -0.00050024715028150132 3.6403420007829073e-08 -7.0372824622666825e-08 -0.00025018849820706559 6.6420874147019657e-08 -8.7910564642098453e-08 -0.00050023819146391153 6.6420874147019657e-08 -8.7910564642098453e-08 -0.00050023819146391153 9.5730962348654967e-08 -5.7487925009227449e-08 -0.00075027916092194826 5.1803901583393827e-08 -5.3004591313856798e-08 -0.00050023749207254726 5.4071423932316169e-08 -9.771340770311664e-08 -0.00075027517877975739 5.4071423932316169e-08 -9.771340770311664e-08 -0.00075027517877975739 9.6702035437108582e-08 -5.5721019922326185e-08 -0.0010003133126679036 4.9149322309109602e-08 -5.6871079927880186e-08 -0.00075027559069658595 5.5901298189801576e-08 -9.6592706612869818e-08 -0.0010003114005871332 9.6702035437108595e-08 -5.5721019922326192e-08 -0.0010003133126679036 5.3614676963151566e-08 -2.0508976549598169e-08 -0.0010003131369850534 5.3678577509339144e-08 -1.9711874958898098e-08 -0.00075027778990767436 4.9149322309109602e-08 -5.6871079927880186e-08 -0.00075027559069658595 9.5730962348654994e-08 -5.7487925009227455e-08 -0.00075027916092194815 5.3678577509339137e-08 -1.9711874958898101e-08 -0.00075027778990767436 4.9149322309109602e-08 -5.6871079927880186e-08 -0.00075027559069658595 9.6702035437108595e-08 -5.5721019922326192e-08 -0.0010003133126679036 9.5730962348654994e-08 -5.7487925009227455e-08 -0.00075027916092194815 1.1160570880183838e-07 1.0289337201517977e-10 -0.0010003158644118571 5.3678577509339144e-08 -1.9711874958898098e-08 -0.00075027778990767436 9.6702035437108595e-08 -5.5721019922326192e-08 -0.0010003133126679036 5.4071423932316169e-08 -9.771340770311664e-08 -0.00075027517877975739 9.5730962348654994e-08 -5.7487925009227455e-08 -0.00075027916092194815 4.9149322309109602e-08 -5.6871079927880186e-08 -0.00075027559069658595 9.6702035437108595e-08 -5.5721019922326192e-08 -0.0010003133126679036 9.5730962348654994e-08 -5.7487925009227455e-08 -0.00075027916092194815 5.4071423932316169e-08 -9.771340770311664e-08 -0.00075027517877975739 4.9149322309109602e-08 -5.6871079927880186e-08 -0.00075027559069658595 5.1803901583393827e-08 -5.3004591313856798e-08 -0.00050023749207254726 5.3678577509339144e-08 -1.9711874958898098e-08 -0.00075027778990767436 9.5730962348654994e-08 -5.7487925009227455e-08 -0.00075027916092194815 4.9149322309109602e-08 -5.6871079927880186e-08 -0.00075027559069658595 5.1803901583393827e-08 -5.3004591313856798e-08 -0.00050023749207254726 1.0146909724761833e-07 -4.2926799156051146e-08 -0.00050024715028150132 1.1166223626720387e-07 -1.8627543377309616e-09 -0.00075028487475607198 5.473858694926116e-08 -1.5669805572913532e-08 -0.00050024205920415452 9.5730962348654994e-08 -5.7487925009227455e-08 -0.00075027916092194815 9.5730962348654994e-08 -5.7487925009227455e-08 -0.00075027916092194815 5.3678577509339137e-08 -1.9711874958898098e-08 -0.00075027778990767436 5.473858694926116e-08 -1.5669805572913532e-08 -0.00050024205920415452 5.1803901583393827e-08 -5.3004591313856798e-08 -0.00050023749207254726 5.473858694926116e-08 -1.5669805572913532e-08 -0.00050024205920415452 1.116622362672039e-07 -1.8627543377309641e-09 -0.00075028487475607198 5.7243456372447605e-08 3.4702788551355982e-08 -0.00050025573264682105 5.3678577509339144e-08 -1.9711874958898098e-08 -0.00075027778990767436 1.1166223626720387e-07 -1.8627543377309616e-09 -0.00075028487475607198 9.5730962348654994e-08 -5.7487925009227455e-08 -0.00075027916092194815 5.3678577509339144e-08 -1.9711874958898098e-08 -0.00075027778990767436 5.4738586949261167e-08 -1.5669805572913532e-08 -0.00050024205920415441 1.1166223626720387e-07 -1.8627543377309616e-09 -0.00075028487475607198 5.3678577509339144e-08 -1.9711874958898098e-08 -0.00075027778990767436 5.6607420571282655e-08 3.2011869196710052e-08 -0.000750282576449196 5.7243456372447605e-08 3.4702788551355982e-08 -0.00050025573264682105 1.0922064007601779e-07 1.3358028508209834e-08 -0.00050026195920845008 9.7730547757860205e-08 5.4132379381378804e-08 -0.00075028510637628154 5.7243456372447605e-08 3.4702788551355982e-08 -0.00050025573264682105 1.1166223626720387e-07 -1.8627543377309616e-09 -0.00075028487475607198 9.7730547757860205e-08 5.4132379381378804e-08 -0.00075028510637628154 1.1166223626720387e-07 -1.8627543377309616e-09 -0.00075028487475607198 5.6607420571282655e-08 3.2011869196710052e-08 -0.000750282576449196 5.7243456372447605e-08 3.4702788551355982e-08 -0.00050025573264682105 5.7208702163205677e-08 9.5795927571383418e-08 -0.00075028641821073662 9.7730547757860205e-08 5.4132379381378804e-08 -0.00075028510637628154 5.6607420571282655e-08 3.2011869196710052e-08 -0.000750282576449196 5.7243456372447605e-08 3.4702788551355982e-08 -0.00050025573264682105 1.1166223626720387e-07 -1.8627543377309616e-09 -0.00075028487475607198 9.6578570886210507e-08 5.5893529398785258e-08 -0.0010003161598451224 5.6607420571282655e-08 3.2011869196710052e-08 -0.000750282576449196 1.1160570880183838e-07 1.0289337201517977e-10 -0.0010003158644118571 1.1166223626720387e-07 -1.8627543377309616e-09 -0.00075028487475607198 9.7730547757860205e-08 5.4132379381378804e-08 -0.00075028510637628154 5.6607420571282655e-08 3.2011869196710052e-08 -0.000750282576449196 9.6578570886210507e-08 5.5893529398785258e-08 -0.0010003161598451224 5.3678577509339144e-08 -1.9711874958898098e-08 -0.00075027778990767436 1.1166223626720387e-07 -1.8627543377309616e-09 -0.00075028487475607198 5.6607420571282655e-08 3.2011869196710052e-08 -0.000750282576449196 1.1160570880183838e-07 1.0289337201518068e-10 -0.0010003158644118571 5.3678577509339144e-08 -1.9711874958898098e-08 -0.00075027778990767436 1.1160570880183841e-07 1.0289337201517813e-10 -0.0010003158644118571 5.6607420571282655e-08 3.2011869196710052e-08 -0.000750282576449196 5.3614676963151572e-08 -2.0508976549598169e-08 -0.0010003131369850534 9.5730962348654994e-08 -5.7487925009227455e-08 -0.00075027916092194815 1.1166223626720387e-07 -1.8627543377309616e-09 -0.00075028487475607198 5.3678577509339144e-08 -1.9711874958898098e-08 -0.00075027778990767436 1.1160570880183838e-07 1.0289337201517977e-10 -0.0010003158644118571 1.1160570880183838e-07 1.0289337201517977e-10 -0.0010003158644118571 5.3614676963151572e-08 -2.0508976549598169e-08 -0.0010003131369850534 5.5663874942105501e-08 3.1850266550352004e-08 -0.0010003152137592322 5.6607420571282655e-08 3.2011869196710052e-08 -0.000750282576449196 5.3614676963151572e-08 -2.0508976549598169e-08 -0.0010003131369850534 1.1160570880183838e-07 1.0289337201517977e-10 -0.0010003158644118571 5.5663874942105501e-08 3.1850266550352004e-08 -0.0010003152137592322 1.1151774030200806e-07 6.3230952857981217e-11 -0.0012503542996623667 9.6702035437108595e-08 -5.5721019922326192e-08 -0.0010003133126679036 1.1160570880183838e-07 1.0289337201517977e-10 -0.0010003158644118571 5.3614676963151572e-08 -2.0508976549598169e-08 -0.0010003131369850534 1.1151774030200806e-07 6.3230952857981243e-11 -0.0012503542996623665 1.1160570880183838e-07 1.0289337201517977e-10 -0.0010003158644118571 9.6702035437108595e-08 -5.5721019922326192e-08 -0.0010003133126679036 5.3614676963151572e-08 -2.0508976549598169e-08 -0.0010003131369850534 5.367857750933915e-08 -1.9711874958898101e-08 -0.00075027778990767425 1.1160570880183838e-07 1.0289337201517977e-10 -0.0010003158644118571 9.6578570886210507e-08 5.5893529398785258e-08 -0.0010003161598451224 5.5663874942105501e-08 3.1850266550352004e-08 -0.0010003152137592322 9.6557691102531036e-08 5.5803695362806254e-08 -0.0012503549201461929 9.6578570886210507e-08 5.5893529398785258e-08 -0.0010003161598451224 1.1160570880183838e-07 1.0289337201517977e-10 -0.0010003158644118571 5.5663874942105501e-08 3.1850266550352004e-08 -0.0010003152137592322 5.6607420571282655e-08 3.2011869196710052e-08 -0.000750282576449196 5.5757026740986172e-08 9.6689658735506294e-08 -0.0010003165854747882 9.6578570886210507e-08 5.5893529398785258e-08 -0.0010003161598451224 5.5663874942105501e-08 3.1850266550352004e-08 -0.0010003152137592322 5.6607420571282655e-08 3.2011869196710052e-08 -0.000750282576449196 5.5726592021134877e-08 9.659730240140923e-08 -0.0012503547896749851 9.6557691102531036e-08 5.5803695362806254e-08 -0.0012503549201461929 5.5613677958752183e-08 3.1977055132466586e-08 -0.0012503558964576526 5.5663874942105501e-08 3.1850266550352004e-08 -0.0010003152137592322 1.1160570880183838e-07 1.0289337201517977e-10 -0.0010003158644118571 9.6557691102531036e-08 5.5803695362806254e-08 -0.0012503549201461929 5.5663874942105501e-08 3.1850266550352004e-08 -0.0010003152137592322 1.1151774030200806e-07 6.3230952857981243e-11 -0.0012503542996623665 9.6557691102531036e-08 5.5803695362806254e-08 -0.0012503549201461929 1.1151774030200806e-07 6.3230952857981243e-11 -0.0012503542996623665 5.5613677958752183e-08 3.1977055132466586e-08 -0.0012503558964576526 5.5663874942105501e-08 3.1850266550352004e-08 -0.0010003152137592322 1.1151774030200806e-07 6.3230952857981243e-11 -0.0012503542996623665 9.6613894754896495e-08 -5.5695628618145142e-08 -0.0012503528111434408 5.3688387103345641e-08 -2.034183872812165e-08 -0.0012503533209120034 5.3614676963151579e-08 -2.0508976549598172e-08 -0.0010003131369850531 1.1151774030200806e-07 6.3230952857981243e-11 -0.0012503542996623665 5.3688387103345641e-08 -2.034183872812165e-08 -0.0012503533209120034 5.5613677958752183e-08 3.1977055132466586e-08 -0.0012503558964576526 5.5663874942105501e-08 3.1850266550352004e-08 -0.0010003152137592322 5.3614676963151572e-08 -2.0508976549598169e-08 -0.0010003131369850534 1.1151774030200809e-07 6.323095285797933e-11 -0.0012503542996623665 5.5663874942105501e-08 3.1850266550352004e-08 -0.0010003152137592322 5.3688387103345641e-08 -2.034183872812165e-08 -0.0012503533209120034 9.6613894754896495e-08 -5.5695628618145142e-08 -0.0012503528111434408 5.5799262952321869e-08 -9.6554547137573494e-08 -0.0012503516197912793 4.9644637811411909e-08 -5.6792350404381009e-08 -0.0012503531530595588 4.9585571285864028e-08 -5.7069333765893243e-08 -0.0010003117715303245 5.3688387103345641e-08 -2.034183872812165e-08 -0.0012503533209120034 9.6613894754896495e-08 -5.5695628618145142e-08 -0.0012503528111434408 4.9644637811411909e-08 -5.6792350404381009e-08 -0.0012503531530595588 4.9585571285864028e-08 -5.7069333765893243e-08 -0.0010003117715303245 9.6613894754896495e-08 -5.5695628618145142e-08 -0.0012503528111434408 5.3688387103345635e-08 -2.034183872812165e-08 -0.0012503533209120034 5.3614676963151572e-08 -2.0508976549598169e-08 -0.0010003131369850534 4.9585571285864028e-08 -5.7069333765893243e-08 -0.0010003117715303245 9.6702035437108595e-08 -5.5721019922326192e-08 -0.0010003133126679036 1.1151774030200806e-07 6.3230952857981243e-11 -0.0012503542996623665 5.3614676963151572e-08 -2.0508976549598169e-08 -0.0010003131369850534 9.6613894754896495e-08 -5.5695628618145142e-08 -0.0012503528111434408 9.6702035437108595e-08 -5.5721019922326192e-08 -0.0010003133126679036 5.5901298189801576e-08 -9.6592706612869818e-08 -0.0010003114005871332 4.9585571285864028e-08 -5.7069333765893243e-08 -0.0010003117715303245 4.9149322309109602e-08 -5.6871079927880186e-08 -0.00075027559069658595 9.6702035437108595e-08 -5.5721019922326192e-08 -0.0010003133126679036 5.3614676963151566e-08 -2.0508976549598172e-08 -0.0010003131369850531 4.9585571285864028e-08 -5.7069333765893243e-08 -0.0010003117715303245 9.6613894754896495e-08 -5.5695628618145142e-08 -0.0012503528111434408 5.3614676963151572e-08 -2.0508976549598169e-08 -0.0010003131369850534 9.6702035437108595e-08 -5.5721019922326192e-08 -0.0010003133126679036 4.9585571285864028e-08 -5.7069333765893243e-08 -0.0010003117715303245 4.9149322309109602e-08 -5.6871079927880186e-08 -0.00075027559069658595 5.5901298189801576e-08 -9.6592706612869818e-08 -0.0010003114005871332 9.6702035437108595e-08 -5.5721019922326192e-08 -0.0010003133126679036 4.9585571285864028e-08 -5.7069333765893243e-08 -0.0010003117715303245 9.6613894754896495e-08 -5.5695628618145142e-08 -0.0012503528111434408 5.5901298189801576e-08 -9.6592706612869818e-08 -0.0010003114005871332 9.6613894754896482e-08 -5.5695628618145135e-08 -0.0012503528111434408 4.9585571285864028e-08 -5.7069333765893243e-08 -0.0010003117715303245 5.5799262952321869e-08 -9.6554547137573494e-08 -0.0012503516197912793 8.7884080248261777e-08 6.6381539533842793e-08 -0.00050026256749161253 5.7208702163205677e-08 9.5795927571383418e-08 -0.00075028641821073662 5.7243456372447605e-08 3.4702788551355982e-08 -0.00050025573264682105 9.7730547757860205e-08 5.4132379381378804e-08 -0.00075028510637628154 9.7730547757860205e-08 5.4132379381378804e-08 -0.00075028510637628154 5.7208702163205677e-08 9.5795927571383418e-08 -0.00075028641821073662 5.6607420571282655e-08 3.2011869196710052e-08 -0.000750282576449196 5.5757026740986172e-08 9.6689658735506294e-08 -0.0010003165854747882 9.7730547757860205e-08 5.4132379381378804e-08 -0.00075028510637628154 5.5757026740986172e-08 9.6689658735506294e-08 -0.0010003165854747882 5.6607420571282655e-08 3.2011869196710052e-08 -0.000750282576449196 9.6578570886210507e-08 5.5893529398785258e-08 -0.0010003161598451224 9.6578570886210507e-08 5.5893529398785258e-08 -0.0010003161598451224 5.5757026740986172e-08 9.6689658735506294e-08 -0.0010003165854747882 5.5663874942105501e-08 3.1850266550352004e-08 -0.0010003152137592322 5.5726592021134877e-08 9.659730240140923e-08 -0.0012503547896749851 9.6578570886210507e-08 5.5893529398785258e-08 -0.0010003161598451224 5.5726592021134877e-08 9.659730240140923e-08 -0.0012503547896749851 5.5663874942105501e-08 3.1850266550352004e-08 -0.0010003152137592322 9.6557691102531036e-08 5.5803695362806254e-08 -0.0012503549201461929 -1.4259859554837689e-11 1.1151397397927636e-07 -0.0012503531836065909 5.5726592021134877e-08 9.659730240140923e-08 -0.0012503547896749851 9.1849284853239047e-09 5.7022671296681884e-08 -0.0012503539995997503 9.2506488457820879e-09 5.7020966877390119e-08 -0.001000313926674132 5.5726592021134877e-08 9.659730240140923e-08 -0.0012503547896749851 9.1849284853239047e-09 5.7022671296681884e-08 -0.00125035399959975 9.2506488457820681e-09 5.7020966877390152e-08 -0.001000313926674132 5.5663874942105501e-08 3.1850266550352004e-08 -0.0010003152137592322 5.5757026740986172e-08 9.6689658735506294e-08 -0.0010003165854747882 -1.4259859554831496e-11 1.1151397397927636e-07 -0.0012503531836065909 9.2506488457820879e-09 5.7020966877390119e-08 -0.001000313926674132 5.5726592021134877e-08 9.659730240140923e-08 -0.0012503547896749851 -8.2114789229976586e-11 1.1160363342837845e-07 -0.0010003139846077316 -5.5768846823608256e-08 9.6570551001289327e-08 -0.0012503523873243056 -2.4319186993156071e-08 7.1415626683541191e-08 -0.001000312862464591 -1.4259859554837689e-11 1.1151397397927636e-07 -0.0012503531836065909 -1.4259859554837689e-11 1.1151397397927636e-07 -0.0012503531836065909 9.1849284853239047e-09 5.7022671296681884e-08 -0.0012503539995997503 -2.4203833877440715e-08 7.1372212971176214e-08 -0.0012503536533478234 -2.4319186993156071e-08 7.1415626683541191e-08 -0.001000312862464591 -5.5768846823608276e-08 9.657055100128934e-08 -0.0012503523873243056 -1.4259859554831881e-11 1.1151397397927637e-07 -0.0012503531836065909 -2.4203833877440715e-08 7.1372212971176214e-08 -0.0012503536533478234 -2.4319186993156071e-08 7.1415626683541191e-08 -0.001000312862464591 9.2506488457820879e-09 5.7020966877390119e-08 -0.001000313926674132 -1.4259859554845655e-11 1.1151397397927636e-07 -0.0012503531836065909 -2.4319186993156071e-08 7.1415626683541191e-08 -0.001000312862464591 9.1849284853239047e-09 5.7022671296681884e-08 -0.0012503539995997503 9.1849284853239047e-09 5.7022671296681884e-08 -0.0012503539995997503 -1.9819636229269308e-08 3.5857388541288357e-08 -0.0012503532796755662 -2.4203833877440715e-08 7.1372212971176214e-08 -0.0012503536533478234 -2.4319186993156071e-08 7.1415626683541191e-08 -0.001000312862464591 9.2506488457820879e-09 5.7020966877390119e-08 -0.001000313926674132 -8.2114789229976586e-11 1.1160363342837845e-07 -0.0010003139846077316 -2.4319186993156071e-08 7.1415626683541191e-08 -0.001000312862464591 -1.4259859554837689e-11 1.1151397397927636e-07 -0.0012503531836065909 5.5757026740986172e-08 9.6689658735506294e-08 -0.0010003165854747882 -8.2114789229976586e-11 1.1160363342837845e-07 -0.0010003139846077316 9.2506488457820879e-09 5.7020966877390119e-08 -0.001000313926674132 -1.4259859554837707e-11 1.1151397397927636e-07 -0.0012503531836065909 5.5757026740986172e-08 9.6689658735506294e-08 -0.0010003165854747882 9.2506488457820929e-09 5.7020966877390112e-08 -0.001000313926674132 5.5663874942105501e-08 3.1850266550352004e-08 -0.0010003152137592322 5.5726592021134877e-08 9.659730240140923e-08 -0.0012503547896749851 5.5757026740986172e-08 9.6689658735506294e-08 -0.0010003165854747882 9.2506488457820879e-09 5.7020966877390119e-08 -0.0010003139266741318 1.0879332673147085e-08 5.704434515225525e-08 -0.00075027953838611994 5.6607420571282655e-08 3.2011869196710052e-08 -0.000750282576449196 5.7208702163205677e-08 9.5795927571383418e-08 -0.00075028641821073662 1.087933267314711e-08 5.7044345152255216e-08 -0.00075027953838612005 5.6607420571282655e-08 3.2011869196710052e-08 -0.000750282576449196 5.5757026740986172e-08 9.6689658735506294e-08 -0.0010003165854747882 5.7208702163205677e-08 9.5795927571383418e-08 -0.00075028641821073662 -8.2114789229970227e-11 1.1160363342837845e-07 -0.0010003139846077314 1.0879332673147105e-08 5.7044345152255223e-08 -0.00075027953838612005 5.5757026740986172e-08 9.6689658735506294e-08 -0.0010003165854747882 5.7208702163205677e-08 9.5795927571383418e-08 -0.00075028641821073662 1.9986818360505404e-09 1.116572222619556e-07 -0.00075028045052428821 1.0879332673147105e-08 5.7044345152255223e-08 -0.00075027953838612005 -8.2114789229976043e-11 1.1160363342837845e-07 -0.0010003139846077316 -8.2114789229976586e-11 1.1160363342837845e-07 -0.0010003139846077316 5.5757026740986172e-08 9.6689658735506294e-08 -0.0010003165854747882 9.2506488457820879e-09 5.7020966877390119e-08 -0.001000313926674132 1.0879332673147105e-08 5.7044345152255223e-08 -0.00075027953838612005 9.2506488457820879e-09 5.7020966877390119e-08 -0.001000313926674132 -2.0036150575911693e-08 3.5781778053493285e-08 -0.0010003125096480542 -2.4319186993156071e-08 7.1415626683541191e-08 -0.001000312862464591 -2.3151379973700701e-08 7.1600739771164841e-08 -0.00075027741573186141 -8.2114789229976586e-11 1.1160363342837845e-07 -0.0010003139846077316 9.2506488457820879e-09 5.7020966877390119e-08 -0.001000313926674132 -2.4319186993156071e-08 7.1415626683541191e-08 -0.001000312862464591 -2.3151379973700701e-08 7.1600739771164841e-08 -0.00075027741573186141 1.0879332673147105e-08 5.7044345152255223e-08 -0.00075027953838612005 1.9986818360505404e-09 1.116572222619556e-07 -0.00075028045052428821 -2.3151379973700701e-08 7.1600739771164841e-08 -0.00075027741573186141 -8.2114789229976586e-11 1.1160363342837845e-07 -0.0010003139846077316 1.0879332673147105e-08 5.7044345152255223e-08 -0.00075027953838612005 -8.2114789229984793e-11 1.1160363342837845e-07 -0.0010003139846077316 -2.3151379973700701e-08 7.1600739771164841e-08 -0.00075027741573186141 9.2506488457820879e-09 5.7020966877390119e-08 -0.001000313926674132 -5.5883880002873871e-08 9.6603605850375755e-08 -0.0010003123786677989 -8.2114789229970757e-11 1.1160363342837846e-07 -0.0010003139846077316 -2.4319186993156071e-08 7.1415626683541191e-08 -0.001000312862464591 -2.3151379973700701e-08 7.1600739771164841e-08 -0.00075027741573186141 1.9986818360505404e-09 1.116572222619556e-07 -0.00075028045052428821 1.0879332673147105e-08 5.7044345152255223e-08 -0.00075027953838612005 -2.3151379973700701e-08 7.1600739771164841e-08 -0.00075027741573186141 -2.5386416215678113e-08 6.925740974876676e-08 -0.00050024065343358696 -5.4065449859294321e-08 9.7719860352851002e-08 -0.00075027673232631821 1.9986818360505466e-09 1.1165722226195561e-07 -0.00075028045052428832 -2.3151379973700701e-08 7.1600739771164841e-08 -0.00075027741573186141 -2.5386416215678113e-08 6.925740974876676e-08 -0.00050024065343358696 1.2958524787157059e-08 5.6981117402416426e-08 -0.00050024595673333857 1.9986818360505309e-09 1.116572222619556e-07 -0.00075028045052428832 -2.5386416215678113e-08 6.925740974876676e-08 -0.00050024065343358696 1.0879332673147105e-08 5.7044345152255223e-08 -0.00075027953838612005 1.0879332673147105e-08 5.7044345152255223e-08 -0.00075027953838612005 -1.9295948113568096e-08 3.6141544592859821e-08 -0.00075027660235657881 -2.3151379973700701e-08 7.1600739771164841e-08 -0.00075027741573186141 -2.5386416215678113e-08 6.925740974876676e-08 -0.00050024065343358696 4.487843609676738e-08 1.0091015139895346e-07 -0.00050026569374201366 1.998681836050545e-09 1.116572222619556e-07 -0.00075028045052428821 1.2958524787157059e-08 5.6981117402416426e-08 -0.00050024595673333857 5.7208702163205677e-08 9.5795927571383418e-08 -0.00075028641821073662 1.9986818360505404e-09 1.116572222619556e-07 -0.00075028045052428821 5.7208702163205677e-08 9.5795927571383418e-08 -0.00075028641821073662 1.0879332673147105e-08 5.7044345152255223e-08 -0.00075027953838612005 1.2958524787157059e-08 5.6981117402416426e-08 -0.00050024595673333857 5.7208702163205677e-08 9.5795927571383418e-08 -0.00075028641821073662 1.0879332673147105e-08 5.7044345152255223e-08 -0.00075027953838611994 1.2958524787157041e-08 5.6981117402416453e-08 -0.00050024595673333846 5.7243456372447605e-08 3.4702788551355982e-08 -0.00050025573264682105 -1.3462529912989022e-08 1.0927989520859933e-07 -0.00050025051295578694 -5.4065449859294294e-08 9.7719860352850989e-08 -0.00075027673232631821 -2.5386416215678113e-08 6.925740974876676e-08 -0.00050024065343358696 1.9986818360505404e-09 1.116572222619556e-07 -0.00075028045052428821 1.9986818360505404e-09 1.116572222619556e-07 -0.00075028045052428821 -5.5883880002873851e-08 9.6603605850375742e-08 -0.0010003123786677989 -2.3151379973700701e-08 7.1600739771164841e-08 -0.00075027741573186141 -8.2114789229976586e-11 1.1160363342837845e-07 -0.0010003139846077316 -5.4065449859294321e-08 9.7719860352851002e-08 -0.00075027673232631821 -2.3151379973700701e-08 7.1600739771164841e-08 -0.00075027741573186141 -4.8847481193213991e-08 5.3221149819889282e-08 -0.00075027658629532405 -5.1285251412034779e-08 5.0050822470883951e-08 -0.00050023980822751452 -1.9295948113568093e-08 3.6141544592859821e-08 -0.00075027660235657881 -2.3151379973700698e-08 7.1600739771164841e-08 -0.00075027741573186141 -2.5386416215678113e-08 6.925740974876676e-08 -0.00050024065343358696 -5.1285251412034779e-08 5.0050822470883951e-08 -0.00050023980822751452 -2.5386416215678113e-08 6.925740974876676e-08 -0.00050024065343358696 -5.4065449859294321e-08 9.7719860352851002e-08 -0.00075027673232631821 -5.1285251412034779e-08 5.0050822470883951e-08 -0.00050023980822751452 -2.3151379973700701e-08 7.1600739771164841e-08 -0.00075027741573186141 -6.6338696455658401e-08 8.7950437897466745e-08 -0.00050024114170626576 -9.5744835648322351e-08 5.7468822276808474e-08 -0.00075027895345607543 -5.1285251412034779e-08 5.0050822470883951e-08 -0.00050023980822751452 -5.4065449859294321e-08 9.7719860352851002e-08 -0.00075027673232631821 -9.5744835648322365e-08 5.7468822276808474e-08 -0.00075027895345607532 -5.4065449859294321e-08 9.7719860352851002e-08 -0.00075027673232631821 -4.8847481193213991e-08 5.3221149819889282e-08 -0.00075027658629532405 -5.1285251412034779e-08 5.0050822470883951e-08 -0.00050023980822751452 -2.003615057591169e-08 3.5781778053493285e-08 -0.0010003125096480542 -2.4319186993156067e-08 7.1415626683541191e-08 -0.001000312862464591 -2.3151379973700701e-08 7.1600739771164841e-08 -0.00075027741573186141 -4.8847481193213991e-08 5.3221149819889282e-08 -0.00075027658629532405 -2.3151379973700701e-08 7.1600739771164841e-08 -0.00075027741573186141 -5.4065449859294321e-08 9.7719860352851002e-08 -0.00075027673232631821 -4.8847481193213991e-08 5.3221149819889282e-08 -0.00075027658629532405 -5.5883880002873871e-08 9.6603605850375755e-08 -0.0010003123786677989 1.9986818360505404e-09 1.116572222619556e-07 -0.00075028045052428821 -5.4065449859294321e-08 9.7719860352851002e-08 -0.00075027673232631821 -2.3151379973700701e-08 7.1600739771164841e-08 -0.00075027741573186141 -5.5883880002873871e-08 9.6603605850375755e-08 -0.0010003123786677989 -5.5883880002873871e-08 9.6603605850375755e-08 -0.0010003123786677989 -2.4319186993156071e-08 7.1415626683541191e-08 -0.001000312862464591 -4.9533560940668076e-08 5.2955724624612881e-08 -0.0010003122523989344 -4.8847481193213991e-08 5.3221149819889282e-08 -0.00075027658629532405 -2.3151379973700701e-08 7.1600739771164841e-08 -0.00075027741573186141 -5.5883880002873871e-08 9.6603605850375755e-08 -0.0010003123786677989 -4.8847481193213991e-08 5.3221149819889282e-08 -0.00075027658629532405 -2.4319186993156071e-08 7.1415626683541191e-08 -0.001000312862464591 -5.4065449859294321e-08 9.7719860352851002e-08 -0.00075027673232631821 -9.6695411101466343e-08 5.573246928136925e-08 -0.0010003127968578993 -4.8847481193213991e-08 5.3221149819889282e-08 -0.00075027658629532405 -5.5883880002873871e-08 9.6603605850375755e-08 -0.0010003123786677989 -9.6695411101466357e-08 5.5732469281369244e-08 -0.0010003127968578993 -5.5883880002873871e-08 9.6603605850375755e-08 -0.0010003123786677989 -4.9533560940668076e-08 5.2955724624612881e-08 -0.0010003122523989344 -4.8847481193213991e-08 5.3221149819889282e-08 -0.00075027658629532405 -5.4065449859294321e-08 9.7719860352851002e-08 -0.00075027673232631821 -9.5744835648322365e-08 5.7468822276808474e-08 -0.00075027895345607532 -4.8847481193213991e-08 5.3221149819889282e-08 -0.00075027658629532405 -9.6695411101466357e-08 5.5732469281369244e-08 -0.0010003127968578993 -5.5883880002873871e-08 9.6603605850375755e-08 -0.0010003123786677989 -9.6695411101466357e-08 5.5732469281369244e-08 -0.0010003127968578993 -4.9533560940668076e-08 5.2955724624612881e-08 -0.0010003122523989344 -9.6591467335676981e-08 5.5729988799566901e-08 -0.0012503521777514238 -2.4319186993156071e-08 7.1415626683541191e-08 -0.001000312862464591 -5.5883880002873871e-08 9.6603605850375755e-08 -0.0010003123786677989 -4.9533560940668076e-08 5.2955724624612881e-08 -0.0010003122523989344 -5.5768846823608276e-08 9.657055100128934e-08 -0.0012503523873243056 -8.2114789229976586e-11 1.1160363342837845e-07 -0.0010003139846077316 -5.5883880002873871e-08 9.6603605850375755e-08 -0.0010003123786677989 -2.4319186993156071e-08 7.1415626683541191e-08 -0.001000312862464591 -5.5768846823608276e-08 9.657055100128934e-08 -0.0012503523873243056 -9.6591467335676981e-08 5.5729988799566901e-08 -0.0012503521777514238 -5.5768846823608276e-08 9.657055100128934e-08 -0.0012503523873243056 -4.9209758491138943e-08 5.3023011935208771e-08 -0.0012503535007174075 -4.9533560940668076e-08 5.2955724624612881e-08 -0.0010003122523989344 -1.9819636229269304e-08 3.5857388541288357e-08 -0.0012503532796755662 -2.4203833877440711e-08 7.1372212971176214e-08 -0.0012503536533478234 -2.4319186993156071e-08 7.1415626683541191e-08 -0.001000312862464591 -4.9533560940668076e-08 5.2955724624612881e-08 -0.0010003122523989344 -5.5883880002873871e-08 9.6603605850375755e-08 -0.0010003123786677989 -9.6591467335676968e-08 5.5729988799566908e-08 -0.001250352177751424 -4.9533560940668076e-08 5.2955724624612881e-08 -0.0010003122523989344 -5.5768846823608276e-08 9.657055100128934e-08 -0.0012503523873243056 -2.4319186993156071e-08 7.1415626683541191e-08 -0.001000312862464591 -5.5768846823608276e-08 9.657055100128934e-08 -0.0012503523873243056 -4.9533560940668076e-08 5.2955724624612881e-08 -0.0010003122523989344 -2.4203833877440715e-08 7.1372212971176214e-08 -0.0012503536533478234 -5.5768846823608276e-08 9.657055100128934e-08 -0.0012503523873243056 -2.4203833877440715e-08 7.1372212971176214e-08 -0.0012503536533478234 -4.9209758491138943e-08 5.3023011935208771e-08 -0.0012503535007174075 -4.9533560940668076e-08 5.2955724624612881e-08 -0.0010003122523989344 -1.1151476759107054e-07 -1.6207321998162221e-11 -0.0012503518846035163 -9.6591467335676981e-08 5.5729988799566901e-08 -0.0012503521777514238 -5.0392660028758698e-08 5.466658890466563e-09 -0.0012503522555901629 -5.0656063716591333e-08 5.2355801676826986e-09 -0.0010003121829150023 -9.6695411101466357e-08 5.5732469281369244e-08 -0.0010003127968578993 -1.1151476759107054e-07 -1.6207321998162221e-11 -0.0012503518846035163 -5.0656063716591333e-08 5.2355801676826986e-09 -0.0010003121829150023 -9.6591467335676981e-08 5.5729988799566901e-08 -0.0012503521777514238 -9.6695411101466357e-08 5.5732469281369244e-08 -0.0010003127968578993 -5.0656063716591333e-08 5.2355801676826986e-09 -0.0010003121829150023 -4.9533560940668076e-08 5.2955724624612881e-08 -0.0010003122523989344 -9.6591467335676981e-08 5.5729988799566901e-08 -0.0012503521777514238 -9.6695411101466357e-08 5.5732469281369244e-08 -0.0010003127968578993 -1.1160038236019589e-07 -1.0284684023508792e-10 -0.0010003129599951185 -5.0656063716591333e-08 5.2355801676826986e-09 -0.0010003121829150023 -1.1151476759107054e-07 -1.6207321998162221e-11 -0.0012503518846035163 -5.0656063716591333e-08 5.2355801676826986e-09 -0.0010003121829150023 -1.1160038236019589e-07 -1.0284684023508805e-10 -0.0010003129599951183 -6.6134383409700044e-08 -4.0512149133456443e-08 -0.0010003117211385599 -1.1151476759107054e-07 -1.6207321998162221e-11 -0.0012503518846035163 -1.1160038236019589e-07 -1.0284684023508805e-10 -0.0010003129599951183 -9.6569000923380457e-08 -5.5783723655588651e-08 -0.0012503514950724735 -6.6134383409700057e-08 -4.051214913345645e-08 -0.0010003117211385599 -1.1151476759107054e-07 -1.6207321998162221e-11 -0.0012503518846035163 -5.0656063716591333e-08 5.2355801676826986e-09 -0.0010003121829150023 -1.1151476759107054e-07 -1.6207321998157064e-11 -0.0012503518846035163 -6.6134383409700044e-08 -4.0512149133456443e-08 -0.0010003117211385599 -5.0392660028758698e-08 5.466658890466563e-09 -0.0012503522555901629 -1.1151476759107054e-07 -1.6207321998162221e-11 -0.0012503518846035163 -5.0392660028758698e-08 5.466658890466563e-09 -0.0012503522555901629 -6.5832361222113032e-08 -4.0335879898448333e-08 -0.0012503528796711705 -6.6134383409700044e-08 -4.0512149133456443e-08 -0.0010003117211385599 -1.5332156695398e-08 -5.5570782629946805e-08 -0.0010003114627722875 -5.0656063716591327e-08 5.235580167682706e-09 -0.0010003121829150023 -6.6134383409700044e-08 -4.0512149133456443e-08 -0.0010003117211385599 -5.0392660028758692e-08 5.466658890466563e-09 -0.0012503522555901631 -5.0656063716591333e-08 5.2355801676826986e-09 -0.0010003121829150023 -1.5332156695398e-08 -5.5570782629946805e-08 -0.0010003114627722875 4.8047539474340816e-09 1.3835272849319244e-09 -0.0010003122385683486 -5.0392660028758698e-08 5.466658890466563e-09 -0.0012503522555901629 -5.0656063716591333e-08 5.2355801676826986e-09 -0.0010003121829150023 4.8047539474340816e-09 1.3835272849319244e-09 -0.0010003122385683486 -2.003615057591169e-08 3.5781778053493285e-08 -0.0010003125096480542 -5.0392660028758698e-08 5.466658890466563e-09 -0.0012503522555901629 -5.0656063716591333e-08 5.2355801676826986e-09 -0.0010003121829150023 -2.003615057591169e-08 3.5781778053493285e-08 -0.0010003125096480542 -4.9533560940668076e-08 5.2955724624612881e-08 -0.0010003122523989344 -5.0392660028758698e-08 5.466658890466563e-09 -0.0012503522555901629 -2.003615057591169e-08 3.5781778053493285e-08 -0.0010003125096480542 -2.4319186993156071e-08 7.1415626683541191e-08 -0.001000312862464591 -4.9533560940668076e-08 5.2955724624612881e-08 -0.0010003122523989344 -1.9819636229269304e-08 3.5857388541288357e-08 -0.0012503532796755662 -5.0392660028758698e-08 5.466658890466563e-09 -0.0012503522555901629 -1.9819636229269304e-08 3.5857388541288357e-08 -0.0012503532796755662 -2.003615057591169e-08 3.5781778053493285e-08 -0.0010003125096480542 -4.9533560940668076e-08 5.2955724624612881e-08 -0.0010003122523989344 -2.4203833877440715e-08 7.1372212971176214e-08 -0.0012503536533478234 -1.9819636229269304e-08 3.5857388541288357e-08 -0.0012503532796755662 -4.9209758491138943e-08 5.3023011935208771e-08 -0.0012503535007174075 -4.9533560940668076e-08 5.2955724624612881e-08 -0.0010003122523989344 -9.6591467335676981e-08 5.5729988799566901e-08 -0.0012503521777514238 -5.0392660028758698e-08 5.466658890466563e-09 -0.0012503522555901629 -5.0656063716591333e-08 5.2355801676826986e-09 -0.0010003121829150023 -4.9533560940668076e-08 5.2955724624612881e-08 -0.0010003122523989344 -1.9819636229269304e-08 3.5857388541288357e-08 -0.0012503532796755662 -5.0392660028758698e-08 5.466658890466563e-09 -0.0012503522555901629 -4.9209758491138943e-08 5.3023011935208771e-08 -0.0012503535007174075 -4.9533560940668076e-08 5.2955724624612881e-08 -0.0010003122523989344 -5.0392660028758698e-08 5.466658890466563e-09 -0.0012503522555901629 -9.6591467335676968e-08 5.5729988799566908e-08 -0.0012503521777514238 -4.9209758491138943e-08 5.3023011935208771e-08 -0.0012503535007174075 -4.9533560940668076e-08 5.2955724624612881e-08 -0.0010003122523989344 -2.003615057591169e-08 3.5781778053493285e-08 -0.0010003125096480542 9.1849284853239047e-09 5.7022671296681884e-08 -0.0012503539995997503 -2.4319186993156071e-08 7.1415626683541191e-08 -0.0010003128624645908 -1.9819636229269304e-08 3.5857388541288357e-08 -0.0012503532796755662 9.1849284853239047e-09 5.7022671296681884e-08 -0.0012503539995997503 5.0098381890503625e-09 1.5370437072605406e-09 -0.0012503527522594229 -1.9819636229269304e-08 3.5857388541288357e-08 -0.0012503532796755662 -2.003615057591169e-08 3.5781778053493285e-08 -0.0010003125096480542 5.0098381890503625e-09 1.5370437072605406e-09 -0.0012503527522594229 -5.0392660028758698e-08 5.466658890466563e-09 -0.0012503522555901629 -1.9819636229269304e-08 3.5857388541288357e-08 -0.0012503532796755662 -2.003615057591169e-08 3.5781778053493285e-08 -0.0010003125096480542 5.0098381890503625e-09 1.5370437072605406e-09 -0.0012503527522594229 9.1849284853238948e-09 5.7022671296681891e-08 -0.0012503539995997503 9.2506488457821194e-09 5.7020966877390119e-08 -0.0010003139266741322 -2.003615057591172e-08 3.5781778053493285e-08 -0.0010003125096480542 -1.4902564249429079e-08 -5.5343480804778042e-08 -0.0012503519028022707 -5.0392660028758698e-08 5.466658890466563e-09 -0.0012503522555901629 5.0098381890503625e-09 1.5370437072605406e-09 -0.0012503527522594229 4.8047539474340816e-09 1.3835272849319244e-09 -0.0010003122385683486 -5.0392660028758698e-08 5.466658890466563e-09 -0.0012503522555901629 5.0098381890503625e-09 1.5370437072605406e-09 -0.0012503527522594229 4.8047539474340808e-09 1.3835272849318973e-09 -0.0010003122385683486 -2.003615057591169e-08 3.5781778053493285e-08 -0.0010003125096480542 4.8047539474340816e-09 1.3835272849319244e-09 -0.0010003122385683486 -1.4902564249429082e-08 -5.5343480804778029e-08 -0.0012503519028022707 2.1351511983846911e-08 -3.6563403174537565e-08 -0.0010003117577150971 5.0098381890503625e-09 1.5370437072605406e-09 -0.0012503527522594229 -5.0392660028758698e-08 5.466658890466563e-09 -0.0012503522555901629 -1.4902564249429079e-08 -5.5343480804778042e-08 -0.0012503519028022707 -1.533215669539803e-08 -5.5570782629946825e-08 -0.0010003114627722873 4.8047539474340981e-09 1.3835272849319337e-09 -0.0010003122385683486 5.0098381890503625e-09 1.5370437072605406e-09 -0.0012503527522594229 5.3688387103345641e-08 -2.034183872812165e-08 -0.0012503533209120034 2.1599132101835191e-08 -3.6340718148733589e-08 -0.0012503529312545732 2.1351511983846911e-08 -3.6563403174537565e-08 -0.0010003117577150971 5.3688387103345641e-08 -2.034183872812165e-08 -0.0012503533209120034 5.0098381890503625e-09 1.5370437072605406e-09 -0.0012503527522594229 4.8047539474340659e-09 1.3835272849318962e-09 -0.0010003122385683486 2.1351511983846911e-08 -3.6563403174537565e-08 -0.0010003117577150971 4.8047539474340816e-09 1.3835272849319244e-09 -0.0010003122385683486 5.3688387103345628e-08 -2.0341838728121624e-08 -0.0012503533209120036 5.5663874942105501e-08 3.1850266550352004e-08 -0.0010003152137592322 5.0098381890503625e-09 1.5370437072605406e-09 -0.0012503527522594229 5.3688387103345641e-08 -2.034183872812165e-08 -0.0012503533209120034 5.0098381890503625e-09 1.5370437072605406e-09 -0.0012503527522594229 5.5613677958752183e-08 3.1977055132466586e-08 -0.0012503558964576526 5.5663874942105501e-08 3.1850266550352004e-08 -0.0010003152137592322 9.1849284853239047e-09 5.7022671296681884e-08 -0.0012503539995997503 5.5726592021134877e-08 9.659730240140923e-08 -0.0012503547896749851 5.5613677958752183e-08 3.1977055132466586e-08 -0.0012503558964576526 5.5663874942105501e-08 3.1850266550352004e-08 -0.0010003152137592322 9.2506488457820879e-09 5.7020966877390119e-08 -0.001000313926674132 5.0098381890503625e-09 1.5370437072605406e-09 -0.0012503527522594229 5.5663874942105501e-08 3.1850266550352004e-08 -0.0010003152137592322 9.1849284853239047e-09 5.7022671296681884e-08 -0.0012503539995997503 5.0098381890503625e-09 1.5370437072605406e-09 -0.0012503527522594229 9.1849284853239047e-09 5.7022671296681884e-08 -0.0012503539995997503 5.5613677958752176e-08 3.1977055132466586e-08 -0.0012503558964576523 5.5663874942105501e-08 3.1850266550352004e-08 -0.0010003152137592322 9.2506488457820879e-09 5.7020966877390119e-08 -0.001000313926674132 4.8047539474340816e-09 1.3835272849319244e-09 -0.0010003122385683486 5.5663874942105501e-08 3.1850266550352004e-08 -0.0010003152137592322 5.0098381890503625e-09 1.5370437072605406e-09 -0.0012503527522594229 4.8047539474340816e-09 1.3835272849319244e-09 -0.0010003122385683486 5.3614676963151572e-08 -2.0508976549598169e-08 -0.0010003131369850534 5.5663874942105501e-08 3.1850266550352004e-08 -0.0010003152137592322 5.3688387103345635e-08 -2.034183872812165e-08 -0.0012503533209120034 5.3614676963151572e-08 -2.0508976549598169e-08 -0.0010003131369850534 4.8047539474340816e-09 1.3835272849319244e-09 -0.0010003122385683486 2.1351511983846911e-08 -3.6563403174537565e-08 -0.0010003117577150971 5.3688387103345641e-08 -2.034183872812165e-08 -0.0012503533209120034 -2.003615057591169e-08 3.5781778053493285e-08 -0.0010003125096480542 9.2506488457820879e-09 5.7020966877390119e-08 -0.001000313926674132 -2.4319186993156071e-08 7.1415626683541191e-08 -0.001000312862464591 9.1849284853239047e-09 5.7022671296681884e-08 -0.0012503539995997503 4.8047539474340816e-09 1.3835272849319244e-09 -0.0010003122385683486 9.250648845782078e-09 5.7020966877390126e-08 -0.0010003139266741318 -2.003615057591169e-08 3.5781778053493285e-08 -0.0010003125096480542 5.0098381890503625e-09 1.5370437072605406e-09 -0.0012503527522594229 4.8047539474340816e-09 1.3835272849319244e-09 -0.0010003122385683486 9.2506488457820796e-09 5.7020966877390126e-08 -0.001000313926674132 1.0879332673147138e-08 5.7044345152255216e-08 -0.00075027953838612015 -1.9295948113568122e-08 3.6141544592859821e-08 -0.00075027660235657892 4.8934179529054856e-09 1.8440425392450775e-09 -0.00075027640125934262 1.0879332673147096e-08 5.704434515225523e-08 -0.00075027953838612005 -1.9295948113568093e-08 3.6141544592859821e-08 -0.00075027660235657881 4.8047539474340816e-09 1.3835272849319244e-09 -0.0010003122385683486 -1.9295948113568093e-08 3.6141544592859821e-08 -0.00075027660235657881 1.0879332673147105e-08 5.7044345152255223e-08 -0.00075027953838612005 -2.3151379973700701e-08 7.1600739771164841e-08 -0.00075027741573186141 9.2506488457820879e-09 5.7020966877390119e-08 -0.001000313926674132 4.8047539474340816e-09 1.3835272849319244e-09 -0.0010003122385683486 -5.0656063716591333e-08 5.2355801676826986e-09 -0.0010003121829150023 -2.003615057591169e-08 3.5781778053493285e-08 -0.0010003125096480542 -1.9295948113568093e-08 3.6141544592859821e-08 -0.00075027660235657881 -1.9295948113568093e-08 3.6141544592859821e-08 -0.00075027660235657881 9.2506488457820879e-09 5.7020966877390119e-08 -0.001000313926674132 -2.3151379973700701e-08 7.1600739771164841e-08 -0.00075027741573186141 -2.003615057591169e-08 3.5781778053493285e-08 -0.0010003125096480542 9.2506488457820879e-09 5.7020966877390119e-08 -0.001000313926674132 4.8047539474340816e-09 1.3835272849319244e-09 -0.0010003122385683486 -2.003615057591169e-08 3.5781778053493285e-08 -0.0010003125096480542 -1.9295948113568093e-08 3.6141544592859821e-08 -0.00075027660235657881 4.8934179529054856e-09 1.8440425392450775e-09 -0.00075027640125934262 -1.5332156695398004e-08 -5.5570782629946792e-08 -0.0010003114627722873 2.097866957519865e-08 -3.631491656007914e-08 -0.00075027540401592565 4.8047539474340816e-09 1.3835272849319244e-09 -0.0010003122385683486 -5.0656063716591333e-08 5.2355801676826986e-09 -0.0010003121829150023 -1.5332156695398e-08 -5.5570782629946805e-08 -0.0010003114627722875 -1.6531867343532575e-08 -5.5269525013683369e-08 -0.000750275942428963 4.8934179529055021e-09 1.844042539245087e-09 -0.00075027640125934262 -1.5332156695398e-08 -5.5570782629946805e-08 -0.0010003114627722875 -5.0656063716591333e-08 5.2355801676826986e-09 -0.0010003121829150023 4.8047539474340816e-09 1.3835272849319244e-09 -0.0010003122385683486 4.8934179529054856e-09 1.8440425392450775e-09 -0.00075027640125934262 -5.0656063716591333e-08 5.2355801676826986e-09 -0.0010003121829150023 4.8047539474340816e-09 1.3835272849319244e-09 -0.0010003122385683486 4.8934179529054839e-09 1.8440425392450504e-09 -0.00075027640125934262 -1.9295948113568093e-08 3.6141544592859821e-08 -0.00075027660235657881 5.3614676963151572e-08 -2.0508976549598169e-08 -0.0010003131369850534 4.8047539474340816e-09 1.3835272849319244e-09 -0.0010003122385683486 4.893417952905469e-09 1.8440425392450487e-09 -0.00075027640125934273 2.097866957519865e-08 -3.631491656007914e-08 -0.00075027540401592565 5.3678577509339144e-08 -1.9711874958898098e-08 -0.00075027778990767436 4.8934179529054856e-09 1.8440425392450775e-09 -0.00075027640125934262 2.097866957519865e-08 -3.631491656007914e-08 -0.00075027540401592565 5.3614676963151572e-08 -2.0508976549598169e-08 -0.0010003131369850534 4.8047539474340816e-09 1.3835272849319244e-09 -0.0010003122385683486 5.3614676963151572e-08 -2.0508976549598169e-08 -0.0010003131369850534 2.1351511983846911e-08 -3.6563403174537565e-08 -0.0010003117577150971 2.097866957519865e-08 -3.631491656007914e-08 -0.00075027540401592565 4.8934179529054856e-09 1.8440425392450775e-09 -0.00075027640125934262 5.3614676963151559e-08 -2.0508976549598143e-08 -0.0010003131369850531 5.6607420571282655e-08 3.2011869196710052e-08 -0.000750282576449196 4.8047539474340816e-09 1.3835272849319244e-09 -0.0010003122385683486 4.8934179529054856e-09 1.8440425392450775e-09 -0.00075027640125934262 5.3678577509339144e-08 -1.9711874958898098e-08 -0.00075027778990767436 5.6607420571282655e-08 3.2011869196710052e-08 -0.000750282576449196 5.3614676963151566e-08 -2.0508976549598169e-08 -0.0010003131369850534 5.3614676963151572e-08 -2.0508976549598169e-08 -0.0010003131369850534 4.8047539474340816e-09 1.3835272849319244e-09 -0.0010003122385683486 5.5663874942105501e-08 3.1850266550352004e-08 -0.0010003152137592322 5.6607420571282655e-08 3.2011869196710052e-08 -0.000750282576449196 9.2506488457820879e-09 5.7020966877390119e-08 -0.001000313926674132 5.5757026740986172e-08 9.6689658735506294e-08 -0.0010003165854747882 5.5663874942105501e-08 3.1850266550352004e-08 -0.0010003152137592322 5.6607420571282655e-08 3.2011869196710052e-08 -0.000750282576449196 1.0879332673147105e-08 5.7044345152255223e-08 -0.00075027953838612005 4.8047539474340816e-09 1.3835272849319244e-09 -0.0010003122385683486 5.6607420571282655e-08 3.2011869196710052e-08 -0.000750282576449196 9.2506488457820879e-09 5.7020966877390119e-08 -0.001000313926674132 1.0879332673147105e-08 5.7044345152255223e-08 -0.00075027953838612005 4.8934179529054856e-09 1.8440425392450775e-09 -0.00075027640125934262 5.6607420571282655e-08 3.2011869196710052e-08 -0.000750282576449196 4.8047539474340816e-09 1.3835272849319244e-09 -0.0010003122385683486 4.8047539474340816e-09 1.3835272849319244e-09 -0.0010003122385683486 9.2506488457820879e-09 5.7020966877390119e-08 -0.001000313926674132 5.5663874942105494e-08 3.1850266550352004e-08 -0.001000315213759232 5.6607420571282655e-08 3.2011869196710052e-08 -0.000750282576449196 1.2958524787157059e-08 5.6981117402416426e-08 -0.00050024595673333857 4.8934179529054856e-09 1.8440425392450775e-09 -0.00075027640125934262 5.7243456372447605e-08 3.4702788551355982e-08 -0.00050025573264682105 1.0879332673147105e-08 5.7044345152255223e-08 -0.00075027953838612005 1.0879332673147105e-08 5.7044345152255223e-08 -0.00075027953838612005 5.7208702163205677e-08 9.5795927571383418e-08 -0.00075028641821073662 5.6607420571282655e-08 3.2011869196710052e-08 -0.000750282576449196 5.7243456372447605e-08 3.4702788551355982e-08 -0.00050025573264682105 4.8934179529054856e-09 1.8440425392450775e-09 -0.00075027640125934262 1.0879332673147105e-08 5.7044345152255223e-08 -0.00075027953838612005 5.6607420571282649e-08 3.2011869196710058e-08 -0.0007502825764491959 5.7243456372447605e-08 3.4702788551355982e-08 -0.00050025573264682105 5.3678577509339144e-08 -1.9711874958898098e-08 -0.00075027778990767436 4.8934179529054856e-09 1.8440425392450775e-09 -0.00075027640125934262 5.2846910863536935e-09 3.3976416715365749e-09 -0.00050024025274754305 2.1896623729260335e-08 -3.3945269603411072e-08 -0.00050023625603702149 4.8934179529054856e-09 1.8440425392450775e-09 -0.00075027640125934262 5.3678577509339144e-08 -1.9711874958898098e-08 -0.00075027778990767436 2.097866957519865e-08 -3.631491656007914e-08 -0.00075027540401592565 2.1896623729260335e-08 -3.3945269603411072e-08 -0.00050023625603702149 5.2846910863537093e-09 3.397641671536603e-09 -0.00050024025274754305 5.367857750933913e-08 -1.9711874958898072e-08 -0.00075027778990767447 5.7243456372447605e-08 3.4702788551355982e-08 -0.00050025573264682105 4.8934179529054856e-09 1.8440425392450775e-09 -0.00075027640125934262 5.3678577509339144e-08 -1.9711874958898098e-08 -0.00075027778990767436 4.8934179529054856e-09 1.8440425392450775e-09 -0.00075027640125934262 5.6607420571282655e-08 3.2011869196710052e-08 -0.000750282576449196 5.7243456372447605e-08 3.4702788551355982e-08 -0.00050025573264682105 -5.0721136044743309e-08 5.2339010090858129e-09 -0.00075027703796391981 4.8934179529054856e-09 1.8440425392450775e-09 -0.00075027640125934262 5.2846910863537093e-09 3.397641671536577e-09 -0.00050024025274754305 -1.9840411601414138e-08 3.6185590964921887e-08 -0.00050023862220984297 -1.6531867343532541e-08 -5.5269525013683349e-08 -0.00075027594242896311 -5.0721136044743309e-08 5.2339010090858129e-09 -0.00075027703796391981 4.8934179529054856e-09 1.8440425392450775e-09 -0.00075027640125934262 5.2846910863537093e-09 3.397641671536603e-09 -0.00050024025274754305 -5.0721136044743309e-08 5.2339010090858129e-09 -0.00075027703796391981 -1.6531867343532541e-08 -5.5269525013683349e-08 -0.00075027594242896311 -1.7767082337222033e-08 -5.5699082247880295e-08 -0.00050024083700374951 5.2846910863537266e-09 3.3976416715366134e-09 -0.00050024025274754305 5.2846910863537093e-09 3.397641671536603e-09 -0.00050024025274754305 -1.6531867343532545e-08 -5.5269525013683343e-08 -0.00075027594242896311 2.1896623729260335e-08 -3.3945269603411072e-08 -0.00050023625603702149 4.8934179529054856e-09 1.8440425392450775e-09 -0.00075027640125934262 -1.9840411601414138e-08 3.6185590964921887e-08 -0.00050023862220984297 1.0879332673147105e-08 5.7044345152255223e-08 -0.00075027953838612005 -2.5386416215678113e-08 6.925740974876676e-08 -0.00050024065343358686 -1.9295948113568093e-08 3.6141544592859821e-08 -0.00075027660235657881 4.8934179529054856e-09 1.8440425392450775e-09 -0.00075027640125934262 -5.0721136044743309e-08 5.2339010090858129e-09 -0.00075027703796391981 -1.9295948113568093e-08 3.6141544592859821e-08 -0.00075027660235657881 -1.9840411601414138e-08 3.6185590964921887e-08 -0.00050023862220984297 4.8934179529054856e-09 1.8440425392450775e-09 -0.00075027640125934262 1.0879332673147095e-08 5.704434515225523e-08 -0.00075027953838612005 1.2958524787157096e-08 5.6981117402416426e-08 -0.00050024595673333868 -1.9840411601414174e-08 3.6185590964921887e-08 -0.00050023862220984307 1.0879332673147105e-08 5.7044345152255223e-08 -0.00075027953838612005 4.8934179529054856e-09 1.8440425392450775e-09 -0.00075027640125934262 -1.9295948113568093e-08 3.6141544592859821e-08 -0.00075027660235657881 -1.9840411601414138e-08 3.6185590964921887e-08 -0.00050023862220984297 -5.0721136044743309e-08 5.2339010090858129e-09 -0.00075027703796391981 -9.5744835648322351e-08 5.7468822276808481e-08 -0.00075027895345607532 -4.8847481193213991e-08 5.3221149819889282e-08 -0.00075027658629532405 -5.1285251412034779e-08 5.0050822470883951e-08 -0.00050023980822751452 -2.3151379973700701e-08 7.1600739771164841e-08 -0.00075027741573186141 -1.9295948113568093e-08 3.6141544592859821e-08 -0.00075027660235657881 -4.8847481193213991e-08 5.3221149819889282e-08 -0.00075027658629532405 -5.1285251412034779e-08 5.0050822470883951e-08 -0.00050023980822751452 -9.5744835648322365e-08 5.7468822276808474e-08 -0.00075027895345607532 -5.0721136044743309e-08 5.2339010090858129e-09 -0.00075027703796391981 -5.0936197914133925e-08 3.0296488786698019e-09 -0.0005002427671052975 -5.1285251412034779e-08 5.0050822470883951e-08 -0.00050023980822751452 -5.0721136044743309e-08 5.2339010090858129e-09 -0.00075027703796391981 -1.9295948113568093e-08 3.6141544592859821e-08 -0.00075027660235657881 -1.9840411601414138e-08 3.6185590964921887e-08 -0.00050023862220984297 -5.1285251412034779e-08 5.0050822470883951e-08 -0.00050023980822751452 -1.9295948113568093e-08 3.6141544592859821e-08 -0.00075027660235657881 -5.0721136044743309e-08 5.2339010090858129e-09 -0.00075027703796391981 -4.8847481193213991e-08 5.3221149819889282e-08 -0.00075027658629532405 -5.1285251412034779e-08 5.0050822470883951e-08 -0.00050023980822751452 -1.1167746200380276e-07 1.9373243851282114e-09 -0.0007502802669258783 -9.5744835648322365e-08 5.7468822276808474e-08 -0.00075027895345607532 -5.0721136044743309e-08 5.2339010090858129e-09 -0.00075027703796391981 -5.0936197914133925e-08 3.0296488786698019e-09 -0.0005002427671052975 -1.0132617969739205e-07 4.3164325712993216e-08 -0.00050024831347220654 -1.1167746200380276e-07 1.9373243851282114e-09 -0.0007502802669258783 -5.0936197914133925e-08 3.0296488786698019e-09 -0.0005002427671052975 -9.5744835648322365e-08 5.7468822276808474e-08 -0.00075027895345607532 -1.1160038236019589e-07 -1.0284684023508805e-10 -0.0010003129599951183 -9.6695411101466357e-08 5.5732469281369244e-08 -0.0010003127968578993 -5.0656063716591333e-08 5.2355801676826986e-09 -0.0010003121829150023 -5.0721136044743309e-08 5.2339010090858129e-09 -0.00075027703796391981 -9.5744835648322365e-08 5.7468822276808474e-08 -0.00075027895345607532 -5.0721136044743309e-08 5.2339010090858129e-09 -0.00075027703796391981 -4.8847481193213991e-08 5.3221149819889282e-08 -0.00075027658629532405 -9.6695411101466357e-08 5.5732469281369244e-08 -0.0010003127968578993 -9.5744835648322365e-08 5.7468822276808474e-08 -0.00075027895345607532 -1.1167746200380276e-07 1.9373243851282114e-09 -0.0007502802669258783 -5.0721136044743309e-08 5.2339010090858129e-09 -0.00075027703796391981 -1.1160038236019589e-07 -1.0284684023508805e-10 -0.0010003129599951183 -9.5744835648322365e-08 5.7468822276808474e-08 -0.00075027895345607532 -1.1160038236019589e-07 -1.0284684023508805e-10 -0.0010003129599951183 -5.0721136044743309e-08 5.2339010090858129e-09 -0.00075027703796391981 -9.6695411101466357e-08 5.5732469281369244e-08 -0.0010003127968578993 -2.4319186993156071e-08 7.1415626683541191e-08 -0.001000312862464591 -2.003615057591169e-08 3.5781778053493285e-08 -0.0010003125096480542 -4.9533560940668076e-08 5.2955724624612881e-08 -0.0010003122523989344 -4.8847481193213991e-08 5.3221149819889282e-08 -0.00075027658629532405 -5.0656063716591333e-08 5.2355801676826986e-09 -0.0010003121829150023 -9.6695411101466343e-08 5.573246928136925e-08 -0.0010003127968578993 -4.9533560940668076e-08 5.2955724624612881e-08 -0.0010003122523989344 -4.8847481193213991e-08 5.3221149819889282e-08 -0.00075027658629532405 -1.9295948113568093e-08 3.6141544592859821e-08 -0.00075027660235657881 -2.3151379973700701e-08 7.1600739771164841e-08 -0.00075027741573186152 -4.8847481193213991e-08 5.3221149819889282e-08 -0.00075027658629532405 -2.003615057591169e-08 3.5781778053493285e-08 -0.0010003125096480542 -2.003615057591169e-08 3.5781778053493285e-08 -0.0010003125096480542 -5.0656063716591333e-08 5.2355801676826986e-09 -0.0010003121829150023 -4.9533560940668076e-08 5.2955724624612881e-08 -0.0010003122523989344 -4.8847481193213991e-08 5.3221149819889282e-08 -0.00075027658629532405 -5.0721136044743309e-08 5.2339010090858129e-09 -0.00075027703796391981 -1.9295948113568093e-08 3.6141544592859821e-08 -0.00075027660235657881 -4.8847481193213991e-08 5.3221149819889282e-08 -0.00075027658629532405 -5.0656063716591333e-08 5.2355801676826986e-09 -0.0010003121829150023 -5.0656063716591333e-08 5.2355801676826986e-09 -0.0010003121829150023 -2.003615057591169e-08 3.5781778053493285e-08 -0.0010003125096480542 -1.9295948113568093e-08 3.6141544592859821e-08 -0.00075027660235657881 -4.8847481193213991e-08 5.3221149819889282e-08 -0.00075027658629532405 -9.6695411101466357e-08 5.5732469281369244e-08 -0.0010003127968578993 -5.0656063716591333e-08 5.2355801676826986e-09 -0.0010003121829150023 -5.0721136044743309e-08 5.2339010090858129e-09 -0.00075027703796391981 -4.8847481193213991e-08 5.3221149819889282e-08 -0.00075027658629532405 -5.0721136044743309e-08 5.2339010090858129e-09 -0.00075027703796391981 -1.6531867343532541e-08 -5.5269525013683349e-08 -0.00075027594242896311 4.8934179529054856e-09 1.8440425392450775e-09 -0.00075027640125934262 -5.0656063716591333e-08 5.2355801676826986e-09 -0.0010003121829150023 -5.0721136044743309e-08 5.2339010090858129e-09 -0.00075027703796391981 4.8934179529054856e-09 1.8440425392450775e-09 -0.00075027640125934262 -1.9295948113568093e-08 3.6141544592859821e-08 -0.00075027660235657881 -5.0656063716591333e-08 5.2355801676826986e-09 -0.0010003121829150023 -1.6531867343532541e-08 -5.5269525013683349e-08 -0.00075027594242896311 -5.0721136044743303e-08 5.2339010090858203e-09 -0.00075027703796391992 -6.6869673261052941e-08 -4.0020056342992964e-08 -0.00075027721497632736 -5.0656063716591327e-08 5.2355801676826986e-09 -0.0010003121829150023 -1.1167746200380276e-07 1.9373243851282114e-09 -0.0007502802669258783 -9.6577042857455938e-08 -5.5895281986802878e-08 -0.0010003115964807862 -6.6869673261052955e-08 -4.0020056342992971e-08 -0.00075027721497632736 -1.1160038236019589e-07 -1.0284684023508805e-10 -0.0010003129599951183 -1.1160038236019589e-07 -1.0284684023508805e-10 -0.0010003129599951183 -5.0656063716591333e-08 5.2355801676826986e-09 -0.0010003121829150023 -6.6134383409700044e-08 -4.0512149133456443e-08 -0.0010003117211385599 -6.6869673261052941e-08 -4.0020056342992964e-08 -0.00075027721497632736 -5.0721136044743309e-08 5.2339010090858129e-09 -0.00075027703796391981 -1.1167746200380276e-07 1.9373243851282114e-09 -0.0007502802669258783 -6.6869673261052941e-08 -4.0020056342992964e-08 -0.00075027721497632736 -1.1160038236019589e-07 -1.0284684023508805e-10 -0.0010003129599951183 -5.0721136044743309e-08 5.2339010090858129e-09 -0.00075027703796391981 -1.1160038236019589e-07 -1.0284684023508294e-10 -0.0010003129599951185 -6.6869673261052941e-08 -4.0020056342992964e-08 -0.00075027721497632736 -5.0656063716591333e-08 5.2355801676826986e-09 -0.0010003121829150023 -1.0916633378490418e-07 -1.3238966798271571e-08 -0.00050025404021855169 -9.7769179645463042e-08 -5.4078258485153644e-08 -0.00075027702942207257 -6.5685885123521335e-08 -4.3493823005673339e-08 -0.00050024550998187386 -1.1167746200380276e-07 1.9373243851282114e-09 -0.0007502802669258783 -5.0936197914133925e-08 3.0296488786698019e-09 -0.0005002427671052975 -1.1167746200380276e-07 1.9373243851282168e-09 -0.0007502802669258783 -6.5685885123521322e-08 -4.3493823005673333e-08 -0.00050024550998187386 -5.0721136044743309e-08 5.2339010090858129e-09 -0.00075027703796391981 -1.1167746200380276e-07 1.9373243851282114e-09 -0.0007502802669258783 -5.0721136044743309e-08 5.2339010090858129e-09 -0.00075027703796391981 -6.6869673261052941e-08 -4.0020056342992964e-08 -0.00075027721497632736 -6.5685885123521322e-08 -4.3493823005673333e-08 -0.00050024550998187386 -1.7767082337222e-08 -5.5699082247880275e-08 -0.00050024083700374962 -5.0721136044743309e-08 5.233901009085836e-09 -0.00075027703796391981 -6.5685885123521322e-08 -4.3493823005673333e-08 -0.00050024550998187386 -1.6531867343532541e-08 -5.5269525013683349e-08 -0.00075027594242896311 -5.0721136044743309e-08 5.2339010090858129e-09 -0.00075027703796391981 -1.6531867343532541e-08 -5.5269525013683349e-08 -0.00075027594242896311 -6.6869673261052941e-08 -4.0020056342992964e-08 -0.00075027721497632736 -6.5685885123521322e-08 -4.3493823005673333e-08 -0.00050024550998187386 -5.7170131312420513e-08 -9.580784415035745e-08 -0.00075027874210762454 -1.6531867343532541e-08 -5.5269525013683356e-08 -0.00075027594242896311 -1.7767082337222e-08 -5.5699082247880275e-08 -0.00050024083700374962 -6.5685885123521322e-08 -4.3493823005673333e-08 -0.00050024550998187386 -1.6531867343532541e-08 -5.5269525013683349e-08 -0.00075027594242896311 -5.7170131312420519e-08 -9.580784415035745e-08 -0.00075027874210762454 -6.6869673261052941e-08 -4.0020056342992957e-08 -0.00075027721497632725 -6.5685885123521322e-08 -4.3493823005673333e-08 -0.00050024550998187386 -5.7170131312420513e-08 -9.580784415035745e-08 -0.00075027874210762454 -9.7769179645463082e-08 -5.4078258485153684e-08 -0.00075027702942207246 -6.6869673261052941e-08 -4.0020056342992964e-08 -0.00075027721497632736 -6.5685885123521322e-08 -4.3493823005673333e-08 -0.00050024550998187386 -9.7769179645463082e-08 -5.4078258485153684e-08 -0.00075027702942207246 -1.1167746200380276e-07 1.9373243851282118e-09 -0.0007502802669258783 -6.6869673261052941e-08 -4.0020056342992964e-08 -0.00075027721497632736 -6.5685885123521322e-08 -4.3493823005673333e-08 -0.00050024550998187386 -8.7987077514641463e-08 -6.6310177692373026e-08 -0.00050024682621775045 -5.7170131312420506e-08 -9.5807844150357464e-08 -0.00075027874210762454 -6.5685885123521322e-08 -4.3493823005673333e-08 -0.00050024550998187386 -9.7769179645463082e-08 -5.4078258485153684e-08 -0.00075027702942207246 -9.7769179645463082e-08 -5.4078258485153684e-08 -0.00075027702942207246 -5.5762200724487381e-08 -9.6690174014823404e-08 -0.0010003120266235089 -6.6869673261052941e-08 -4.0020056342992964e-08 -0.00075027721497632736 -9.6577042857455977e-08 -5.5895281986802898e-08 -0.001000311596480786 -1.1167746200380276e-07 1.9373243851282114e-09 -0.0007502802669258783 -9.7769179645463082e-08 -5.4078258485153684e-08 -0.00075027702942207246 -6.6869673261052941e-08 -4.0020056342992964e-08 -0.00075027721497632736 -9.6577042857455977e-08 -5.5895281986802898e-08 -0.001000311596480786 -9.6577042857455977e-08 -5.5895281986802898e-08 -0.001000311596480786 -1.1160038236019589e-07 -1.028468402350873e-10 -0.0010003129599951183 -6.6134383409700044e-08 -4.0512149133456443e-08 -0.0010003117211385599 -6.6869673261052941e-08 -4.0020056342992964e-08 -0.00075027721497632736 -5.5762200724487388e-08 -9.6690174014823378e-08 -0.0010003120266235091 -9.6577042857455977e-08 -5.5895281986802898e-08 -0.001000311596480786 -6.6134383409700044e-08 -4.0512149133456443e-08 -0.0010003117211385599 -6.6869673261052941e-08 -4.0020056342992964e-08 -0.00075027721497632736 -1.5332156695398e-08 -5.5570782629946805e-08 -0.0010003114627722875 -5.5762200724487394e-08 -9.6690174014823378e-08 -0.0010003120266235091 -6.6134383409700044e-08 -4.0512149133456437e-08 -0.0010003117211385597 -6.6869673261052941e-08 -4.0020056342992964e-08 -0.00075027721497632736 -5.0656063716591333e-08 5.2355801676826986e-09 -0.0010003121829150023 -1.5332156695398e-08 -5.5570782629946805e-08 -0.0010003114627722875 -6.6134383409700044e-08 -4.0512149133456443e-08 -0.0010003117211385599 -6.6869673261052941e-08 -4.0020056342992964e-08 -0.00075027721497632736 -5.5762200724487388e-08 -9.6690174014823378e-08 -0.0010003120266235091 -1.5332156695398e-08 -5.5570782629946812e-08 -0.0010003114627722878 -1.6531867343532541e-08 -5.5269525013683349e-08 -0.00075027594242896311 -6.6869673261052941e-08 -4.0020056342992964e-08 -0.00075027721497632736 -1.6531867343532541e-08 -5.5269525013683349e-08 -0.00075027594242896311 -5.0656063716591333e-08 5.2355801676827201e-09 -0.0010003121829150023 -6.6869673261052941e-08 -4.0020056342992964e-08 -0.00075027721497632736 -1.5332156695398e-08 -5.5570782629946805e-08 -0.0010003114627722875 -5.7170131312420513e-08 -9.580784415035745e-08 -0.00075027874210762454 -1.6531867343532541e-08 -5.5269525013683349e-08 -0.00075027594242896311 -6.6869673261052941e-08 -4.0020056342992964e-08 -0.00075027721497632736 -5.5762200724487388e-08 -9.6690174014823378e-08 -0.0010003120266235091 -9.7769179645463082e-08 -5.4078258485153684e-08 -0.00075027702942207246 -5.7170131312420513e-08 -9.580784415035745e-08 -0.00075027874210762454 -6.6869673261052941e-08 -4.0020056342992964e-08 -0.00075027721497632736 -5.5762200724487388e-08 -9.6690174014823378e-08 -0.0010003120266235091 -5.7170131312420513e-08 -9.580784415035745e-08 -0.00075027874210762454 8.6511314546687922e-11 -1.1160520446677413e-07 -0.0010003110862005101 -1.6531867343532541e-08 -5.5269525013683349e-08 -0.00075027594242896311 -5.5762200724487388e-08 -9.6690174014823378e-08 -0.0010003120266235091 -4.4958730802290727e-08 -1.0091876310881225e-07 -0.00050025161271369982 -1.9359213912302333e-09 -1.1165147847182357e-07 -0.00075027557098400564 -1.7767082337222e-08 -5.5699082247880275e-08 -0.00050024083700374962 -5.7170131312420513e-08 -9.580784415035745e-08 -0.00075027874210762454 -1.7767082337222e-08 -5.5699082247880275e-08 -0.00050024083700374962 -1.935921391230254e-09 -1.1165147847182359e-07 -0.00075027557098400564 2.1585867124284085e-08 -7.3840220243886655e-08 -0.00050023715947510375 -1.6531867343532541e-08 -5.5269525013683349e-08 -0.00075027594242896311 -1.9359213912302428e-09 -1.1165147847182357e-07 -0.00075027557098400553 -5.7170131312420513e-08 -9.5807844150357437e-08 -0.00075027874210762454 -1.6531867343532541e-08 -5.5269525013683349e-08 -0.00075027594242896311 -1.7767082337221997e-08 -5.5699082247880275e-08 -0.00050024083700374951 -1.9359213912302428e-09 -1.1165147847182357e-07 -0.00075027557098400553 -1.6531867343532541e-08 -5.5269525013683349e-08 -0.00075027594242896311 1.9438015019120402e-08 -7.5938936899935206e-08 -0.00075027510874081757 2.1585867124284082e-08 -7.3840220243886668e-08 -0.00050023715947510375 2.1896623729260335e-08 -3.3945269603411072e-08 -0.00050023625603702149 -1.6531867343532518e-08 -5.5269525013683343e-08 -0.00075027594242896311 2.1585867124284085e-08 -7.3840220243886668e-08 -0.00050023715947510375 1.9438015019120402e-08 -7.5938936899935206e-08 -0.00075027510874081757 -1.6531867343532541e-08 -5.5269525013683349e-08 -0.00075027594242896311 4.8934179529054856e-09 1.8440425392450775e-09 -0.00075027640125934262 2.097866957519865e-08 -3.631491656007914e-08 -0.00075027540401592565 2.1896623729260335e-08 -3.3945269603411072e-08 -0.00050023625603702149 -1.6531867343532541e-08 -5.5269525013683349e-08 -0.00075027594242896311 2.097866957519865e-08 -3.631491656007914e-08 -0.00075027540401592565 1.9438015019120402e-08 -7.5938936899935206e-08 -0.00075027510874081757 2.1896623729260335e-08 -3.3945269603411072e-08 -0.00050023625603702149 2.097866957519865e-08 -3.631491656007914e-08 -0.00075027540401592565 5.367857750933915e-08 -1.9711874958898101e-08 -0.00075027778990767436 4.9149322309109602e-08 -5.6871079927880186e-08 -0.00075027559069658595 5.1803901583393827e-08 -5.3004591313856798e-08 -0.00050023749207254726 5.3678577509339144e-08 -1.9711874958898098e-08 -0.00075027778990767436 2.0978669575198653e-08 -3.631491656007914e-08 -0.00075027540401592554 2.1896623729260335e-08 -3.3945269603411072e-08 -0.00050023625603702149 5.1803901583393827e-08 -5.3004591313856798e-08 -0.00050023749207254726 1.9438015019120402e-08 -7.5938936899935206e-08 -0.00075027510874081757 2.097866957519865e-08 -3.631491656007914e-08 -0.00075027540401592565 4.9149322309109602e-08 -5.6871079927880186e-08 -0.00075027559069658595 5.1803901583393827e-08 -5.3004591313856798e-08 -0.00050023749207254726 2.1896623729260335e-08 -3.3945269603411072e-08 -0.00050023625603702149 1.9438015019120402e-08 -7.5938936899935206e-08 -0.00075027510874081757 5.1803901583393827e-08 -5.3004591313856798e-08 -0.00050023749207254726 2.097866957519865e-08 -3.631491656007914e-08 -0.00075027540401592565 1.3426780549622435e-08 -1.0928201407951815e-07 -0.00050024200001112676 5.4071423932316182e-08 -9.771340770311664e-08 -0.0007502751787797575 2.1585867124284082e-08 -7.3840220243886668e-08 -0.00050023715947510375 -1.9359213912302428e-09 -1.1165147847182357e-07 -0.00075027557098400553 5.4071423932316169e-08 -9.771340770311664e-08 -0.00075027517877975739 -1.9359213912302457e-09 -1.1165147847182357e-07 -0.00075027557098400553 1.9438015019120402e-08 -7.5938936899935206e-08 -0.00075027510874081757 2.1585867124284082e-08 -7.3840220243886668e-08 -0.00050023715947510375 5.4071423932316169e-08 -9.771340770311664e-08 -0.00075027517877975739 1.9438015019120402e-08 -7.5938936899935206e-08 -0.00075027510874081757 4.9149322309109602e-08 -5.6871079927880186e-08 -0.00075027559069658595 5.1803901583393827e-08 -5.3004591313856798e-08 -0.00050023749207254726 2.1585867124284082e-08 -7.3840220243886668e-08 -0.00050023715947510375 5.4071423932316169e-08 -9.771340770311664e-08 -0.00075027517877975739 5.1803901583393827e-08 -5.3004591313856798e-08 -0.00050023749207254726 1.9438015019120402e-08 -7.5938936899935206e-08 -0.00075027510874081757 5.5901298189801576e-08 -9.6592706612869818e-08 -0.0010003114005871332 8.651131454667196e-11 -1.1160520446677413e-07 -0.0010003110862005099 2.0266107522150643e-08 -7.6078457108643667e-08 -0.0010003112351111623 1.9438015019120402e-08 -7.5938936899935206e-08 -0.00075027510874081757 1.9438015019120402e-08 -7.5938936899935206e-08 -0.00075027510874081757 5.4071423932316163e-08 -9.7713407703116653e-08 -0.00075027517877975739 4.9149322309109602e-08 -5.6871079927880186e-08 -0.00075027559069658595 5.5901298189801576e-08 -9.6592706612869818e-08 -0.0010003114005871332 1.9438015019120402e-08 -7.5938936899935206e-08 -0.00075027510874081757 5.5901298189801576e-08 -9.6592706612869818e-08 -0.0010003114005871332 4.9149322309109602e-08 -5.6871079927880186e-08 -0.00075027559069658605 2.0266107522150643e-08 -7.6078457108643667e-08 -0.0010003112351111623 5.5901298189801576e-08 -9.6592706612869818e-08 -0.0010003114005871332 2.0266107522150643e-08 -7.6078457108643667e-08 -0.0010003112351111623 4.9585571285864028e-08 -5.7069333765893243e-08 -0.0010003117715303245 4.9149322309109602e-08 -5.6871079927880186e-08 -0.00075027559069658595 -1.9359213912302428e-09 -1.1165147847182357e-07 -0.00075027557098400553 5.4071423932316176e-08 -9.771340770311664e-08 -0.00075027517877975739 1.9438015019120402e-08 -7.5938936899935206e-08 -0.00075027510874081757 5.5901298189801576e-08 -9.6592706612869818e-08 -0.0010003114005871332 -1.9359213912302428e-09 -1.1165147847182357e-07 -0.00075027557098400553 5.5901298189801589e-08 -9.6592706612869818e-08 -0.0010003114005871332 1.9438015019120402e-08 -7.5938936899935206e-08 -0.00075027510874081757 8.6511314546675217e-11 -1.1160520446677413e-07 -0.0010003110862005101 2.097866957519865e-08 -3.631491656007914e-08 -0.00075027540401592565 2.0266107522150643e-08 -7.6078457108643667e-08 -0.0010003112351111623 4.9149322309109602e-08 -5.6871079927880186e-08 -0.00075027559069658595 2.1351511983846911e-08 -3.6563403174537565e-08 -0.0010003117577150971 5.3614676963151572e-08 -2.0508976549598169e-08 -0.0010003131369850534 2.1351511983846914e-08 -3.6563403174537565e-08 -0.0010003117577150973 2.097866957519865e-08 -3.631491656007914e-08 -0.00075027540401592565 4.9149322309109602e-08 -5.6871079927880186e-08 -0.00075027559069658595 5.3678577509339144e-08 -1.9711874958898098e-08 -0.00075027778990767436 2.097866957519865e-08 -3.6314916560079146e-08 -0.00075027540401592565 4.9149322309109602e-08 -5.6871079927880186e-08 -0.00075027559069658595 5.3614676963151572e-08 -2.0508976549598169e-08 -0.0010003131369850534 2.1351511983846911e-08 -3.6563403174537565e-08 -0.0010003117577150971 5.3614676963151579e-08 -2.0508976549598172e-08 -0.0010003131369850534 4.9585571285864028e-08 -5.7069333765893243e-08 -0.0010003117715303245 4.9149322309109602e-08 -5.6871079927880186e-08 -0.00075027559069658595 2.0266107522150643e-08 -7.6078457108643667e-08 -0.0010003112351111623 2.1351511983846911e-08 -3.6563403174537565e-08 -0.0010003117577150971 4.9585571285864028e-08 -5.7069333765893243e-08 -0.0010003117715303245 4.9149322309109602e-08 -5.6871079927880186e-08 -0.00075027559069658595 2.097866957519865e-08 -3.631491656007914e-08 -0.00075027540401592565 1.9438015019120402e-08 -7.5938936899935206e-08 -0.00075027510874081757 4.9149322309109602e-08 -5.6871079927880186e-08 -0.00075027559069658595 2.0266107522150643e-08 -7.6078457108643667e-08 -0.0010003112351111623 -1.5332156695398e-08 -5.5570782629946805e-08 -0.0010003114627722875 4.8047539474340816e-09 1.3835272849319244e-09 -0.0010003122385683486 2.1351511983846911e-08 -3.6563403174537565e-08 -0.0010003117577150971 2.097866957519865e-08 -3.631491656007914e-08 -0.00075027540401592565 4.8934179529054856e-09 1.8440425392450775e-09 -0.00075027640125934262 -1.6531867343532541e-08 -5.5269525013683349e-08 -0.00075027594242896311 2.097866957519865e-08 -3.631491656007914e-08 -0.00075027540401592565 -1.5332156695398e-08 -5.5570782629946805e-08 -0.0010003114627722875 -1.5332156695398e-08 -5.5570782629946805e-08 -0.0010003114627722875 2.1351511983846911e-08 -3.6563403174537565e-08 -0.0010003117577150971 2.0266107522150643e-08 -7.6078457108643667e-08 -0.0010003112351111623 2.097866957519865e-08 -3.631491656007914e-08 -0.00075027540401592565 2.097866957519865e-08 -3.631491656007914e-08 -0.00075027540401592565 -1.6531867343532541e-08 -5.5269525013683349e-08 -0.00075027594242896311 1.9438015019120402e-08 -7.5938936899935206e-08 -0.00075027510874081757 -1.5332156695398e-08 -5.5570782629946805e-08 -0.0010003114627722875 2.097866957519865e-08 -3.631491656007914e-08 -0.00075027540401592565 -1.5332156695397974e-08 -5.5570782629946799e-08 -0.0010003114627722878 1.9438015019120405e-08 -7.5938936899935206e-08 -0.00075027510874081747 2.0266107522150643e-08 -7.6078457108643667e-08 -0.0010003112351111623 8.6511314546675217e-11 -1.1160520446677413e-07 -0.0010003110862005101 -1.5332156695398e-08 -5.5570782629946805e-08 -0.0010003114627722875 2.0266107522150643e-08 -7.6078457108643667e-08 -0.0010003112351111623 1.9438015019120402e-08 -7.5938936899935206e-08 -0.00075027510874081757 -1.6531867343532541e-08 -5.5269525013683349e-08 -0.00075027594242896311 -1.9359213912302428e-09 -1.1165147847182357e-07 -0.00075027557098400553 1.9438015019120402e-08 -7.5938936899935206e-08 -0.00075027510874081757 8.6511314546675747e-11 -1.1160520446677413e-07 -0.0010003110862005101 -1.6531867343532541e-08 -5.5269525013683349e-08 -0.00075027594242896311 8.6511314546666325e-11 -1.1160520446677415e-07 -0.0010003110862005101 1.9438015019120402e-08 -7.5938936899935193e-08 -0.00075027510874081757 -1.5332156695398e-08 -5.5570782629946805e-08 -0.0010003114627722875 -5.7170131312420513e-08 -9.580784415035745e-08 -0.00075027874210762454 -1.9359213912302395e-09 -1.1165147847182356e-07 -0.00075027557098400553 -1.6531867343532541e-08 -5.5269525013683349e-08 -0.00075027594242896311 8.6511314546675747e-11 -1.1160520446677413e-07 -0.0010003110862005101 8.6511314546675217e-11 -1.1160520446677413e-07 -0.0010003110862005101 -5.5762200724487388e-08 -9.6690174014823365e-08 -0.0010003120266235091 -1.5332156695398e-08 -5.5570782629946805e-08 -0.0010003114627722875 -1.6531867343532538e-08 -5.5269525013683349e-08 -0.00075027594242896311 -1.5332156695398e-08 -5.5570782629946805e-08 -0.0010003114627722875 8.6511314546675217e-11 -1.1160520446677413e-07 -0.0010003110862005101 2.0266107522150643e-08 -7.6078457108643667e-08 -0.0010003112351111623 4.4996455443778904e-11 -1.1151411010602782e-07 -0.0012503508623696986 -5.5762200724487388e-08 -9.6690174014823378e-08 -0.0010003120266235091 8.6511314546678086e-11 -1.1160520446677411e-07 -0.0010003110862005101 -1.5332156695398e-08 -5.5570782629946805e-08 -0.0010003114627722875 4.4996455443778904e-11 -1.1151411010602782e-07 -0.0012503508623696986 2.1351511983846911e-08 -3.6563403174537565e-08 -0.0010003117577150971 -1.5332156695398e-08 -5.5570782629946805e-08 -0.0010003114627722875 2.0266107522150643e-08 -7.6078457108643667e-08 -0.0010003112351111623 -1.4902564249429079e-08 -5.5343480804778042e-08 -0.0012503519028022707 4.8047539474340816e-09 1.3835272849319244e-09 -0.0010003122385683486 -1.5332156695398e-08 -5.5570782629946805e-08 -0.0010003114627722875 2.1351511983846911e-08 -3.6563403174537565e-08 -0.0010003117577150971 -1.4902564249429079e-08 -5.5343480804778042e-08 -0.0012503519028022707 5.3614676963151572e-08 -2.0508976549598169e-08 -0.0010003131369850534 2.1351511983846911e-08 -3.6563403174537572e-08 -0.0010003117577150971 4.9585571285864028e-08 -5.7069333765893243e-08 -0.0010003117715303245 5.3688387103345641e-08 -2.034183872812165e-08 -0.0012503533209120034 2.1351511983846911e-08 -3.6563403174537565e-08 -0.0010003117577150971 2.0266107522150643e-08 -7.6078457108643667e-08 -0.0010003112351111623 4.9585571285864028e-08 -5.7069333765893243e-08 -0.0010003117715303245 2.0518452097259914e-08 -7.5806587004469392e-08 -0.0012503520670656694 2.0266107522150643e-08 -7.6078457108643667e-08 -0.0010003112351111623 5.5901298189801569e-08 -9.6592706612869818e-08 -0.0010003114005871332 4.9585571285864028e-08 -5.7069333765893243e-08 -0.0010003117715303245 5.5799262952321869e-08 -9.6554547137573494e-08 -0.0012503516197912793 8.6511314546675217e-11 -1.1160520446677413e-07 -0.0010003110862005101 5.5901298189801582e-08 -9.6592706612869818e-08 -0.0010003114005871332 2.0266107522150643e-08 -7.6078457108643667e-08 -0.0010003112351111623 5.5799262952321869e-08 -9.6554547137573494e-08 -0.0012503516197912793 5.5799262952321869e-08 -9.6554547137573494e-08 -0.0012503516197912793 2.0518452097259914e-08 -7.5806587004469392e-08 -0.0012503520670656694 4.9644637811411909e-08 -5.6792350404381009e-08 -0.0012503531530595588 4.9585571285864028e-08 -5.7069333765893243e-08 -0.0010003117715303245 2.0266107522150643e-08 -7.6078457108643667e-08 -0.0010003112351111623 5.5799262952321869e-08 -9.6554547137573494e-08 -0.0012503516197912793 4.9585571285864028e-08 -5.7069333765893243e-08 -0.0010003117715303245 2.0518452097259914e-08 -7.5806587004469392e-08 -0.0012503520670656694 5.5799262952321869e-08 -9.6554547137573494e-08 -0.0012503516197912793 4.4996455443775751e-11 -1.1151411010602782e-07 -0.0012503508623696986 2.0518452097259914e-08 -7.5806587004469392e-08 -0.0012503520670656694 2.0266107522150643e-08 -7.6078457108643667e-08 -0.0010003112351111623 8.6511314546675217e-11 -1.1160520446677413e-07 -0.0010003110862005101 5.5799262952321882e-08 -9.6554547137573494e-08 -0.0012503516197912793 2.0266107522150643e-08 -7.6078457108643667e-08 -0.0010003112351111623 4.4996455443778917e-11 -1.1151411010602782e-07 -0.0012503508623696986 2.0518452097259914e-08 -7.5806587004469392e-08 -0.0012503520670656694 2.1599132101835191e-08 -3.6340718148733589e-08 -0.0012503529312545732 4.9644637811411909e-08 -5.6792350404381009e-08 -0.0012503531530595588 4.9585571285864028e-08 -5.7069333765893243e-08 -0.0010003117715303245 2.1351511983846911e-08 -3.6563403174537565e-08 -0.0010003117577150971 2.0518452097259914e-08 -7.5806587004469392e-08 -0.0012503520670656694 4.9585571285864028e-08 -5.7069333765893243e-08 -0.0010003117715303245 2.1599132101835191e-08 -3.6340718148733589e-08 -0.0012503529312545732 2.1599132101835191e-08 -3.6340718148733589e-08 -0.0012503529312545732 5.3688387103345648e-08 -2.0341838728121654e-08 -0.0012503533209120034 4.9644637811411909e-08 -5.6792350404381009e-08 -0.0012503531530595588 4.9585571285864028e-08 -5.7069333765893243e-08 -0.0010003117715303245 5.3688387103345641e-08 -2.034183872812165e-08 -0.0012503533209120034 2.1599132101835194e-08 -3.6340718148733589e-08 -0.0012503529312545732 2.1351511983846911e-08 -3.6563403174537565e-08 -0.0010003117577150971 4.9585571285864028e-08 -5.7069333765893243e-08 -0.0010003117715303245 2.1351511983846911e-08 -3.6563403174537565e-08 -0.0010003117577150971 -1.4902564249429056e-08 -5.5343480804778036e-08 -0.0012503519028022707 2.0266107522150647e-08 -7.6078457108643667e-08 -0.0010003112351111623 2.0518452097259914e-08 -7.5806587004469392e-08 -0.0012503520670656694 -1.4902564249429079e-08 -5.5343480804778042e-08 -0.0012503519028022707 2.1599132101835191e-08 -3.6340718148733589e-08 -0.0012503529312545732 2.0518452097259914e-08 -7.5806587004469392e-08 -0.0012503520670656694 2.1351511983846911e-08 -3.6563403174537565e-08 -0.0010003117577150971 -1.4902564249429079e-08 -5.5343480804778042e-08 -0.0012503519028022707 5.0098381890503625e-09 1.5370437072605406e-09 -0.0012503527522594229 2.1599132101835191e-08 -3.6340718148733589e-08 -0.0012503529312545732 2.1351511983846911e-08 -3.6563403174537565e-08 -0.0010003117577150971 4.4996455443778917e-11 -1.1151411010602782e-07 -0.0012503508623696986 -5.5717698873256915e-08 -9.6599796835512074e-08 -0.0012503512655949436 -1.4902564249429079e-08 -5.5343480804778042e-08 -0.0012503519028022707 -1.5332156695397997e-08 -5.5570782629946805e-08 -0.0010003114627722875 -1.5332156695398e-08 -5.5570782629946805e-08 -0.0010003114627722875 4.4996455443769973e-11 -1.1151411010602784e-07 -0.0012503508623696988 2.0266107522150643e-08 -7.6078457108643653e-08 -0.0010003112351111623 -1.4902564249429079e-08 -5.5343480804778042e-08 -0.0012503519028022707 4.4996455443778917e-11 -1.1151411010602782e-07 -0.0012503508623696986 -1.4902564249429079e-08 -5.5343480804778042e-08 -0.0012503519028022707 2.0518452097259914e-08 -7.5806587004469392e-08 -0.0012503520670656694 2.0266107522150643e-08 -7.6078457108643667e-08 -0.0010003112351111623 -5.5762200724487388e-08 -9.6690174014823378e-08 -0.0010003120266235091 4.4996455443791312e-11 -1.1151411010602782e-07 -0.0012503508623696986 -1.5332156695398e-08 -5.5570782629946805e-08 -0.0010003114627722875 -5.5717698873256915e-08 -9.6599796835512087e-08 -0.0012503512655949436 -5.5762200724487388e-08 -9.6690174014823378e-08 -0.0010003120266235091 -1.5332156695398e-08 -5.5570782629946805e-08 -0.0010003114627722875 -6.6134383409700044e-08 -4.0512149133456443e-08 -0.0010003117211385599 -5.5717698873256915e-08 -9.6599796835512087e-08 -0.0012503512655949436 -9.6577042857455977e-08 -5.5895281986802898e-08 -0.001000311596480786 -5.5762200724487388e-08 -9.6690174014823378e-08 -0.0010003120266235091 -6.6134383409700044e-08 -4.0512149133456443e-08 -0.0010003117211385599 -5.5717698873256915e-08 -9.6599796835512087e-08 -0.0012503512655949436 -5.5717698873256915e-08 -9.6599796835512087e-08 -0.0012503512655949436 -1.4902564249429079e-08 -5.5343480804778049e-08 -0.0012503519028022709 -1.5332156695398e-08 -5.5570782629946805e-08 -0.0010003114627722875 -6.6134383409700044e-08 -4.0512149133456443e-08 -0.0010003117211385599 -1.4902564249429079e-08 -5.5343480804778042e-08 -0.0012503519028022707 -5.5717698873256921e-08 -9.6599796835512087e-08 -0.0012503512655949436 -6.5832361222113032e-08 -4.0335879898448326e-08 -0.0012503528796711703 -6.6134383409700044e-08 -4.0512149133456443e-08 -0.0010003117211385599 -1.5332156695398e-08 -5.5570782629946805e-08 -0.0010003114627722875 -5.0392660028758698e-08 5.4666588904665845e-09 -0.0012503522555901629 -6.6134383409700044e-08 -4.0512149133456443e-08 -0.0010003117211385599 -1.4902564249429079e-08 -5.5343480804778042e-08 -0.0012503519028022707 -5.0392660028758698e-08 5.466658890466563e-09 -0.0012503522555901629 -1.4902564249429079e-08 -5.5343480804778042e-08 -0.0012503519028022707 -6.5832361222113032e-08 -4.0335879898448333e-08 -0.0012503528796711705 -6.6134383409700044e-08 -4.0512149133456443e-08 -0.0010003117211385599 -9.6569000923380496e-08 -5.5783723655588671e-08 -0.0012503514950724735 -1.1151476759107054e-07 -1.6207321998161462e-11 -0.0012503518846035163 -6.5832361222113032e-08 -4.0335879898448333e-08 -0.0012503528796711705 -6.6134383409700044e-08 -4.0512149133456443e-08 -0.0010003117211385599 -5.5717698873256915e-08 -9.6599796835512087e-08 -0.0012503512655949436 -9.6569000923380496e-08 -5.5783723655588671e-08 -0.0012503514950724735 -6.5832361222113032e-08 -4.0335879898448333e-08 -0.0012503528796711705 -6.6134383409700044e-08 -4.0512149133456443e-08 -0.0010003117211385599 -9.6577042857455977e-08 -5.5895281986802898e-08 -0.001000311596480786 -5.5717698873256908e-08 -9.6599796835512114e-08 -0.0012503512655949434 -6.6134383409700044e-08 -4.0512149133456443e-08 -0.0010003117211385599 -9.6569000923380496e-08 -5.5783723655588671e-08 -0.0012503514950724735 -1.1160038236019589e-07 -1.0284684023508805e-10 -0.0010003129599951183 -9.6577042857455977e-08 -5.5895281986802898e-08 -0.001000311596480786 -6.6134383409700044e-08 -4.0512149133456443e-08 -0.0010003117211385599 -9.6569000923380496e-08 -5.5783723655588671e-08 -0.0012503514950724735 
</DataArray>
</PointData>
<CellData Scalars="" Vectors="" Tensors="stress,">
<DataArray type="Float64" Name="stress" NumberOfComponents="9" format="ascii">
-3329.1258876466336 -0.1590906015623037 -1.2973425222480728 -0.1590906015623037 -3329.6552177094704 -0.7962415424979099 -1.2973425222480728 -0.7962415424979099 -9999.0517678243759 -3329.2604765814544 -0.077220417775408945 -1.5427210017278412 -0.077220417775408945 -3329.8321865922635 -0.29938174463313771 -1.5427210017278412 -0.29938174463313771 -9999.1296572787796 -3327.5282109044024 1.5865411637089331 -2.7501719298152238 1.5865411637089331 -3327.1120926850012 -1.1685559335360267 -2.7501719298152238 -1.1685559335360267 -10000.769925812567 -3327.9978331219086 1.6883310490764587 -2.1791713144306772 1.6883310490764587 -3330.4372220877081 -2.3247585921567282 -2.1791713144306772 -2.3247585921567282 -10001.71861371762 -3334.057319357672 -0.35682176930059295 -1.0815351771298083 -0.35682176930059295 -3330.5682426747344 -1.1840898703230778 -1.0815351771298083 -1.1840898703230778 -9999.1336396713996 -3332.716950222466 1.4998335801041389 -0.72003329775017999 1.4998335801041389 -3331.266417775078 0.031905354308418676 -0.72003329775017999 0.031905354308418676 -9998.9730911626848 -3330.354699054024 0.047927535724902992 -1.1546302719980304 0.047927535724902992 -3330.4631708356501 -0.36267956770143428 -1.1546302719980304 -0.36267956770143428 -9999.5609589577689 -3330.0724085987413 0.22860858487262387 -1.1126440373564037 0.22860858487262387 -3329.9294532778581 -0.22144915166154533 -1.1126440373564037 -0.22144915166154533 -9999.3569569544998 -3329.6542098347586 -0.4851943141409063 -0.60070826830451551 -0.4851943141409063 -3328.0651287037044 -0.51469924343973616 -0.60070826830451551 -0.51469924343973616 -9997.7287336730715 -3333.0487459264637 0.96187652016201086 -1.2826774312378886 0.96187652016201086 -3330.4588759474204 0.16726992010394914 -1.2826774312378886 0.16726992010394914 -9999.1758045069255 -3326.8810328807908 2.0303742008009911 -3.5401924435591265 2.0303742008009911 -3328.0629530646274 -0.24180569462725776 -3.5401924435591265 -0.24180569462725776 -9997.0348955248101 -3331.1868057263077 0.19322443358566893 0.0058099863809261132 0.19322443358566893 -3329.9888379090089 -1.3278474194848431 0.0058099863809261132 -1.3278474194848431 -9999.5210975788432 -3332.8892095254469 0.69275698048066281 2.3645848453764717 0.69275698048066281 -3330.0793124233405 -0.69581559626297218 2.3645848453764717 -0.69581559626297218 -9999.9693171572108 -3331.5193482646173 1.1949860465356135 3.0335832377868428 1.1949860465356135 -3328.6693066425091 0.17775145477480692 3.0335832377868428 0.17775145477480692 -9998.0244128900795 -3332.5912272657329 -0.48947485484362219 3.4766845593217477 -0.48947485484362219 -3332.8798466433072 -1.7513850853866333 3.4766845593217477 -1.7513850853866333 -9999.3450176405586 -3333.5280346589311 0.035270420008282344 2.7401264597071133 0.035270420008282344 -3334.8533475418708 -0.33053059631845372 2.7401264597071133 -0.33053059631845372 -10000.072594713498 -3332.0263124709404 -0.94354852737308503 0.79426785868326988 -0.94354852737308503 -3335.1669987565683 -0.7882396122982982 0.79426785868326988 -0.7882396122982982 -10003.044346677905 -3333.6247319580839 1.9423080914758812 -0.49803544339955641 1.9423080914758812 -3334.8256275268436 -0.12124547196511504 -0.49803544339955641 -0.12124547196511504 -10004.032484045589 -3335.4130786839655 0.55486185750273131 -1.1830273610855027 0.55486185750273131 -3334.7584799819233 -2.1335509104912251 -1.1830273610855027 -2.1335509104912251 -10001.490581434042 -3334.7265154088973 1.7138394868042988 -0.6405801701330347 1.7138394868042988 -3332.3184604662683 -0.3187198522973631 -0.6405801701330347 -0.3187198522973631 -10003.681138143145 -3336.2968766626627 0.47300843108310098 -0.40595553841633203 0.47300843108310098 -3336.6735653540422 -0.76124805105948878 -0.40595553841633203 -0.76124805105948878 -10004.488629375206 -3331.9688991697108 -1.7928228723725941 -0.67883802681176197 -1.7928228723725941 -3330.3810368110976 -0.3987746599314046 -0.67883802681176197 -0.3987746599314046 -10000.905147581507 -3327.2432458367734 -1.7845741266957735 -1.2304846529114002 -1.7845741266957735 -3325.7884490786887 1.3797987460561671 -1.2304846529114002 1.3797987460561671 -9997.4851103988785 -3330.5377508991737 -0.96654903447547269 0.01902202731287661 -0.96654903447547269 -3327.6415008668464 0.80995442100137138 0.01902202731287661 0.80995442100137138 -9999.8624765278091 -3332.9302840502337 -1.4612494943327763 -0.18062005221190702 -1.4612494943327763 -3331.5109382442724 -1.1084162264096449 -0.18062005221190702 -1.1084162264096449 -10002.356324444656 -3330.1936667190985 0.11873726775965832 0.010543525255116037 0.11873726775965832 -3329.3934053935918 -0.77731119477357424 0.010543525255116037 -0.77731119477357424 -10001.142786899201 -3330.3492518247544 0.048723940104897334 0.43993712092878923 0.048723940104897334 -3329.4046006366175 -0.91948921264520322 0.43993712092878923 -0.91948921264520322 -10001.270278152459 -3330.4950540128511 0.2185179932601824 0.29536229207042197 0.2185179932601824 -3330.2899412879001 -1.2215687523603265 0.29536229207042197 -1.2215687523603265 -10001.528063862303 -3330.4923166305134 0.18358001017456704 0.47472589922290354 0.18358001017456704 -3330.6602525534076 -0.97308732489213412 0.47472589922290354 -0.97308732489213412 -10001.619957333096 -3330.5174519993807 0.083217304860773167 0.62423637850361047 0.083217304860773167 -3330.8195268033724 -0.34716403478068969 0.62423637850361047 -0.34716403478068969 -10002.254138875043 -3330.490563190765 0.058581937055838695 0.7358522516751691 0.058581937055838695 -3330.9677390997695 -0.56247619349687739 0.7358522516751691 -0.56247619349687739 -10002.284469746988 -3329.79375867409 0.34541700590842872 0.60306891940672358 0.34541700590842872 -3329.7860262170079 -1.1194058905430211 0.60306891940672358 -1.1194058905430211 -10001.140965093804 -3329.3762388611376 0.076511836899355978 -0.041825977231837896 0.076511836899355978 -3328.9138421653538 -0.64630196681810048 -0.041825977231837896 -0.64630196681810048 -9997.5497694199203 -3329.0847227847721 0.34541700590842828 1.4776693252442783 0.34541700590842828 -3329.0769903276901 0.46268271634880875 1.4776693252442783 0.46268271634880875 -9999.0138574258508 -3330.6563591151062 -0.23168420053180583 0.47842899291390495 -0.23168420053180583 -3330.5862496352092 0.18882121823071429 0.47842899291390495 0.18882121823071429 -10000.379634619218 -3330.9595598808246 -0.71675181621006046 0.87585323351140687 -0.71675181621006046 -3330.8738959848647 0.10944675055907283 0.87585323351140687 0.10944675055907283 -10000.019559946837 -3330.3524210407904 -0.16470978878386683 0.46959716727315026 -0.16470978878386683 -3330.3070908084856 0.00059076489196741022 0.46959716727315026 0.00059076489196741022 -9999.7260739427329 -3329.9747108549122 0.076511836899356339 1.3300716137009658 0.076511836899356339 -3329.5123141591284 0.42313402844683878 1.3300716137009658 0.42313402844683878 -9999.3451854012455 -3329.5470839131895 0.058581937055838251 0.94515007959307695 0.058581937055838251 -3330.0242598221939 -0.1791641134409474 0.94515007959307695 -0.1791641134409474 -9999.4540319142616 -3329.463799743196 0.45684027581172382 0.51139872238672979 0.45684027581172382 -3329.9972837609735 0.24592646497160331 0.51139872238672979 0.24592646497160331 -9999.9342533076797 -3330.2935890178369 0.097769894389125644 0.25801865827270376 0.097769894389125644 -3330.3889606089342 0.081156757340067998 0.25801865827270376 0.081156757340067998 -10000.373559462818 -3329.5739727218047 0.083217304860772945 0.83353420642060883 0.083217304860772945 -3329.8760475257964 0.03614804527387605 0.83353420642060883 0.03614804527387605 -9999.4237010423149 -3330.2210507187092 0.05057325137645774 0.22993249551200279 0.05057325137645774 -3330.3766226945327 0.13533625853597187 0.22993249551200279 0.13533625853597187 -10000.352340409436 -3330.2866848207 0.030346266606087857 0.093509560814709403 0.030346266606087857 -3330.3176498253838 0.13088146794325439 0.093509560814709403 0.13088146794325439 -10000.117545844243 -3329.917656913753 0.21851799326018206 -0.33870134952576336 0.21851799326018206 -3329.712544188802 0.013875806486794318 -0.33870134952576336 0.013875806486794318 -9999.7958725650096 -3330.3870963498362 0.072873501464497337 -0.076874226522704703 0.072873501464497337 -3329.8193655631653 0.20068482187343761 -0.076874226522704703 0.20068482187343761 -10000.254537534378 -3330.9091925948824 -0.22631395845380464 -0.11839094160586683 -0.22631395845380464 -3330.5890861639559 0.14316962806333322 -0.11839094160586683 0.14316962806333322 -10000.577491745835 -3329.9871835883241 0.18358001017456704 0.17591383628587209 0.18358001017456704 -3330.1551195112183 0.25347111113444498 0.17591383628587209 0.25347111113444498 -10000.104558206525 -3330.2684378902995 0.037121925330226624 0.18142849317518994 0.037121925330226624 -3330.3284918049321 0.25267998750820198 0.18142849317518994 0.25267998750820198 -10000.115694606529 -3329.5713757927683 0.11873726775965809 0.64019739242144169 0.11873726775965809 -3328.7711144672617 1.1987698826687847 0.64019739242144169 1.1987698826687847 -9999.2759141202114 -3330.3895490707678 -0.21454043426080327 0.38928628937946996 -0.21454043426080327 -3330.6159435093919 0.24028778210413293 0.38928628937946996 0.24028778210413293 -10000.320355576678 -3330.8507425832681 0.8788169007968829 0.76199945946245862 0.8788169007968829 -3330.0008660464105 0.87587490595706186 0.76199945946245862 0.87587490595706186 -9999.6863313051545 -3329.7963371660844 0.12795062353239539 0.29286697597854072 0.12795062353239539 -3330.9255148201364 0.073284631000205991 0.29286697597854072 0.073284631000205991 -10000.249445428195 -3329.69264243199 0.048723940104897112 0.41182447881237749 0.048723940104897112 -3328.747991243853 0.80321638975055976 0.41182447881237749 0.80321638975055976 -9999.3004499741655 -3330.0682454895596 -0.05271176092605756 0.18674758909037337 -0.05271176092605756 -3330.5171250530011 0.24448500297876308 0.18674758909037337 0.24448500297876308 -10000.112804818362 -3330.1884536427224 -0.21454043426080349 -0.13129466903365028 -0.21454043426080349 -3330.4148480813465 -0.027804140956504853 -0.13129466903365028 -0.027804140956504853 -9999.7170692925465 -3329.9081581610826 -0.052711760926057782 -0.18325150144755753 -0.052711760926057782 -3330.3570377245242 -0.11779601528542116 -0.18325150144755753 -0.11779601528542116 -9999.6325428329328 -3330.1211765600619 0.037121925330226402 -0.052549289233866148 0.037121925330226402 -3330.1812304746945 -0.0068793453560829221 -0.052549289233866148 -0.0068793453560829221 -9999.6739106158166 -3330.1098426612116 0.030346266606087413 -0.1259636527265684 0.030346266606087413 -3330.1408076658954 -0.15458923465303087 -0.1259636527265684 -0.15458923465303087 -9999.5870193657756 -3329.9412875657717 0.050573251376457629 0.1198134136511726 0.050573251376457629 -3330.0968595415952 0.023969160158230807 0.1198134136511726 0.023969160158230807 -9999.5130509506234 -3330.0138258649004 0.097769894389125866 0.14789957641369256 0.097769894389125866 -3330.1091974559977 -0.030210341038582555 0.14789957641369256 -0.030210341038582555 -9999.5342700040092 -3330.3088889536748 -0.16470978878386716 -0.033764362038255058 -0.16470978878386716 -3330.2635587213699 0.032853773978786194 -0.033764362038255058 0.032853773978786194 -9999.5954776813887 -3330.4097124475002 -0.23168420053180583 -0.082328655180390342 -0.23168420053180583 -3330.3396029676032 0.019841010752770671 -0.082328655180390342 0.019841010752770671 -9999.6396946164023 -3330.419954340151 -0.12675519746087982 -0.045785935328240157 -0.12675519746087982 -3330.1325362609787 0.18663114440460049 -0.045785935328240157 0.18663114440460049 -9999.3757691144419 -3330.5093390452321 -0.0012657666614747098 -0.17177953153804992 -0.0012657666614747098 -3330.0983837970061 0.16380032931010646 -0.17177953153804992 0.16380032931010646 -9999.3895771747193 -3329.8097664726779 0.366052533080235 1.0009389844144607 0.366052533080235 -3330.4095755474555 0.1910904282303818 1.0009389844144607 0.1910904282303818 -9998.9959574271015 -3329.906260773429 0.22860858487262398 1.0826226092103752 0.22860858487262398 -3329.7633054525459 0.10940680336352671 1.0826226092103752 0.10940680336352671 -9998.8585134785608 -3329.0943287561413 -0.077220417775408723 0.65254564483984723 -0.077220417775408723 -3329.6660387669504 0.031474210391934321 0.65254564483984723 0.031474210391934321 -9998.6312138028406 -3330.2815760228186 0.059740769591419718 0.33757965257245814 0.059740769591419718 -3330.1804744062092 -0.24641660212364513 0.33757965257245814 -0.24641660212364513 -9999.3593755723232 -3330.4224409405133 -0.12675519746087993 0.36566905451036291 -0.12675519746087993 -3330.135022861341 -0.15193139867733407 0.36566905451036291 -0.15193139867733407 -9999.3832289155289 -3330.491791577876 -0.2853245611752922 0.54402874232982867 -0.2853245611752922 -3329.6852611804743 -0.07384081023019462 0.54402874232982867 -0.07384081023019462 -9999.6054591700031 -3330.840009892006 -0.31564807592040306 0.58945279149247654 -0.31564807592040306 -3330.9668155727995 0.078953490477942978 0.58945279149247654 0.078953490477942978 -10000.012902346616 -3330.5118256455958 -0.0012657666614749319 0.23967545830055315 -0.0012657666614749319 -3330.1008703973698 -0.17476221377364709 0.23967545830055315 -0.17476221377364709 -9999.3970369758063 -3329.4712073691198 0.0043231118175233174 0.58472794703493491 0.0043231118175233174 -3331.1359328842664 -0.54051602107028884 0.58472794703493491 -0.54051602107028884 -9999.4166476778773 -3330.6289138406419 0.069865410460711264 0.33278341329059913 0.069865410460711264 -3330.2562022758229 -0.36329382336225535 0.33278341329059913 -0.36329382336225535 -9999.4651419941802 -3329.0892360983053 -0.15909060156230359 0.75993013252627861 -0.15909060156230359 -3329.6185661611421 -0.89527786755866146 0.75993013252627861 -0.89527786755866146 -9998.9418131793918 -3330.6674113789095 0.069865410460711264 -0.046280931492219679 0.069865410460711264 -3330.2946998140906 0.070215389703662368 -0.046280931492219679 0.070215389703662368 -9999.5806346089812 -3330.1453966881991 0.1267439721685707 0.043154221870281617 0.1267439721685707 -3330.1576828108828 0.024770075549895409 0.043154221870281617 0.024770075549895409 -9999.5514651621816 -3330.3743089517584 0.059740769591419829 0.091810827792869532 0.059740769591419829 -3330.273207335149 0.053390383252008178 0.091810827792869532 0.053390383252008178 -9999.6375743591379 -3330.1620319937319 0.082237507459383866 0.049389192086209732 0.082237507459383866 -3330.1801956811232 0.10491009772340476 0.049389192086209732 0.10491009772340476 -9999.5612522061238 -3330.2679126647299 0.17188887009163706 0.13203161801902752 0.17188887009163706 -3330.2694674837812 0.20087437975053035 0.13203161801902752 0.20087437975053035 -9999.341901948017 -3330.2824350864012 0.17188887009163706 0.41414964397517906 0.17188887009163706 -3330.2839899054525 -0.27189312633163354 0.41414964397517906 -0.27189312633163354 -9999.3854692130299 -3329.4631579136035 -0.37582477338767706 0.73011944982067689 -0.37582477338767706 -3329.7121701284968 -0.74232236713487509 0.73011944982067689 -0.74232236713487509 -9998.6478496521268 -3330.6880738066702 0.48713943870908866 0.19771026922626334 0.48713943870908866 -3331.0189874032476 0.067083630222896318 0.19771026922626334 0.067083630222896318 -10000.024295033041 -3330.7846240062981 -1.03277651665281 0.63029022906812315 -1.03277651665281 -3330.9909599749676 -0.85446299702744 0.63029022906812315 -0.85446299702744 -9999.2979136369195 -3330.451114352109 0.047927535724903103 0.34659170309532783 0.047927535724903103 -3330.5595861337351 0.017547494924656348 0.34659170309532783 0.017547494924656348 -9999.850204852024 -3329.9193628390235 0.25923984851007947 0.21700717372380041 0.25923984851007947 -3330.003797255451 0.4218538543991599 0.21700717372380041 0.4218538543991599 -9999.5783197541823 -3330.0219606507312 0.20706175609598135 0.17782859490853298 0.20706175609598135 -3330.2835740818082 -0.081720672124447447 0.17782859490853298 -0.081720672124447447 -9999.6739134136988 -3330.2799825624265 0.048585874123335815 -0.20034305814624531 0.048585874123335815 -3330.5057376523432 -0.26616307681638318 -0.20034305814624531 -0.26616307681638318 -10000.066666173832 -3329.6339900914209 0.14052191508347711 0.58740921104799781 0.14052191508347711 -3329.8142982684171 0.051451818870191346 0.58740921104799781 0.051451818870191346 -9999.4596018205229 -3329.9947373347336 0.093355099016880772 0.11358061114151496 0.093355099016880772 -3330.1428174651801 -0.29080798464678992 0.11358061114151496 -0.29080798464678992 -10000.324263324379 -3330.2413599761903 0.071836830513731686 -0.13856344915802765 0.071836830513731686 -3330.3748976559446 -0.16259640906173445 -0.13856344915802765 -0.16259640906173445 -10000.024300528174 -3330.3437144576915 -0.097034996850141164 0.13820281540756696 -0.097034996850141164 -3329.9327666736831 -0.24953158794414776 0.13820281540756696 -0.24953158794414776 -10000.358994907245 -3330.2257976470478 0.158406928950105 -0.041935555411328096 0.158406928950105 -3330.3749234725278 -0.16477519830186793 -0.041935555411328096 -0.16477519830186793 -10000.020416400035 -3328.8540059208535 0.61799534288954905 0.37974571704398841 0.61799534288954905 -3329.5833708025275 0.056134265821128793 0.37974571704398841 0.056134265821128793 -9999.2068739114075 -3330.8758650059822 -0.64384699473112217 0.17357283001365431 -0.64384699473112217 -3329.8680832548616 -0.8553736799649414 0.17357283001365431 -0.8553736799649414 -9999.2772326423728 -3329.3635038878383 -0.21599710671404448 0.73216089291099706 -0.21599710671404448 -3329.2991652179498 -0.76690430457824732 0.73216089291099706 -0.76690430457824732 -9998.5196849180502 -3330.3921378267737 0.061638101990789673 0.21127492059804354 0.061638101990789673 -3330.4031701668023 -0.096254457900840862 0.21127492059804354 -0.096254457900840862 -9999.7963567289589 -3329.7631924506518 -0.36700193494202882 0.40237049939423741 -0.36700193494202882 -3329.6916847797129 -0.64841683306167397 0.40237049939423741 -0.64841683306167397 -9998.9549648847533 -3330.2361486989039 0.061638101990789715 0.12789054357563145 0.061638101990789715 -3330.2471810389325 0.25073892576142498 0.12789054357563145 0.25073892576142498 -9999.3283893453481 -3330.0195696505752 0.15840692895010489 0.23932396227428399 0.15840692895010489 -3330.1686954760553 0.24231145365047269 0.23932396227428399 0.24231145365047269 -9999.4017324106171 -3330.1716234041824 0.048585874123335815 0.013758052056800807 0.048585874123335815 -3330.397378494099 -0.050390330674645156 0.013758052056800807 -0.050390330674645156 -9999.7415886990966 -3330.0835436430998 0.071836830513731686 0.071145639465612476 0.071836830513731686 -3330.217081322854 0.083153650444728555 0.071145639465612476 0.083153650444728555 -9999.5508515288966 -3330.0328060657721 0.066183303467147292 -0.17381026570546965 0.066183303467147292 -3330.2768036619218 -0.099956710331753129 -0.17381026570546965 -0.099956710331753129 -9999.6156861585732 -3329.8717879508067 0.016877511156045966 -0.20204472065051959 0.016877511156045966 -3330.2716366833592 -0.070662879699739278 -0.20204472065051959 -0.070662879699739278 -9999.4885779179203 -3330.2254954643868 0.046317994148321801 -0.1491047026038359 0.046317994148321801 -3330.3363579095976 -0.28170149332618166 -0.1491047026038359 -0.28170149332618166 -9999.6648201274911 -3330.1711603381909 0.070653623284571754 -0.10820556154612859 0.070653623284571754 -3330.173546543856 -0.1903030843968736 -0.10820556154612859 -0.1903030843968736 -9999.6105335045067 -3330.3211963557951 0.095885646269878166 -0.23295392630279821 0.095885646269878166 -3330.377220567033 -0.095828234687473923 -0.23295392630279821 -0.095828234687473923 -9999.7128879573575 -3330.9739124828993 -0.11963306699500253 -0.98918382371994085 -0.11963306699500253 -3330.5722269219859 -0.0099143799407102051 -0.98918382371994085 -0.0099143799407102051 -10000.001006034841 -3330.3684028772891 -0.11422795678290121 -0.42732904389595205 -0.11422795678290121 -3330.0583666147427 0.067658612209925195 -0.42732904389595205 0.067658612209925195 -9998.9266539615764 -3330.0338675005605 0.095885646269878277 -0.39578373717631621 0.095885646269878277 -3330.0898917117984 0.12595947692784648 -0.39578373717631621 0.12595947692784648 -9998.8509013916555 -3330.4006607462002 0.27008345497066139 -0.69641828864314448 0.27008345497066139 -3330.3819497861946 -0.067454532932629263 -0.69641828864314448 -0.067454532932629263 -9999.9630579509067 -3329.9482432007476 0.22190715193570942 -0.16320977655823299 0.22190715193570942 -3329.9863374664842 -0.33906075657250767 -0.16320977655823299 -0.33906075657250767 -9999.8719674561762 -3329.7648053318439 0.39993590159884101 -0.25767553677314936 0.39993590159884101 -3329.6919626599024 -0.47473050946700823 -0.25767553677314936 -0.47473050946700823 -9999.6315973157434 -3329.9437373862156 0.046317994148321745 -0.30301802939266054 0.046317994148321745 -3330.0545998314265 -0.026734178325568791 -0.30301802939266054 -0.026734178325568791 -9998.8195458929786 -3330.1645411816889 0.11949753113510014 -0.28900571877215953 0.11949753113510014 -3330.5848421493397 -0.62018032706237136 -0.28900571877215953 -0.62018032706237136 -10000.075668122125 -3330.2170232405319 0.18238609554118718 -0.33882002772679698 0.18238609554118718 -3330.9124221419293 -0.65606628265049949 -0.33882002772679698 -0.65606628265049949 -10000.049766663424 -3330.4425864470436 0.070653623284571754 0.032516512761503691 0.070653623284571754 -3330.4449726527087 -0.01931429774958815 0.032516512761503691 -0.01931429774958815 -10000.424811831062 -3329.9671565481603 0.46828576830773139 0.088887402329760334 0.46828576830773139 -3329.591558671118 0.55122789177494269 0.088887402329760334 0.55122789177494269 -9999.6570841226294 -3329.1594450549946 0.20157964071641862 0.44361337107693544 0.20157964071641862 -3330.0737922516173 -0.0068307315805213875 0.44361337107693544 -0.0068307315805213875 -9999.3695053070678 -3330.8579843932762 0.032175381947980003 0.53192904435854871 0.032175381947980003 -3330.317696585817 -0.12292718098251498 0.53192904435854871 -0.12292718098251498 -10000.061325562581 -3330.2620807003577 0.12674397216857056 0.049338698136125458 0.12674397216857056 -3330.2743668230414 0.042896027978713391 0.049338698136125458 0.042896027978713391 -9999.9015171986593 -3330.4877037285287 0.082237507459384199 -0.12428034655545162 0.082237507459384199 -3330.50586741592 0.012951572743986617 -0.12428034655545162 0.012951572743986617 -10000.538267410513 -3330.3334424248733 0.066183303467147292 -0.33939533764350927 0.066183303467147292 -3330.577440021023 -0.14181055180620206 -0.33939533764350927 -0.14181055180620206 -10000.517595235873 -3329.9084401133828 0.20787028593354906 -0.76446175414457684 0.20787028593354906 -3330.2084121469479 -0.062704813569212092 -0.76446175414457684 -0.062704813569212092 -9999.7966183828903 -3328.9359195749485 -0.1975865294793766 -1.1525607191133531 -0.1975865294793766 -3329.8872030977791 0.0014900127938517471 -1.1525607191133531 0.0014900127938517471 -9999.320251851801 -3330.6575105084539 0.17329014910539864 -0.2010892960424826 0.17329014910539864 -3330.3295061437666 -0.3285760077149007 -0.2010892960424826 -0.3285760077149007 -10000.536628787455 -3329.4448637624027 0.0047834433449294167 -0.92877959892302897 0.0047834433449294167 -3329.8115031820353 -0.30069912119051878 -0.92877959892302897 -0.30069912119051878 -9999.4285629197275 -3330.8878735559274 0.25923984851007981 0.15595730461666335 0.25923984851007981 -3330.9723079723549 0.99298174251180171 0.15595730461666335 0.99298174251180171 -10002.483851904894 -3330.8090005953882 0.20787028593354928 -0.78466092367307283 0.20787028593354928 -3331.1089726289533 0.31626425916010703 -0.78466092367307283 0.31626425916010703 -10002.498299828907 -3329.6594832170017 0.20706175609598126 0.13880583487025433 0.20706175609598126 -3329.9210966480787 0.027333505033311667 0.13880583487025433 0.027333505033311667 -9998.586481112512 -3329.3730065918071 0.11949753113510002 0.88575469517422789 0.11949753113510002 -3329.7933075594578 -0.33077960101491044 0.88575469517422789 -0.33077960101491044 -9997.7010643524791 -3330.7608719547429 0.22190715193570959 -0.094652144601241162 0.22190715193570959 -3330.7989662204795 -0.93250217601325858 -0.094652144601241162 -0.93250217601325858 -10002.30985371816 -3329.6798903452377 0.25406687226377672 0.43669954263395994 0.25406687226377672 -3329.5673405726202 0.22226931259365301 0.43669954263395994 0.22226931259365301 -9997.7212935441275 -3329.6574929449407 0.27008345497066139 0.48996020100548776 0.27008345497066139 -3329.6387819849351 0.32070368401610949 0.48996020100548776 0.32070368401610949 -9997.7335545471306 -3333.0468493776193 0.98544226219108544 -0.85334098273051495 0.98544226219108544 -3331.202951535734 0.83499004679333666 -0.85334098273051495 0.83499004679333666 -10000.148198848236 -3334.8941121868452 -0.1684838319773205 -1.2469284046826514 -0.1684838319773205 -3334.6043888114873 0.076789093666610519 -1.2469284046826514 0.076789093666610519 -10001.065961395823 -3334.9269921646533 -0.20352261668050975 0.47280604672768622 -0.20352261668050975 -3334.8279202551871 -1.7112796371134067 0.47280604672768622 -1.7112796371134067 -10001.386419872526 -3330.1480753347096 -0.012480326711400522 -1.4529231305895696 -0.012480326711400522 -3332.1646234960563 -3.381201674777206 -1.4529231305895696 -3.381201674777206 -9999.2695108539301 -3332.2737373815239 -1.6323526520274649 -0.47448599730978458 -1.6323526520274649 -3332.5463957830143 -1.1946619357622694 -0.47448599730978458 -1.1946619357622694 -9999.8963694373742 -3334.4098054756791 -0.017029796418890963 -0.41096571093778178 -0.017029796418890963 -3332.8734475809156 -3.6862681188750033 -0.41096571093778178 -3.6862681188750033 -10000.768505031714 -3331.916060686905 -1.184214705440048 -0.0094858505185455577 -1.184214705440048 -3332.0658857691656 -0.55349961405710646 -0.0094858505185455577 -0.55349961405710646 -9998.9727357773154 -3330.493087661755 0.23071390348351603 0.39015087312840357 0.23071390348351603 -3332.4780164805047 3.2579498893760257 0.39015087312840357 3.2579498893760257 -9999.434112181807 -3330.0450697945798 1.0439039365204257 3.5593664577863819 1.0439039365204257 -3330.8057093433972 -1.1480077411747516 3.5593664577863819 -1.1480077411747516 -9998.9040309307347 -3333.3333410135224 -0.87574881660666837 -3.1458371416615054 -0.87574881660666837 -3330.9501917244161 0.99501589669488866 -3.1458371416615054 0.99501589669488866 -10000.156631804382 -3334.3976282804792 0.073111105986515379 -2.462853149626326 0.073111105986515379 -3335.6188637018804 0.072729240417037211 -2.462853149626326 0.072729240417037211 -10001.589871615484 -3332.1569583045548 1.2251044508840025 -0.47286745216933923 1.2251044508840025 -3335.3275574413601 -0.10477483053318792 -0.47286745216933923 -0.10477483053318792 -10003.8899354593 -3332.982566110672 -0.61810526163689894 -3.7852865754082292 -0.61810526163689894 -3333.8916688630652 0.25397714348812095 -3.7852865754082292 0.25397714348812095 -10000.409894889675 -3334.2347977527397 1.9290740059137854 0.99096218300963423 1.9290740059137854 -3334.3047204052973 0.15797686816960521 0.99096218300963423 0.15797686816960521 -10004.153686062333 -3334.6797650744029 0.64052473905668972 1.6721640489038774 0.64052473905668972 -3333.7704729290444 2.5640430551210214 1.6721640489038774 2.5640430551210214 -9999.5136761521371 -3331.0244563584388 -1.7792968590100455 2.0671152674997395 -1.7792968590100455 -3332.4081636559094 2.5551375990211329 2.0671152674997395 2.5551375990211329 -9998.2592716548625 -3336.762912657879 0.4895971336840434 0.93502631108192924 0.4895971336840434 -3337.0401567216377 0.064206577966171074 0.93502631108192924 0.064206577966171074 -10005.469573867702 -3330.2785396864533 0.14052191508347689 -0.11644952439291956 0.14052191508347689 -3330.4588478634496 1.2269034281034692 -0.11644952439291956 1.2269034281034692 -10001.393250605621 -3330.6102557070453 -0.3670019349420286 -0.035879982777260011 -0.3670019349420286 -3330.5387480361064 1.2250867264910994 -0.035879982777260011 1.2250867264910994 -10001.496154653933 -3330.3623489722299 0.093355099016880772 -0.3695734098128014 0.093355099016880772 -3330.5104291026764 0.80256928660651283 -0.3695734098128014 0.80256928660651283 -10001.427098236871 -3334.883281595864 -0.32433008419344295 -1.5265361848209746 -0.32433008419344295 -3334.628624961224 -0.38381899004446574 -1.5265361848209746 -0.38381899004446574 -9999.7790932905464 -3333.0197298606317 -0.16603804313004564 0.18811811805784462 -0.16603804313004564 -3332.204257013158 4.0480889787670238 0.18811811805784462 4.0480889787670238 -9998.7071133697227 -3333.387803669983 0.2671760769902799 -0.09099336339612929 0.2671760769902799 -3333.6012542965309 0.46058181612523308 -0.09099336339612929 0.46058181612523308 -9999.1483811429043 -3325.3948118610801 2.4771150628844132 0.11654496729079256 2.4771150628844132 -3326.3582981202189 0.7114673885917 0.11654496729079256 0.7114673885917 -9996.0402647041665 -3329.8672421972296 -1.1756362975107058 -0.27172177034526612 -1.1756362975107058 -3332.684850488879 -0.80132340946101976 -0.27172177034526612 -0.80132340946101976 -9998.0391398228003 -3330.825019658173 -0.61427276333684366 -0.73903356297277167 -0.61427276333684366 -3333.6389514539901 -0.24962511100472895 -0.73903356297277167 -0.24962511100472895 -9999.2179799868809 -3329.664147451103 -0.37582477338767717 -0.96696474657187537 -0.37582477338767717 -3329.9131596659963 -0.42512002529656456 -0.96696474657187537 -0.42512002529656456 -9999.2508182646252 -3328.7823434917073 -0.2159971067140446 -0.367572846585972 -0.2159971067140446 -3328.7180048218188 0.35286265170748266 -0.367572846585972 0.35286265170748266 -9996.7762037296561 -3329.9868701256878 -0.23231265591504308 -0.81561501737459929 -0.23231265591504308 -3330.8181571816417 0.67252673831464382 -0.81561501737459929 0.67252673831464382 -9998.3032440356747 -3327.9888677420922 0.58049361301108982 -0.15113167887693635 0.58049361301108982 -3329.1678292691663 1.1839896409305766 -0.15113167887693635 1.1839896409305766 -9996.9613238850561 -3329.7133778266862 -0.65376375723164593 2.2512611873840038 -0.65376375723164593 -3332.1117428179241 3.3570522161171454 2.2512611873840038 3.3570522161171454 -9998.1284297933926 -3328.7556224046652 -1.3556656334935548 2.0796679226721104 -1.3556656334935548 -3328.8468820588851 0.65097554606022046 2.0796679226721104 0.65097554606022046 -9997.0727757481291 -3334.8986682175687 -0.72723974473975028 0.72174344954766756 -0.72723974473975028 -3332.3705525594532 1.1284458068890184 0.72174344954766756 1.1284458068890184 -10003.550373437341 -3326.926070000949 -1.0301463753175302 1.2757110549882782 -1.0301463753175302 -3328.8397811734521 0.58231341897692346 1.2757110549882782 0.58231341897692346 -9999.1456525296107 -3332.0820281947786 -1.7537650788246983 1.2795505850805839 -1.7537650788246983 -3330.7398649928487 0.5828505078705386 1.2795505850805839 0.5828505078705386 -10000.909663032917 -3333.4735884675683 -1.3683704954599403 0.43782809522508614 -1.3683704954599403 -3331.9194657401163 1.5131748223820978 0.43782809522508614 1.5131748223820978 -10003.081331795007 -3330.6683699597829 -0.87833756034303712 -0.13015104644048503 -0.87833756034303712 -3328.3242376466565 -1.1402521338912881 -0.13015104644048503 -1.1402521338912881 -9999.9523416376196 -3330.3772216067191 -0.0052962446404578589 -0.4323476409426803 -0.0052962446404578589 -3329.5338406449273 0.88763361219935177 -0.4323476409426803 0.88763361219935177 -10001.186669281056 -3330.2666500645814 -0.21177757990689061 -0.053921325258670549 -0.21177757990689061 -3329.5764474838143 0.94056940544578538 -0.053921325258670549 0.94056940544578538 -10001.169678105243 -3329.4195868081883 -0.21177757990689061 0.38432915691373637 -0.21177757990689061 -3328.7293842274212 -0.93293415410607849 0.38432915691373637 -0.93293415410607849 -9998.628488336064 -3329.5423924618922 0.068087387026843915 -0.79763968106090033 0.068087387026843915 -3328.8953654655738 -1.2583129492522858 -0.79763968106090033 -1.2583129492522858 -9999.2391181014991 -3329.4324751826052 -0.0635140183997982 -0.19036092249189096 -0.0635140183997982 -3330.3071997426141 -0.18966592205913457 -0.19036092249189096 -0.18966592205913457 -9999.9413047181661 -3331.3562004530113 0.0081286743518984572 -0.33415920120751252 0.0081286743518984572 -3329.4058006553132 -0.76616136686675418 -0.33415920120751252 -0.76616136686675418 -9999.8201788967144 -3330.3310348721279 0.0062600612033215652 -0.045497915987652959 0.0062600612033215652 -3330.615937778306 -0.22095468097541016 -0.045497915987652959 -0.22095468097541016 -10000.106979282751 -3330.0248306354752 -0.053670538087766118 -0.21609459445062384 -0.053670538087766118 -3330.5417329149877 -0.24481842967725242 -0.21609459445062384 -0.24481842967725242 -10000.011877007757 -3329.7455315673137 -0.0052962446404576369 -0.40286423222823942 -0.0052962446404576369 -3328.9021506055219 -0.77577210260824359 -0.40286423222823942 -0.77577210260824359 -9999.2915991628415 -3329.6570101100488 0.075604521867334795 -0.26355307718677068 0.075604521867334795 -3330.7332068223545 -0.090484440015643486 -0.26355307718677068 -0.090484440015643486 -10000.103940219964 -3330.2163304361757 -0.17987943846730409 0.054156999777660531 -0.17987943846730409 -3330.453994014917 -0.020716314251330914 0.054156999777660531 -0.020716314251330914 -9999.6872684478549 -3329.8846111214525 -0.053670538087766118 0.15439029053050035 -0.053670538087766118 -3330.4015134009651 0.10180056749959476 0.15439029053050035 0.10180056749959476 -9999.5912184656845 -3330.1248068756558 0.0062600612033216763 0.23576160169977811 0.0062600612033216763 -3330.409709781834 0.18613197098056844 0.23576160169977811 0.18613197098056844 -9999.4882952933331 -3330.8002587267515 0.85125297793299581 -0.8180021859388944 0.85125297793299581 -3330.1305316378275 -1.0049869908125402 -0.8180021859388944 -1.0049869908125402 -9999.4646946934154 -3330.3071151491113 -0.20133180219059799 -0.067819443974713067 -0.20133180219059799 -3330.2822576836816 -0.084280838091217447 -0.067819443974713067 -0.084280838091217447 -9999.4785954915751 -3330.4500778248357 -0.11422795678290132 -0.094878710357079399 -0.11422795678290132 -3330.1400415622893 -0.2016040953431002 -0.094878710357079399 -0.2016040953431002 -9999.171678804214 -3330.1565978644348 -0.24638069853525391 0.018088382261339575 -0.24638069853525391 -3330.2537365011567 -0.071152523344153451 0.018088382261339575 -0.071152523344153451 -9999.4338358747736 -3330.0932536417981 0.016877511156046188 -0.5054902789015614 0.016877511156046188 -3330.4931023743507 -0.22748909017900587 -0.5054902789015614 -0.22748909017900587 -10000.152974990899 -3330.3933548908817 -0.66230600604945822 -0.84968608702638448 -0.66230600604945822 -3330.5764235160268 -0.12025366512898472 -0.84968608702638448 -0.12025366512898472 -9999.8569157853472 -3328.9342964704774 0.21554433564712738 -1.4886855435142934 0.21554433564712738 -3329.0329945581566 -0.59421062534238445 -1.4886855435142934 -0.59421062534238445 -9998.7238198594277 -3330.4110098968877 -0.17987943846730342 -0.44065440794656752 -0.17987943846730342 -3330.648673475629 -0.30695845413720235 -0.44065440794656752 -0.30695845413720235 -10000.271306829993 -3330.4266513458288 -0.24638069853525368 -0.51922922750054568 -0.24638069853525368 -3330.5237899825506 -0.25883339120218807 -0.51922922750054568 -0.25883339120218807 -10000.243996318957 -3329.9605338612851 0.2540668722637765 -1.5154817643078786 0.2540668722637765 -3329.8479840886675 -0.016489665888911986 -1.5154817643078786 -0.016489665888911986 -9998.5632240922696 -3330.4204027092073 -0.20133180219059799 -0.59585037401711816 -0.20133180219059799 -3330.3955452437776 -0.08146284383838065 -0.59585037401711816 -0.08146284383838065 -9999.818458171867 -3329.8757921332817 0.025118735652154944 -1.5100713852659737 0.025118735652154944 -3329.4053392567057 -0.59747877999052434 -1.5100713852659737 -0.59747877999052434 -9999.0522799497667 -3329.7809676839211 0.29648207843459651 -1.1675156495530246 0.29648207843459651 -3330.4657043593838 -0.42959243972472905 -1.1675156495530246 -0.42959243972472905 -9998.672762615608 -3330.9167320110237 -0.10017979366779206 -0.85891437645341284 -0.10017979366779206 -3329.9921726826769 0.23084477605334541 -0.85891437645341284 0.23084477605334541 -9999.8416973570456 -3329.8172927403321 0.025118735652154722 -0.13397062643275603 0.025118735652154722 -3329.346839863756 0.54645876485210465 -0.13397062643275603 0.54645876485210465 -9998.8767817709195 -3330.3837483112748 0.068087387026844359 -0.25288227182181799 0.068087387026844359 -3329.7367213149564 0.66890761608920002 -0.25288227182181799 0.66890761608920002 -10001.763185649645 -3330.292302586191 0.0047834433449294167 -0.68661340891867439 0.0047834433449294167 -3330.6589420058235 0.95940881572914805 -0.68661340891867439 0.95940881572914805 -10001.97087939109 -3329.9347249268053 0.21554433564712738 -0.69520114550959988 0.21554433564712738 -3330.0334230144845 0.93981658864868223 -0.69520114550959988 0.93981658864868223 -10001.725105228408 -3332.5345470788229 0.86799166525186444 -2.4074961553478715 0.86799166525186444 -3329.8495628298901 0.19902174961589481 -2.4074961553478715 0.19902174961589481 -9999.6817760970753 -3333.0468351102131 0.50107863571822464 -2.1727144651000474 0.50107863571822464 -3330.299730090966 0.2609550915445335 -2.1727144651000474 0.2609550915445335 -9999.8816304100947 -3327.3810661048237 -1.7354435974116456 1.1455143775565375 -1.7354435974116456 -3326.3954845609419 -1.7713750213079038 1.1455143775565375 -1.7713750213079038 -9997.4891267762414 -3329.3670138699363 -0.51958639347470181 0.21889375848695636 -0.51958639347470181 -3327.5852188029098 -0.48250493358636959 0.21889375848695636 -0.48250493358636959 -9997.0363081923933 -3332.4526173822096 1.3823829777670844 -0.66703665958177005 1.3823829777670844 -3332.1025184130685 1.17931078001302 -0.66703665958177005 1.17931078001302 -10000.224532568716 -3332.4315645764214 1.0494680678620676 -0.42311576874847523 1.0494680678620676 -3330.7343559235528 0.27968398448017062 -0.42311576874847523 0.27968398448017062 -9998.5897301491768 -3331.1361695193473 0.20381895546451878 -0.51938737210686148 0.20381895546451878 -3329.8249042213261 0.51361424275811363 -0.51938737210686148 0.51361424275811363 -9999.2852575449688 -3328.8077378651756 0.66368736992115618 2.062220603184187 0.66368736992115618 -3328.172062175483 0.56408040385667846 2.062220603184187 0.56408040385667846 -9999.6057084854165 -3328.6137725519266 1.1486258276474484 2.6460128609476716 1.1486258276474484 -3329.465315395114 0.24378964205844733 2.6460128609476716 0.24378964205844733 -9997.3180220109425 -3329.429016470262 -0.010517470033119203 -0.66921826004818286 -0.010517470033119203 -3330.9101753592099 0.50216446707599971 -0.66921826004818286 0.50216446707599971 -9998.9293014283394 -3329.1527802509531 -0.12127163442182526 -0.75764587258208849 -0.12127163442182526 -3329.5671247193827 -0.025352774699513247 -0.75764587258208849 -0.025352774699513247 -9998.2910708473664 -3330.4195170522371 -0.027808104641335984 0.097072775090055075 -0.027808104641335984 -3330.1325536902204 -0.20384902319710818 0.097072775090055075 -0.20384902319710818 -9999.1621666430474 -3326.7870740852713 -1.1872814557887783 -1.2866991265500474 -1.1872814557887783 -3328.5120427501774 -0.49627165509730276 -1.2866991265500474 -0.49627165509730276 -9999.1424427951661 -3330.475029113341 -0.20758358790818265 0.093008398976053286 -0.20758358790818265 -3329.5542003735809 -0.97513433937092486 0.093008398976053286 -0.97513433937092486 -10001.339122408846 -3330.6602716312059 -0.41279237057786355 0.10045421963059198 -0.41279237057786355 -3330.1658174050658 -1.2010862670686038 0.10045421963059198 -1.2010862670686038 -10001.538337296182 -3328.8981361820161 -1.486402342850226 -1.4799943481198032 -1.486402342850226 -3328.8942634199179 -0.51752289052068856 -1.4799943481198032 -0.51752289052068856 -9998.30932996304 -3331.7585206146518 -1.705916473317121 -0.97785556644517335 -1.705916473317121 -3332.9404123547988 -2.1551119890741495 -0.97785556644517335 -2.1551119890741495 -10000.122425009929 -3330.2144640540764 -0.79848696387397622 -1.4039130604099774 -0.79848696387397622 -3332.6727753180739 -2.8262964181794215 -1.4039130604099774 -2.8262964181794215 -9999.583039905594 -3328.2541518086327 0.39477674721242118 -0.29062441159021546 0.39477674721242118 -3329.403145895079 -1.4361202953496104 -0.29062441159021546 -1.4361202953496104 -9998.275554488484 -3329.3349611303238 -0.4063105870176022 -0.1773742220514225 -0.4063105870176022 -3330.4378466320009 -1.5443949113471231 -0.1773742220514225 -1.5443949113471231 -9997.5653838496164 -3330.2125797570475 -0.057116449214198936 -0.017631376029152657 -0.057116449214198936 -3332.9198608604133 -1.9858774840695754 -0.017631376029152657 -1.9858774840695754 -9998.4052920634022 -3330.2829292094111 -0.40495061957725209 0.47013596231909105 -0.40495061957725209 -3333.2666890848091 -1.7111917740773492 0.47013596231909105 -1.7111917740773492 -9999.8350963411212 -3329.4255556739513 1.0291130442007139 1.6112236907490822 1.0291130442007139 -3330.7936142049562 1.3354328356473963 1.6112236907490822 1.3354328356473963 -10000.415550944979 -3327.4735179442296 1.511918755928412 0.69006403319235687 1.511918755928412 -3327.5152054975288 -0.71394561233319109 0.69006403319235687 -0.71394561233319109 -9996.3693627694756 -3328.8721367349053 -0.12127163442182559 1.1945354343602048 -0.12127163442182559 -3329.2864812033349 0.2134062037835065 1.1945354343602048 0.2134062037835065 -9997.4491402992226 -3328.8083976814792 -0.15807822158915136 1.0395683360093244 -0.15807822158915136 -3329.1795365066059 0.47845069713935118 1.0395683360093244 0.47845069713935118 -9997.4064693616856 -3329.4960007940799 -0.33715790929165623 0.13014078913329286 -0.33715790929165623 -3329.2254027175541 -0.77154441265156493 0.13014078913329286 -0.77154441265156493 -9998.6280426454759 -3329.2112360214255 -0.39332063881141338 0.59464723540031628 -0.39332063881141338 -3329.6945234644099 -0.32120028391727828 0.59464723540031628 -0.32120028391727828 -9997.6359256861215 -3330.4669789835534 0.021233306288871767 -0.22190318783577823 0.021233306288871767 -3330.4850117087317 -0.025672058618511073 -0.22190318783577823 -0.025672058618511073 -10000.126319962441 -3329.376165342233 -0.33715790929165634 -0.99102784833394253 -0.33715790929165634 -3329.1055672657071 0.48520128048608058 -0.99102784833394253 0.48520128048608058 -9998.2685362899338 -3330.9522149283302 0.42077123589876853 -0.0033899126865435392 0.42077123589876853 -3330.8730881242709 -0.62957893325716441 -0.0033899126865435392 -0.62957893325716441 -10000.344648052518 -3330.1901139822467 0.15190352899557999 -0.39146047615440693 0.15190352899557999 -3330.1457566716554 -0.023823850151529768 -0.39146047615440693 -0.023823850151529768 -9998.9039292520447 -3329.5066829507382 -0.39332063881141327 -0.84475960008626316 -0.39332063881141327 -3329.9899703937226 0.080958560692124593 -0.84475960008626316 0.080958560692124593 -9998.5222664740631 -3330.33784210469 -0.027808104641336207 -0.23537755844881758 -0.027808104641336207 -3330.0508787426734 0.065413684355917212 -0.23537755844881758 0.065413684355917212 -9998.917141800408 -3330.2659393789481 -0.84163939604141669 -0.46148096289198293 -0.84163939604141669 -3330.6520034521332 0.76982033377862535 -0.46148096289198293 0.76982033377862535 -9998.8775888457185 -3329.1824047440009 -0.15807822158915127 -0.76771824513070897 -0.15807822158915127 -3329.5535435691277 0.67063170250526127 -0.76771824513070897 0.67063170250526127 -9998.5284905492535 -3330.4142192893469 0.015942513195584485 -0.28991270744336362 0.015942513195584485 -3330.1142650503925 0.15868665061543652 -0.28991270744336362 0.15868665061543652 -9998.9520826735043 -3330.5200864495064 0.015942513195584374 0.0094203120042948285 0.015942513195584374 -3330.220132210552 -0.20570854127026905 0.0094203120042948285 -0.20570854127026905 -9999.2696841539801 -3330.1505240360993 0.021233306288871684 -0.2100186155148549 0.021233306288871684 -3330.1685567612776 -0.37488930163317491 -0.2100186155148549 -0.37488930163317491 -9999.1769551200741 -3330.3010033151122 0.15190352899557985 -0.19085907428507198 0.15190352899557985 -3330.2566460045209 -0.42784067794673319 -0.19085907428507198 -0.42784067794673319 -9999.2365972506377 -3330.034002184525 0.13442579457039372 -0.25630276545598463 0.13442579457039372 -3330.1119932460369 -0.28770111380981689 -0.25630276545598463 -0.28770111380981689 -9999.4368535392023 -3330.1017380319563 -0.016497656538047689 -0.258945004115958 -0.016497656538047689 -3330.3557083770575 -0.20751936534907145 -0.258945004115958 -0.20751936534907145 -9999.5147162838148 -3329.8500041776383 -0.41279237057786333 -0.33230821332836058 -0.41279237057786333 -3329.3555499514982 0.74187750071723713 -0.33230821332836058 0.74187750071723713 -9999.1075349354796 -3330.2604451849902 0.13442579457039394 0.025545454203893314 0.13442579457039394 -3330.3384362465022 0.13802367501739354 0.025545454203893314 0.13802367501739354 -10000.116182540592 -3330.7611407815839 -0.81013947439050493 -0.31681952410144731 -0.81013947439050493 -3329.7847520800842 0.76121840207269997 -0.31681952410144731 0.76121840207269997 -9999.4426196186123 -3329.3282355852693 0.56531321818253266 -0.20175707773250906 0.56531321818253266 -3329.6194208458978 -0.00051538315437937854 -0.20175707773250906 -0.00051538315437937854 -9999.6252363971616 -3330.3281810324202 -0.016497656538047245 0.022903215545738931 -0.016497656538047245 -3330.5821513775213 0.21820542347631999 0.022903215545738931 0.21820542347631999 -10000.194045285205 -3329.6647616597743 -0.2075835879081831 -0.33975403398380877 -0.2075835879081831 -3328.7439329200142 0.96782942841582553 -0.33975403398380877 0.96782942841582553 -9998.9083200481437 -3331.4833997817518 0.011878658967846345 0.28196088965705712 0.011878658967846345 -3329.3195014058406 0.78238710863888628 0.28196088965705712 0.78238710863888628 -9999.8910168521015 -3329.8088896851668 -0.086148303664099979 -0.25335850334704446 -0.086148303664099979 -3330.340662950628 -0.12904072567835101 -0.25335850334704446 -0.12904072567835101 -9999.6036320204803 -3330.2985037750786 -0.0029791271868793157 -0.0035509867630025838 -0.0029791271868793157 -3330.1818984528072 0.001100776765269984 -0.0035509867630025838 0.001100776765269984 -9999.6608274694954 -3330.18725932081 0.023567832063806415 -0.044186136219650507 0.023567832063806415 -3330.1610113748684 -0.060220726481929887 -0.044186136219650507 -0.060220726481929887 -9999.5986369198799 -3330.2251975515428 -0.023083492839088615 -0.053098612188478 -0.023083492839088615 -3330.149379848126 -0.023647200701816473 -0.053098612188478 -0.023647200701816473 -9999.5653692150991 -3330.2702818761372 -0.046559410192847372 -0.037224873736704467 -0.046559410192847372 -3330.1970672693278 -0.0038254840237641474 -0.037224873736704467 -0.0038254840237641474 -9999.5885621515481 -3330.2243277463931 -0.012556103221169845 -0.053991979037164128 -0.012556103221169845 -3330.1439784985596 0.0034630361024028389 -0.053991979037164128 0.0034630361024028389 -9999.5638014264223 -3330.2769527875043 -0.012556103221169401 -0.10233401053847047 -0.012556103221169401 -3330.1966035396708 -0.071648879908025265 -0.10233401053847047 -0.071648879908025265 -9999.7216765497506 -3330.2778225926531 -0.023083492839088837 -0.10144064369342232 -0.023083492839088837 -3330.2020048892364 -0.098759116714063566 -0.10144064369342232 -0.098759116714063566 -9999.7232443384273 -3330.0216057219086 0.12202807989154141 -0.22313307427248219 0.12202807989154141 -3330.2296021683633 -0.24628174540703185 -0.22313307427248219 -0.24628174540703185 -9999.463156654132 -3330.3292620348966 -0.056102543471112765 -0.12324398599412234 -0.056102543471112765 -3330.1874701405886 -0.15487503879376163 -0.12324398599412234 -0.15487503879376163 -9999.6535398278684 -3330.3033394516069 -0.023159008146958315 -0.038904875716980314 -0.023159008146958315 -3330.3561321039433 -0.28532777994229264 -0.038904875716980314 -0.28532777994229264 -9999.6892246728821 -3330.2614307382255 -0.035119182818687644 -0.097664423743481166 -0.035119182818687644 -3330.215133643268 -0.12293355020574381 -0.097664423743481166 -0.12293355020574381 -9999.6434978793695 -3330.1695323417762 -0.024274929526704542 -0.088527761055047449 -0.024274929526704542 -3330.1705981278219 -0.11454609287102357 -0.088527761055047449 -0.11454609287102357 -9999.3131593632315 -3330.2368220688477 0.18626774570886584 -0.08537064146821649 0.18626774570886584 -3329.9800553957502 -0.23824767218502529 -0.08537064146821649 -0.23824767218502529 -9999.1514042868766 -3330.1802083759894 -0.030862701754905908 -0.0535370389916352 -0.030862701754905908 -3330.1621787498925 -0.0516577174134909 -0.0535370389916352 -0.0516577174134909 -9999.3137235273025 -3330.1664175507185 -0.0385736585892687 -0.03215594920948206 -0.0385736585892687 -3330.1852690133646 -0.088226383728397195 -0.03215594920948206 -0.088226383728397195 -9999.3160483868487 -3330.2737135693369 -0.053600224912706808 -0.046477876130666118 -0.053600224912706808 -3330.2404531263692 0.0092299476709740702 -0.046477876130666118 0.0092299476709740702 -9999.4948635334258 -3330.2363372622021 -0.030862701754905908 -0.060416253265429987 -0.030862701754905908 -3330.2183076361052 0.0077032075473653094 -0.060416253265429987 0.0077032075473653094 -9999.4821101859416 -3330.2248103872444 -0.024274929526704736 -0.080800983243534574 -0.024274929526704736 -3330.2258761732901 -0.052458532010859926 -0.080800983243534574 -0.052458532010859926 -9999.4789934996334 -3330.2839756738722 0.018545509955522121 -0.013356754670894588 0.018545509955522121 -3330.2880884198839 -0.091517775381532829 -0.013356754670894588 -0.091517775381532829 -9999.6545852693998 -3330.1982167684291 -0.035119182818687977 -0.084284664084407268 -0.035119182818687977 -3330.1519196734716 -0.042830655596389988 -0.084284664084407268 -0.042830655596389988 -9999.4538559699758 -3330.2205071965291 -0.00052839713869659577 -0.041939908034692053 -0.00052839713869659577 -3330.2137140686718 -0.036463396139879478 -0.041939908034692053 -0.036463396139879478 -9999.5297989841747 -3330.2978130695046 -0.00052839713869665128 -0.030532212974321737 -0.00052839713869665128 -3330.2910199416474 -0.034837526436604094 -0.030532212974321737 -0.034837526436604094 -9999.761716603105 -3330.2863868370114 -0.0077763650500480286 -0.031072165587829659 -0.0077763650500480286 -3330.2715836462612 -0.033345255113999883 -0.031072165587829659 -0.033345255113999883 -9999.7540009711302 -3330.2452111952753 -0.0077763650500476955 -0.030751259539101738 -0.0077763650500476955 -3330.2304080045251 -0.043444444070701138 -0.030751259539101738 -0.043444444070701138 -9999.6304740459091 -3330.3173865584213 -0.0097311035428463422 -0.015438767692103283 -0.0097311035428463422 -3330.2958876048178 -0.0099869284467786201 -0.015438767692103283 -0.0099869284467786201 -9999.7786619098188 -3330.2357466779631 -0.0097311035428463422 -0.02774097896690364 -0.0097311035428463422 -3330.2142477243597 -0.01094384325278952 -0.02774097896690364 -0.01094384325278952 -9999.5337422684497 -3330.2308104868498 -0.01250094907070326 -0.021957927228868357 -0.01250094907070326 -3330.2207120789753 -0.02083475580184313 -0.021957927228868357 -0.02083475580184313 -9999.5341243093317 -3330.3396281210462 -0.015148438372476036 0.011497461808176013 -0.015148438372476036 -3330.3364132594997 0.016708901148376754 0.011497461808176013 0.016708901148376754 -9999.8584336258136 -3330.3118902875467 -0.0089945121795667257 -0.019733976942006848 -0.0089945121795667257 -3330.2936818875714 -0.015429995477461489 -0.019733976942006848 -0.015429995477461489 -9999.7659013940938 -3330.3447855649338 -0.012269900645309417 0.022459556035755668 -0.012269900645309417 -3330.3268305154688 -0.0020398703054524958 0.022459556035755668 -0.0020398703054524958 -9999.8573273007787 -3330.3181450237225 -0.010128920124387431 -0.0060744556249119341 -0.010128920124387431 -3330.2982809680852 -0.019696812131769548 -0.0060744556249119341 -0.019696812131769548 -9999.8269040629602 -3330.333573420854 -0.0055304537772034035 0.00017921761536854319 -0.0055304537772034035 -3330.3244857025657 -0.042084036453161389 0.00017921761536854319 -0.042084036453161389 -9999.853938061533 -3330.328541608189 -0.0036514523180168901 -0.0012710090231848881 -0.0036514523180168901 -3330.3165252920353 -0.032972135683394299 -0.0012710090231848881 -0.032972135683394299 -9999.8340642900657 -3330.3153037361917 -0.0061615064043953893 0.0083696067813434638 -0.0061615064043953893 -3330.2898630822165 -0.029927618685178459 0.0083696067813434638 -0.029927618685178459 -9999.8640093457507 -3330.3192447296624 -0.0027166619382910095 0.0074208545738656539 -0.0027166619382910095 -3330.300809295868 -0.0011366498729330488 0.0074208545738656539 -0.0011366498729330488 -9999.867731147533 -3330.3015810861107 -0.0010515045861725358 -0.014164135132887168 -0.0010515045861725358 -3330.2776238930564 -0.029798486390063772 -0.014164135132887168 -0.029798486390063772 -9999.817598809801 -3330.3014146917867 -0.0084603806748373422 -0.019857975852573873 -0.0084603806748373422 -3330.2883290746649 -0.018471719886292703 -0.019857975852573873 -0.018471719886292703 -9999.7973851261777 -3330.241920707047 -0.0044411814929801174 -0.022934925873414613 -0.0044411814929801174 -3330.2315406725102 -0.015683020246797241 -0.022934925873414613 -0.015683020246797241 -9999.6577264695043 -3330.283498932391 0.0013186028026959118 -0.029346197399718221 0.0013186028026959118 -3330.2662583574784 -0.030319769401103258 -0.029346197399718221 -0.030319769401103258 -9999.7873885070367 -3330.2392637084104 0.0013186028026959118 -0.02235433527675923 0.0013186028026959118 -3330.2220231334977 -0.033301704628684092 -0.02235433527675923 -0.033301704628684092 -9999.6546828350947 -3330.2861559310313 -0.0044411814929805615 -0.029926787996373605 -0.0044411814929805615 -3330.2757758964945 -0.012701085011940449 -0.029926787996373605 -0.012701085011940449 -9999.7904321414462 -3330.2950190933097 -0.0046396979526819315 -0.016536880557396216 -0.0046396979526819315 -3330.2852396231046 -0.010353473418945214 -0.016536880557396216 -0.010353473418945214 -9999.8190381506429 -3330.4053911285582 -0.051087826391304936 0.049323793058647425 -0.051087826391304936 -3329.8815542967559 -0.27395656314911321 0.049323793058647425 -0.27395656314911321 -9999.1563658452906 -3330.2107303730736 -0.0385736585892687 -0.043031144157794188 -0.0385736585892687 -3330.2295818357197 -0.040431043476928608 -0.043031144157794188 -0.040431043476928608 -9999.4489868539167 -3330.2272597109441 -0.035712217098368471 -0.046181625256394909 -0.035712217098368471 -3330.2748721622575 -0.016642668504573521 -0.046181625256394909 -0.016642668504573521 -9999.4939819296669 -3330.3050356889908 -0.012500949070703038 -0.009783115108803031 -0.012500949070703038 -3330.2949372811163 -0.019911471637897193 -0.009783115108803031 -0.019911471637897193 -9999.7567999157618 -3330.3122539991091 -0.012612393372192388 -0.014140180141112069 -0.012612393372192388 -3330.3023792720542 -0.012207938478240976 -0.014140180141112069 -0.012207938478240976 -9999.7790016868021 -3330.317097516845 -0.015130869711408312 -0.023962231901350606 -0.015130869711408312 -3330.3210247165171 0.0097676101941033266 -0.023962231901350606 0.0097676101941033266 -9999.8286280789471 -3330.3298419119837 -0.010417441576670794 -0.021693524469810654 -0.010417441576670794 -3330.3233028368613 0.0070742176631028997 -0.021693524469810654 0.0070742176631028997 -9999.8323837078206 -3330.2910669413686 -0.015301866495944338 -0.031984211669623619 -0.015301866495944338 -3330.2914828183602 -0.02318080689656199 -0.031984211669623619 -0.02318080689656199 -9999.7524441131609 -3330.2817614961514 -0.011282312550319862 -0.0063825567740423139 -0.011282312550319862 -3330.296555972538 -0.021547181106143398 -0.0063825567740423139 -0.021547181106143398 -9999.7845459958189 -3330.3070748447644 -0.011180626599074817 -0.0022317856783047318 -0.011180626599074817 -3330.3228532201974 0.012117899765144102 -0.0022317856783047318 0.012117899765144102 -9999.8505114573272 -3330.3031999707418 -0.012211081457671802 -0.017033736758094165 -0.012211081457671802 -3330.321114772978 0.021183715398365166 -0.017033736758094165 0.021183715398365166 -9999.8491081270186 -3330.2820043939973 -0.011684768081003716 -0.025392228444616194 -0.011684768081003716 -3330.3086458511589 0.0095490801031701267 -0.025392228444616194 0.0095490801031701267 -9999.8167600818924 -3330.2937418012534 -0.00036439050655823202 -0.012620762314327294 -0.00036439050655823202 -3330.3240113712291 -0.01158371092606103 -0.012620762314327294 -0.01158371092606103 -9999.8474677342019 -3330.2718214115575 -0.013315309375891982 -0.030289410373370629 -0.013315309375891982 -3330.2932358017133 -0.0069048460527483257 -0.030289410373370629 -0.0069048460527483257 -9999.7812309319634 -3330.300790486639 -0.016685569996398419 -0.042749163432745263 -0.016685569996398419 -3330.3036702934951 -0.0088089282144210301 -0.042749163432745263 -0.0088089282144210301 -9999.7910818236778 -3330.3044248763181 -0.010204980529277263 -0.034986331393156433 -0.010204980529277263 -3330.2948053597902 -0.019616712770584854 -0.034986331393156433 -0.019616712770584854 -9999.7566142322612 -3330.279409858631 0.00088411577346458881 -0.076700324005287257 0.00088411577346458881 -3330.2576470856166 0.005526476521481527 -0.076700324005287257 0.005526476521481527 -9999.6138738364643 -3330.2395241185986 -0.0082798635195565629 -0.10542832311148231 -0.0082798635195565629 -3330.2401210787448 -0.03970129051413096 -0.10542832311148231 -0.03970129051413096 -9999.4588201010556 -3330.1983351241324 -0.023855517656034886 -0.082192084468260873 -0.023855517656034886 -3330.230715125459 -0.067287179570485023 -0.082192084468260873 -0.067287179570485023 -9999.4461713641176 -3330.2524843231731 -0.026288485055618871 -0.13144889986415365 -0.026288485055618871 -3330.2422875791235 -0.031399295956362039 -0.13144889986415365 -0.031399295956362039 -9999.5748290903539 -3330.2366476753414 -0.016685569996398419 -0.065369680194635293 -0.016685569996398419 -3330.2395274821974 -0.0079251792267314158 -0.065369680194635293 -0.0079251792267314158 -9999.5986533897849 -3330.2005565727486 0.0030005647414337311 -0.049920626250241185 0.0030005647414337311 -3330.2375140208842 -0.015377088751847623 -0.049920626250241185 -0.015377088751847623 -9999.6244087393934 -3330.2217911964926 -0.013315309375892426 -0.046764903032453731 -0.013315309375892426 -3330.2432055866484 -0.0081775612316050683 -0.046764903032453731 -0.0081775612316050683 -9999.6311402867723 -3330.1461596072222 -0.0078408036331394371 -0.096050432457559509 -0.0078408036331394371 -3330.2014937737804 -0.025989751306951803 -0.096050432457559509 -0.025989751306951803 -9999.5380494600322 -3330.1684402574629 -0.015953640612046238 -0.083494784820686618 -0.015953640612046238 -3330.2179180682506 -0.010695032557123341 -0.083494784820686618 -0.010695032557123341 -9999.576199181829 -3330.2296857269648 -0.010751923179296408 -0.03835596611679648 -0.010751923179296408 -3330.2476135271536 -0.013327819557162002 -0.03835596611679648 -0.013327819557162002 -9999.6342159045162 -3330.189202471639 -0.0078408036331394371 -0.038505994227307383 -0.0078408036331394371 -3330.2445366381971 0.0059691667761399003 -0.038505994227307383 0.0059691667761399003 -9999.6671780532743 -3330.2425976975364 -0.0090825695288507813 -0.019857815944305912 -0.0090825695288507813 -3330.2396682920253 -0.0054523644357686862 -0.019857815944305912 -0.0054523644357686862 -9999.6793097732043 -3329.7627329641555 0.077096110935036211 -0.18793708871089621 0.077096110935036211 -3330.047258145285 -0.038477457435874385 -0.18793708871089621 -0.038477457435874385 -9999.4052195367403 -3330.1691143209409 0.0091997094209188557 -0.039976558722628397 0.0091997094209188557 -3330.2524426369109 0.0026141927155549638 -0.039976558722628397 0.0026141927155549638 -9999.6641325152777 -3330.1903300634904 -0.24714920245769867 0.0022689075103698997 -0.24714920245769867 -3329.8735422718901 -0.31693702206030139 0.0022689075103698997 -0.31693702206030139 -9999.040117041277 -3330.2531185810158 -0.026288485055618871 -0.13142750638053258 -0.026288485055618871 -3330.2429218369662 -0.02984174150878971 -0.13142750638053258 -0.02984174150878971 -9999.5767318638755 -3330.3736018353002 0.043778986978896206 -0.19231083730664977 0.043778986978896206 -3330.4167679938701 0.042438494464477117 -0.19231083730664977 0.042438494464477117 -9999.650314216673 -3329.8712290900021 -0.35874823445682225 0.20487007452175021 -0.35874823445682225 -3330.0576129248702 -0.18555152224325866 0.20487007452175021 -0.18555152224325866 -9999.3134627870932 -3330.2270791895771 0.014334126211292375 -0.036970845663745422 0.014334126211292375 -3330.2390221692258 -0.062174483880880871 -0.036970845663745422 -0.062174483880880871 -9999.5676614544791 -3330.2041426005344 0.010265134378707019 0.0075817867727892008 0.010265134378707019 -3330.2036536259147 0.035810096847853856 0.0075817867727892008 0.035810096847853856 -9999.6612179835975 -3330.1863912669278 0.0469566092102085 0.015739332229713909 0.0469566092102085 -3330.2458363566557 0.0093014513570324198 0.015739332229713909 0.0093014513570324198 -9999.6668001817088 -3330.1734625862546 0.030492346414675686 0.0045818928265362047 0.030492346414675686 -3330.142556868017 0.024420713534709648 0.0045818928265362047 0.024420713534709648 -9999.6377481393829 -3329.8180428163096 -0.062747709388959683 0.23006229698330571 -0.062747709388959683 -3330.3838976479656 0.11238587175034809 0.23006229698330571 0.11238587175034809 -9999.5701724511491 -3330.2432514174707 -0.0049104814988536472 0.077701785028693848 -0.0049104814988536472 -3330.2217032333829 0.045618763891980052 0.077701785028693848 0.045618763891980052 -9999.6755075896981 -3330.1664616505259 0.0062321078487628245 -0.036888510887365555 0.0062321078487628245 -3330.2255484514117 -0.013812918734402047 -0.036888510887365555 -0.013812918734402047 -9999.6128936164678 -3330.1890529161501 0.010265134378707463 -0.049167551391292363 0.010265134378707463 -3330.1885639415304 -0.021344327837141464 -0.049167551391292363 -0.021344327837141464 -9999.6159489304409 -3330.2277182736198 -0.0090825695288512254 -0.073904034415136266 -0.0090825695288512254 -3330.2247888681086 -0.051580158102296991 -0.073904034415136266 -0.051580158102296991 -9999.6346715014515 -3330.2052631008537 0.0013696206456266236 -0.027221182044740999 0.0013696206456266236 -3330.2350651821307 -0.0086393896599474829 -0.027221182044740999 -0.0086393896599474829 -9999.6322855244252 -3330.1769880518023 0.010939535451262805 -0.037772655512526399 0.010939535451262805 -3330.2286167312832 -0.012614828927326016 -0.037772655512526399 -0.012614828927326016 -9999.6162922867552 -3330.2764198787627 0.0046517008157320738 -0.013617545599117875 0.0046517008157320738 -3330.2182643731612 -0.016371450215046934 -0.013617545599117875 -0.016371450215046934 -9999.6452157790009 -3330.2311799539584 -0.00037935022289914411 0.0011272915253357496 -0.00037935022289914411 -3330.2439070837554 -0.004673891296988586 0.0011272915253357496 -0.004673891296988586 -9999.6409752131112 -3330.2041225376634 -0.0049104814988534251 0.032523842737646191 -0.0049104814988534251 -3330.1825743535755 -0.019803640698228264 0.032523842737646191 -0.019803640698228264 -9999.5581209502743 -3330.2807104861458 -0.00037935022289903308 0.011660938369459473 -0.00037935022289903308 -3330.2934376159428 -0.0011679617819027044 0.011660938369459473 -0.0011679617819027044 -9999.7895668096753 -3330.2631638061375 0.0013696206456268456 -0.016539676351385424 0.0013696206456268456 -3330.2929658874145 -0.0055411183784599416 -0.016539676351385424 -0.0055411183784599416 -9999.8059876402767 -3330.2905113773249 -0.010751923179296852 -0.021251430131087545 -0.010751923179296852 -3330.3084391775137 -0.01130037637631176 -0.021251430131087545 -0.01130037637631176 -9999.816692855602 -3330.2956540888172 -0.0028735428511065253 -0.019598433555074735 -0.0028735428511065253 -3330.3200187256425 0.020232453582138987 -0.019598433555074735 0.020232453582138987 -9999.8621954860428 -3330.2825207418755 0.0066668900385469243 -0.012214148555358406 0.0066668900385469243 -3330.3181540756414 -0.011534907414443296 -0.012214148555358406 -0.011534907414443296 -9999.8431981454632 -3330.2885247717422 -0.00093584670605229014 -0.00022807905406807549 -0.00093584670605229014 -3330.3018411748853 -0.0032593866208117106 -0.00022807905406807549 -0.0032593866208117106 -9999.8145467035501 -3330.2733891436783 0.0012225605360479674 -0.027194235870410921 0.0012225605360479674 -3330.3028173969833 0.0087643619153823238 -0.027194235870410921 0.0087643619153823238 -9999.8370810762499 -3330.2938034921444 -0.0056558088639422355 -0.015806223742401926 -0.0056558088639422355 -3330.3204789254869 0.020762923119036714 -0.015806223742401926 0.020762923119036714 -9999.8618478868375 -3330.2868432262512 0.0049713141450107717 -0.0016562795899517369 0.0049713141450107717 -3330.3001876212693 -0.00022446735874837032 -0.0016562795899517369 -0.00022446735874837032 -9999.8158468839029 -3330.2838585809477 0.002107849731917133 0.0065978786406049039 0.002107849731917133 -3330.2905394291538 -0.0061199805295473197 0.0065978786406049039 -0.0061199805295473197 -9999.789629286679 -3330.277619032322 0.0045515014789057062 0.011635895971267018 0.0045515014789057062 -3330.286594474821 -0.0015628878645657096 0.011635895971267018 -0.0015628878645657096 -9999.7870831609325 -3330.2774250866642 0.0030977521526530244 0.012580036824147101 0.0030977521526530244 -3330.2814055847102 0.00070045050097178319 0.012580036824147101 0.00070045050097178319 -9999.7705279477814 -3330.2787264941617 0.0092827935455233324 0.013636843884341943 0.0092827935455233324 -3330.2811871454742 -0.012025040196022019 0.013636843884341943 -0.012025040196022019 -9999.7707986898386 -3330.2941390243886 0.0041410505431865342 0.025673482956335647 0.0041410505431865342 -3330.2830707744724 0.0014960138432797976 0.025673482956335647 0.0014960138432797976 -9999.775122729654 -3330.2867116347497 0.010569586239656176 -0.0013148562466085423 0.010569586239656176 -3330.2959875197921 -0.0043356999767638627 -0.0013148562466085423 -0.0043356999767638627 -9999.8147639606541 -3330.2998950282399 0.0097021022561982195 -0.002611996530504257 0.0097021022561982195 -3330.3070970668105 0.01675326217446127 -0.002611996530504257 0.01675326217446127 -9999.8570324441171 -3330.3009741866426 0.0078551915462632405 0.0051871248833776917 0.0078551915462632405 -3330.2967837958731 -0.0064990524369932245 0.0051871248833776917 -0.0064990524369932245 -9999.8185286676526 -3330.2792243051317 0.017034246589194221 0.0017078120363294147 0.017034246589194221 -3330.2808201013122 -0.0085456194410653552 0.0017078120363294147 -0.0085456194410653552 -9999.8091002736328 -3330.2846230535433 0.011795464849458079 0.0019828812769446813 0.011795464849458079 -3330.2939616471031 -0.0050100685039069504 0.0019828812769446813 -0.0050100685039069504 -9999.813735347183 -3330.2731835753202 0.0083196701973042853 -0.0050015068809443619 0.0083196701973042853 -3330.2914979466295 0.0019743196171475574 -0.0050015068809443619 0.0019743196171475574 -9999.8102595525052 -3330.284643214578 0.0069717399861355389 -0.011217417944862973 0.0069717399861355389 -3330.3114152335875 -0.0094708124183853215 -0.011217417944862973 -0.0094708124183853215 -9999.8413488624428 -3330.2868963712463 0.0057445529482746949 -0.013298509555170313 0.0057445529482746949 -3330.3099135064185 -0.012959531861270079 -0.013298509555170313 -0.012959531861270079 -9999.8415367198177 -3330.309619821739 0.0022040698674252734 0.005606814673228655 0.0022040698674252734 -3330.3324182711331 -0.0082535321889736224 0.005606814673228655 -0.0082535321889736224 -9999.8687868056513 -3330.2778645015769 0.0089155280416177707 0.00063406974368263036 0.0089155280416177707 -3330.2930919737646 0.0018472472656867467 0.00063406974368263036 0.0018472472656867467 -9999.8118282908545 -3330.2995873476048 0.0079552432778393634 -0.0027222399039601441 0.0079552432778393634 -3330.3188197170475 -0.022216269124328392 -0.0027222399039601441 -0.022216269124328392 -9999.8628790485891 -3330.2928736372887 0.0067148416462741167 -0.022262183796556201 0.0067148416462741167 -3330.3165102519451 -0.021775677716505015 -0.022262183796556201 -0.021775677716505015 -9999.860623254739 -3330.2958814408903 -6.6626571155303793e-05 -0.011625158396782354 -6.6626571155303793e-05 -3330.3172803095258 -0.0095197511654987466 -0.011625158396782354 -0.0095197511654987466 -9999.8456246879941 -3330.3044405670098 0.0043522789136818396 -0.0050959099316969514 0.0043522789136818396 -3330.3253326693321 -0.018336705591991631 -0.0050959099316969514 -0.018336705591991631 -9999.8497775594878 -3330.2999280303502 0.0098954691767003111 -0.0067391352986305719 0.0098954691767003111 -3330.3134855123153 -0.019518906083249021 -0.0067391352986305719 -0.019518906083249021 -9999.8456876360651 -3330.2676474827476 0.0061234823088176515 -0.031637592572224094 0.0061234823088176515 -3330.3073213782391 -0.017732081253143406 -0.031637592572224094 -0.017732081253143406 -9999.8128397358523 -3330.2893796671287 0.012588518341673079 -0.0061015638821118046 0.012588518341673079 -3330.2900315610223 -0.0083263926444487879 -0.0061015638821118046 -0.0083263926444487879 -9999.8286425095212 -3330.2944548210853 0.0097487977127057451 -0.0063467184822911804 0.0097487977127057451 -3330.3037071742274 -0.011477441345050465 -0.0063467184822911804 -0.011477441345050465 -9999.8333302013052 -3330.293723207571 0.008032898783065217 0.00014883903713780455 0.008032898783065217 -3330.2866595726045 -0.010474097996848286 0.00014883903713780455 -0.010474097996848286 -9999.8288853975246 -3330.2762521505065 0.016075690266521416 -0.0018602361669763923 0.016075690266521416 -3330.2830402707186 -0.0066085687012673588 -0.0018602361669763923 -0.0066085687012673588 -9999.8211574380766 -3330.3087713002915 0.0062907508152144631 -0.0073203488827857655 0.0062907508152144631 -3330.3019669452678 0.0024686344477231614 -0.0073203488827857655 0.0024686344477231614 -9999.8584692105942 -3330.2962444179284 0.0084609143440211865 -0.016607127483439399 0.0084609143440211865 -3330.2864790127533 -0.017939612935151672 -0.016607127483439399 -0.017939612935151672 -9999.8294705601438 -3330.3037776839356 0.0054661023578707751 -0.025538471451000078 0.0054661023578707751 -3330.3124516392381 -0.037898727168794721 -0.025538471451000078 -0.037898727168794721 -9999.8378470332755 -3330.3122149524152 0.00099277391691260375 -0.030208146474251407 0.00099277391691260375 -3330.317959402104 -0.041084095752012217 -0.030208146474251407 -0.041084095752012217 -9999.8469668693069 -3330.33915998468 -0.0091746003707780521 -0.028592179174665944 -0.0091746003707780521 -3330.3364435881376 0.017177761033963179 -0.028592179174665944 0.017177761033963179 -9999.8583241738816 -3330.3101227455154 0.0018365339088571297 -0.034989079435035819 0.0018365339088571297 -3330.3204962398704 -0.017498133413027972 -0.034989079435035819 -0.017498133413027972 -9999.8267522669557 -3330.3175552355005 0.0041233266150956238 -0.046027404561755247 0.0041233266150956238 -3330.328823332964 -0.015045375208501355 -0.046027404561755247 -0.015045375208501355 -9999.8510179227887 -3330.30690703441 0.0072630570412937079 -0.035045088938204572 0.0072630570412937079 -3330.3171179966084 -0.022250701536677298 -0.035045088938204572 -0.022250701536677298 -9999.8397959602371 -3330.2949947929355 0.0030457149127557925 -0.030762411633077136 0.0030457149127557925 -3330.3059632138757 -0.032001677915104665 -0.030762411633077136 -0.032001677915104665 -9999.8230370667079 -3330.2829849185237 0.0094866357746213326 -0.025890174378218944 0.0094866357746213326 -3330.2794975605175 -0.021113558461365756 -0.025890174378218944 -0.021113558461365756 -9999.8134181847709 -3330.2622391445948 0.0030005647414339531 -0.035226137460995233 0.0030005647414339531 -3330.2991965927304 -0.012886188658740139 -0.035226137460995233 -0.012886188658740139 -9999.8094564549392 -3330.2810925247068 0.0087883279298757166 -0.022535044387041125 0.0087883279298757166 -3330.308909533047 -0.023123955134451535 -0.022535044387041125 -0.023123955134451535 -9999.83129021692 -3330.1115569577414 -0.0042300811587530074 -0.096620355190680129 -0.0042300811587530074 -3330.1959035779091 -0.022017814976834416 -0.096620355190680129 -0.022017814976834416 -9999.5564747343124 -3330.1957969312862 0.027127904630353639 -0.058032342018123018 0.027127904630353639 -3330.2564770450936 -0.052226596216769394 -0.058032342018123018 -0.052226596216769394 -9999.6409787942939 -3330.137460850774 0.0091997094209188557 -0.091492826310059172 0.0091997094209188557 -3330.220789166744 -0.028941917913471116 -0.091492826310059172 -0.028941917913471116 -9999.569172104777 -3330.2290846044034 0.011795464849458412 -0.011398534057207144 0.011795464849458412 -3330.2384231979631 -0.012888005334389163 -0.011398534057207144 -0.012888005334389163 -9999.6471199997759 -3330.2324174141158 0.015737813925897237 -0.036419209056475665 0.015737813925897237 -3330.262879690923 -0.028238782153493958 -0.036419209056475665 -0.028238782153493958 -9999.6540673254385 -3330.2196738633884 0.0087883279298757166 -0.035138867104251403 0.0087883279298757166 -3330.2474908717286 -0.029967727957227908 -0.035138867104251403 -0.029967727957227908 -9999.6470342329631 -3330.2565388736966 0.0099084026568279984 0.013176909029425588 0.0099084026568279984 -3330.225122608852 -0.023320766676988569 0.013176909029425588 -0.023320766676988569 -9999.6483256708379 -3330.1514609068581 0.032570618980592637 0.019561587962016347 0.032570618980592637 -3330.1935352055716 -0.012484935376960493 0.019561587962016347 -0.012484935376960493 -9999.6035938055902 -3330.222752756401 0.017034246589194064 -0.0029864238713344093 0.017034246589194064 -3330.2243485525814 -0.017766872470019734 -0.0029864238713344093 -0.017766872470019734 -9999.6396856274478 -3330.2267494601747 0.029380366161478016 -0.0025626136900882557 0.029380366161478016 -3330.2443622184637 -0.012319507633947069 -0.0025626136900882557 -0.012319507633947069 -9999.6456882198581 -3330.2004727197982 0.025917266957078577 -0.034879053162512719 0.025917266957078577 -3330.1966597624287 -0.044731796773703536 -0.034879053162512719 -0.044731796773703536 -9999.6271934207543 -3330.1922080110126 0.033352485510827923 -0.045745139115751954 0.033352485510827923 -3330.1804139527212 -0.054208039855438983 -0.045745139115751954 -0.054208039855438983 -9999.6047247368952 -3330.231915214812 0.0094866357746212771 -0.021901744130445877 0.0094866357746212771 -3330.2284278568059 -0.026655217607185477 -0.021901744130445877 -0.026655217607185477 -9999.6602090736233 -3330.2228332502491 0.015116532395737523 -0.05689653482659196 0.015116532395737523 -3330.2566153458738 -0.09393485436521587 -0.05689653482659196 -0.09393485436521587 -9999.6477724492324 -3330.2229127491137 0.01908985026669241 -0.06172830005925789 0.01908985026669241 -3330.2678406905798 -0.089926038872363279 -0.06172830005925789 -0.089926038872363279 -9999.6342576058851 -3330.194373234086 0.0030457149127557093 -0.044325821895654371 0.0030457149127557093 -3330.2053416550261 -0.036384884151630104 -0.044325821895654371 -0.036384884151630104 -9999.5211723901484 -3330.2301996741771 -0.010204980529277263 -0.047161143516859738 -0.010204980529277263 -3330.2205801576492 -0.020539996934530791 -0.047161143516859738 -0.020539996934530791 -9999.5339386258311 -3330.2633184612496 0.010694150545455583 -0.091786502342074527 0.010694150545455583 -3330.2486149469642 -0.022355238183081383 -0.091786502342074527 -0.022355238183081383 -9999.6075929524523 -3330.2509253054814 0.030735260880120019 -0.083307342250918737 0.030735260880120019 -3330.2752865901184 -0.050462295158695269 -0.083307342250918737 -0.050462295158695269 -9999.6594632740998 -3330.2018886205697 0.0072630570412937079 -0.050360153880319558 0.0072630570412937079 -3330.2120995827681 -0.026452289119333727 -0.050360153880319558 -0.026452289119333727 -9999.5247407187089 -3330.3042385103745 0.08338446629449936 -0.23410575605430495 0.08338446629449936 -3330.2824619234443 -0.034805322662577964 -0.23410575605430495 -0.034805322662577964 -9999.599396867834 -3330.1952112962445 -0.0082798635195563408 -0.094553128164989175 -0.0082798635195563408 -3330.1958082563906 -0.087496630763780558 -0.094553128164989175 -0.087496630763780558 -9999.3258816339912 -3330.1310118837346 0.030735260880120241 -0.090605632860388141 0.030735260880120241 -3330.1553731683716 -0.080201016496630473 -0.090605632860388141 -0.080201016496630473 -9999.2997230088549 -3330.2478721707685 0.0070153086972197243 -0.089746868980000727 0.0070153086972197243 -3330.2703558096582 -0.15287201036153419 -0.089746868980000727 -0.15287201036153419 -9999.6678407217587 -3330.2428866980135 0.033352485510828034 -0.057132520551022026 0.033352485510828034 -3330.2310926397222 -0.075175311398197664 -0.057132520551022026 -0.075175311398197664 -9999.7567607979072 -3330.2090609705174 0.031705842998300211 -0.13578886296545534 0.031705842998300211 -3330.2195806482723 -0.25576329084651661 -0.13578886296545534 -0.25576329084651661 -9999.6454441313472 -3330.1095357490585 0.019089850266692354 -0.06935677012825181 0.019089850266692354 -3330.1544636905246 -0.1151769423904625 -0.06935677012825181 -0.1151769423904625 -9999.2941266057278 -3330.2645120339657 0.010417731156538212 0.0091515767890086863 0.010417731156538212 -3330.35450144879 0.031673183582825004 0.0091515767890086863 0.031673183582825004 -9999.6930370973423 -3330.2150690740382 0.043478727682816548 0.0042589160966599593 0.043478727682816548 -3330.224692059126 -0.031213714504701784 0.0042589160966599593 -0.031213714504701784 -9999.6482240099431 -3330.098736976106 0.093282817046256239 0.043616247381578432 0.093282817046256239 -3330.1239447566204 0.0056225271428047563 0.043616247381578432 0.0056225271428047563 -9999.5591846069656 -3330.1430150284004 0.043603752298314424 0.1053476441775274 0.043603752298314424 -3330.2086651463596 -0.065948883599958208 0.1053476441775274 -0.065948883599958208 -9999.6262037703418 -3330.154056987566 0.010968909979352404 -0.041892046774592018 0.010968909979352404 -3330.4038470041824 -0.057069692660661531 -0.041892046774592018 -0.057069692660661531 -9999.7388142224663 -3330.2417287112257 0.039189030608286879 0.017735102800315872 0.039189030608286879 -3330.2532184211814 0.0017630920810915995 0.017735102800315872 0.0017630920810915995 -9999.7230750076305 -3329.908284535114 0.017638240379225456 -0.22829823163738183 0.017638240379225456 -3330.1399368102893 -0.035210712231673824 -0.22829823163738183 -0.035210712231673824 -9999.4647770957308 -3330.2243681010186 0.027127904630353639 -0.049590642101975391 0.027127904630353639 -3330.285048214826 -0.046673677786884582 -0.049590642101975391 -0.046673677786884582 -9999.7266923034877 -3330.2496911661519 -0.0089136119421635573 0.077959818390809232 -0.0089136119421635573 -3330.2391766418741 0.049688026492731296 0.077959818390809232 0.049688026492731296 -9999.6814858789912 -3330.2098646737386 0.018962694318577666 0.018960994504595874 0.018962694318577666 -3330.2625047694009 0.020390320071783208 0.018960994504595874 0.020390320071783208 -9999.6773612877696 -3330.3683118754316 -0.068923507029647446 0.098870326379255857 -0.068923507029647446 -3330.3034101858675 0.082528507466122392 0.098870326379255857 0.082528507466122392 -9999.6436258027352 -3330.1635935513686 0.053177529833736248 0.03473051529181248 0.053177529833736248 -3330.3873075758811 -0.015232320331051596 0.03473051529181248 -0.015232320331051596 -9999.7370635063417 -3330.1947114032446 0.027916413003360008 0.036988748744988698 0.027916413003360008 -3330.2230898205416 0.050611852131623891 0.036988748744988698 0.050611852131623891 -9999.6637192329326 -3330.2157864960373 -0.010359231247779196 0.049533581253854209 -0.010359231247779196 -3330.2108586458726 0.037901404245076264 0.049533581253854209 0.037901404245076264 -9999.5823565728861 -3329.9744596219853 0.14963103297589697 0.17556584801423014 0.14963103297589697 -3330.227876508502 0.18463963239628356 0.17556584801423014 0.18463963239628356 -9999.4052501615806 -3330.227029655789 0.0030977521526529689 0.012306137612540624 0.0030977521526529689 -3330.2310101538351 -0.00043235429393462255 0.012306137612540624 -0.00043235429393462255 -9999.6193416551541 -3330.2105622863437 -0.0089136119421637794 0.032781876097942586 -0.0089136119421637794 -3330.2000477620659 -0.015734378101114999 0.032781876097942586 -0.015734378101114999 -9999.5640992395674 -3330.1947493042717 -0.010359231247779141 0.047693818241896224 -0.010359231247779141 -3330.189821454107 -0.018690907164909731 0.047693818241896224 -0.018690907164909731 -9999.5192449975912 -3330.2484075569537 -0.018898156505147701 0.018294115283424617 -0.018898156505147701 -3330.2079322201953 -0.028839150125349988 0.018294115283424617 -0.028839150125349988 -9999.5755316717514 -3330.2165908958905 0.006971739986135761 -0.023252005863469094 0.006971739986135761 -3330.2433629149 -0.014017954856626602 -0.023252005863469094 -0.014017954856626602 -9999.6371919063786 -3330.2280885001346 0.0045515014789059283 0.0011022491271432955 0.0045515014789059283 -3330.2370639426335 -0.0050688173723756336 0.0011022491271432955 -0.0050688173723756336 -9999.6384915643685 -3330.198254322615 0.018962694318577444 -0.023411974576447392 0.018962694318577444 -3330.2508944182773 -0.026677598440983274 -0.023411974576447392 -0.026677598440983274 -9999.6425302344069 -3330.2144292879821 0.0083196701973040632 -0.017661286015936639 0.0083196701973040632 -3330.2327436592914 -0.0046457326243398711 -0.017661286015936639 -0.0046457326243398711 -9999.6339966904961 -3330.1729365135507 0.027916413003359786 0.0053527768704952905 0.027916413003359786 -3330.2013149308477 0.0083632095920620486 0.0053527768704952905 0.0083632095920620486 -9999.5983945638509 -3330.2163443344962 0.0090887208950982679 -0.013770987436146243 0.0090887208950982679 -3330.2403364919119 -0.010515551968637737 -0.013770987436146243 -0.010515551968637737 -9999.6444132557881 -3330.1708380530672 0.023634476229528856 0.021624311595587642 0.023634476229528856 -3330.2003588818316 0.0079963150710682385 0.021624311595587642 0.0079963150710682385 -9999.5976309364705 -3330.2016882644766 0.043478727682816722 0.010343522248149384 0.043478727682816722 -3330.2113112495645 -0.01047667062630353 0.010343522248149384 -0.01047667062630353 -9999.6080815812602 -3330.2039261025129 0.039189030608286546 0.01134322067150606 0.039189030608286546 -3330.2154158124686 0.0023727658262941986 0.01134322067150606 0.0023727658262941986 -9999.6096671814958 -3330.2546068704014 0.016583460496949365 0.022076104149164166 0.016583460496949365 -3330.2582406502243 -0.0035754472919506952 0.022076104149164166 -0.0035754472919506952 -9999.6330435829041 -3330.2762504961011 -0.041312662995951537 0.05390774194165715 -0.041312662995951537 -3330.2487300745033 -0.034849355412006844 0.05390774194165715 -0.034849355412006844 -9999.5543474506485 -3330.2198138786225 0.0092827935455233462 0.02229917831482453 0.0092827935455233462 -3330.222274529935 -0.019741470980079612 0.02229917831482453 -0.019741470980079612 -9999.5940608432211 -3330.1981228026052 -0.0072935809318206424 0.049451440426082627 -0.0072935809318206424 -3330.1980522479316 -0.039855228995293146 0.049451440426082627 -0.039855228995293146 -9999.5221460706271 -3330.2416084906145 0.023574470242959514 0.012296948716539191 0.023574470242959514 -3330.2616764494487 -0.00032170668691833271 0.012296948716539191 -0.00032170668691833271 -9999.6306529377616 -3330.1445082892051 0.27771866804842971 0.12504669872578233 0.27771866804842971 -3329.9200726794779 0.19302804734979873 0.12504669872578233 0.19302804734979873 -9999.2237021530564 -3330.1866466381034 -0.037521299389502355 0.047009349076688522 -0.037521299389502355 -3330.1402243173688 0.068296822917545796 0.047009349076688522 0.068296822917545796 -9999.5574130262794 -3330.1849484721197 -0.0072935809318206493 0.032639870009688821 -0.0072935809318206493 -3330.1848779174461 0.033663942846033024 0.032639870009688821 0.033663942846033024 -9999.4826230791732 -3330.3700589611681 0.050982875186205312 0.10982434366314919 0.050982875186205312 -3330.1950624569581 0.044566798982486944 0.10982434366314919 0.044566798982486944 -9999.6447945283144 -3330.2087407820154 0.016583460496949365 0.0054246312720351852 0.016583460496949365 -3330.2123745618383 0.042719052762549836 0.0054246312720351852 0.042719052762549836 -9999.4954453177452 -3330.403123661461 0.076342790168667185 0.093553116514158319 0.076342790168667185 -3330.4081452608261 -0.010165238772060547 0.093553116514158319 -0.010165238772060547 -9999.7063314043553 -3330.2187715524169 0.0026177526831085984 0.015411560729262419 0.0026177526831085984 -3330.2069190662942 0.076312401017275988 0.015411560729262419 0.076312401017275988 -9999.4965891364627 -3330.1871503088005 -0.020288061614284869 -0.031771307407325367 -0.020288061614284869 -3330.2085027557441 0.067762574912194395 -0.031771307407325367 0.067762574912194395 -9999.4890797479202 -3330.19581515558 -0.013708992810901544 0.0020427577437658329 -0.013708992810901544 -3330.2006319626935 -0.00070654924456903245 0.0020427577437658329 -0.00070654924456903245 -9999.4892782613533 -3330.4987961349016 -0.017176348552107035 -0.11717886601945793 -0.017176348552107035 -3329.8443623390031 0.21377457016933477 -0.11717886601945793 0.21377457016933477 -9999.4258964292094 -3330.2343088218113 -0.016691615508340252 0.0091747896940432838 -0.016691615508340252 -3330.286130440245 -0.021545973293541465 0.0091747896940432838 -0.021545973293541465 -9999.6156784393061 -3330.2339760123814 -0.013708992810901766 0.033721756753948284 -0.013708992810901766 -3330.2387928194948 -0.071250418102863478 0.033721756753948284 -0.071250418102863478 -9999.6037608317602 -3330.239055867798 0.0029771982975861366 0.016117230927193305 0.0029771982975861366 -3330.2240383908138 -0.026685805200031609 0.016117230927193305 -0.026685805200031609 -9999.5993123057415 -3330.2343847993525 0.00020811089883554512 0.0042690208829299081 0.00020811089883554512 -3330.2168316507559 -0.0026947067963192239 0.0042690208829299081 -0.0026947067963192239 -9999.5963428536124 -3330.2332328640387 -0.0016718851667583134 0.016114603307869402 -0.0016718851667583134 -3330.2174001643489 -0.00054821435332996771 0.016114603307869402 -0.00054821435332996771 -9999.5961969981799 -3330.2267540142657 0.0078551915462631294 0.0114789403960458 0.0078551915462631294 -3330.2225636234962 -0.016141339281602995 0.0114789403960458 -0.016141339281602995 -9999.595868150529 -3330.2629818102523 0.0020201019347059201 0.035993065816001035 0.0020201019347059201 -3330.229463995629 -0.011689930597640341 0.035993065816001035 -0.011689930597640341 -9999.6404562289572 -3330.2722186436495 -0.0019896727942466663 0.039188918325635314 -0.0019896727942466663 -3330.2530844120611 -0.00093994115377427079 0.039188918325635314 -0.00093994115377427079 -9999.6486705414136 -3330.2398318381656 0.0026177526831085984 0.049967810404268675 0.0026177526831085984 -3330.2279793520429 0.018231113988804282 0.049967810404268675 0.018231113988804282 -9999.5597699937061 -3330.2082105945483 -0.020288061614284647 0.0027849422676808899 -0.020288061614284647 -3330.2295630414919 0.0096812878819036996 0.0027849422676808899 0.0096812878819036996 -9999.5522606051636 -3330.2128017154228 -0.0052088752105889924 0.043570581374297035 -0.0052088752105889924 -3330.2237029632524 0.024628343027870869 0.043570581374297035 0.024628343027870869 -9999.5519433658228 -3330.247904704449 -0.21933761687411435 -0.073032019812671933 -0.21933761687411435 -3329.9342562189795 0.21387722891449812 -0.073032019812671933 0.21387722891449812 -9999.2831866950182 -3329.8330351347622 0.11307282170507627 0.12220809703103441 0.11307282170507627 -3330.0197355723967 0.028116873449107516 0.12220809703103441 0.028116873449107516 -9999.4667068505732 -3330.2486254798714 -0.0091724630546718422 0.069416476505466562 -0.0091724630546718422 -3330.2205824294597 0.013971401256640092 0.069416476505466562 0.013971401256640092 -9999.6208161511131 -3330.1941978777422 0.010523112054852568 -0.0078063219698378816 0.010523112054852568 -3330.219338245538 -0.028344169202682679 -0.0078063219698378816 -0.028344169202682679 -9999.7016928879457 -3330.2306473129483 -0.010520979264805108 0.0038540641035069712 -0.010520979264805108 -3330.2148138739494 -0.0081477880206080044 0.0038540641035069712 -0.0081477880206080044 -9999.7096741538517 -3330.2219456027988 0.024576694595928261 0.0084601426242443267 0.024576694595928261 -3330.2392346932056 -0.045950915060529951 0.0084601426242443267 -0.045950915060529951 -9999.7535610374762 -3330.2048473190507 0.013602352700641918 0.0047002288629300892 0.013602352700641918 -3330.2331048095102 -0.038697868290910264 0.0047002288629300892 -0.038697868290910264 -9999.7477539956126 -3330.2151401527917 0.025247726047200159 -0.07721893783127598 0.025247726047200159 -3330.1953224489043 -0.1013045255713223 -0.07721893783127598 -0.1013045255713223 -9999.7059031183817 -3330.2007195694514 -0.00053182257432204949 -0.067618761089761392 -0.00053182257432204949 -3330.3035378745317 -0.054086106749309693 -0.067618761089761392 -0.054086106749309693 -9999.7643303244731 -3330.2308862144064 0.014861324915988128 -0.045986460008862196 0.014861324915988128 -3330.2325143571825 -0.05803660296749058 -0.045986460008862196 -0.05803660296749058 -9999.7191376108531 -3330.0835681246426 0.060291232232910441 -0.055533143786306027 0.060291232232910441 -3330.1955333498672 -0.037343293159210589 -0.055533143786306027 -0.037343293159210589 -9999.7080413321019 -3329.8905626072574 -0.38817036360907631 -0.23613659269176424 -0.38817036360907631 -3330.068560982465 0.10864206486803596 -0.23613659269176424 0.10864206486803596 -9999.4421466600579 -3330.2580126894682 0.0042115829590857468 -0.024912251888054016 0.0042115829590857468 -3330.208406356478 -0.018468055957782781 -0.024912251888054016 -0.018468055957782781 -9999.7149136186126 -3330.239457394423 0.016074248455434259 -0.043297267631714931 0.016074248455434259 -3330.1726183405781 -0.062179767573979916 -0.043297267631714931 -0.062179767573979916 -9999.7063064017057 -3330.1712255669963 0.054318151354303068 -0.03438170861954859 0.054318151354303068 -3330.0305097069522 -0.034869636272560456 -0.03438170861954859 -0.034869636272560456 -9999.6487426756139 -3330.233266314197 -0.0075194778272711371 0.0062817447078487021 -0.0075194778272711371 -3330.2300572639579 -0.0028705255099339411 0.0062817447078487021 -0.0028705255099339411 -9999.6533765727036 -3330.214433172252 0.016074248455434037 0.016495446123371948 0.016074248455434037 -3330.1475941184071 0.0043160951536265202 0.016495446123371948 0.0043160951536265202 -9999.6312337351883 -3330.1989523851589 0.012291678483973945 0.001863631388914655 0.012291678483973945 -3330.210740805649 -0.01052292231543106 0.001863631388914655 -0.01052292231543106 -9999.6399689758655 -3330.2181432600337 0.0016310810319890567 -0.0041482983324385714 0.0016310810319890567 -3330.2215436247061 -0.012669766503677238 -0.0041482983324385714 -0.012669766503677238 -9999.6492828458031 -3330.2349799116291 0.0042115829590857468 0.028124099610977282 0.0042115829590857468 -3330.185373578639 0.024457513995002955 0.028124099610977282 0.024457513995002955 -9999.6458152850901 -3330.2482346138804 0.026652875037108892 0.017317049976554699 0.026652875037108892 -3330.2148218250841 0.01785358816414373 0.017317049976554699 0.01785358816414373 -9999.6329379932286 -3330.232144816855 0.0029016596213928825 -0.009296612253820058 0.0029016596213928825 -3330.2239324639904 -0.014888811874698149 -0.009296612253820058 -0.014888811874698149 -9999.6591426259256 -3330.2260735080908 0.006190180062479067 -0.020224679885359365 0.006190180062479067 -3330.2169365214941 -0.030028013683477184 -0.020224679885359365 -0.030028013683477184 -9999.6558758131141 -3330.1784528639964 0.025247726047200159 -0.042676554790887167 0.025247726047200159 -3330.158635160109 -0.060379365262633655 -0.042676554790887167 -0.060379365262633655 -9999.5958412520013 -3330.222616477593 0.0051918522297524916 -0.01714630543392559 0.0051918522297524916 -3330.2177275049162 -0.033849005689262412 -0.01714630543392559 -0.033849005689262412 -9999.6494471202423 -3330.2239472165274 0.0044226569303082996 -0.0030640804798167665 0.0044226569303082996 -3330.2197572281675 -0.014340191077621967 -0.0030640804798167665 -0.014340191077621967 -9999.6502872357923 -3330.2045894984876 0.014861324915988128 0.00044916368642589077 0.014861324915988128 -3330.2062176412637 -0.0083436908965950352 0.00044916368642589077 -0.0083436908965950352 -9999.6402474630995 -3330.2241261638101 0.011509786295907043 0.0038590971598750912 0.011509786295907043 -3330.2247292288594 -0.015177637653323472 0.0038590971598750912 -0.015177637653323472 -9999.6573371538871 -3330.173577128402 0.024576694595928483 0.036695673319627531 0.024576694595928483 -3330.1908662188089 -0.018372390520198678 0.036695673319627531 -0.018372390520198678 -9999.6084556142887 -3330.2156248705505 0.0061958940837661958 0.0038627844824077329 0.0061958940837661958 -3330.2186308318614 -0.015184750664047897 0.0038627844824077329 -0.015184750664047897 -9999.6536872313191 -3330.156478844654 0.013602352700641474 0.032935759556494304 0.013602352700641474 -3330.1847363351135 -0.011119343751488486 0.032935759556494304 -0.011119343751488486 -9999.6026485724178 -3330.1924254435344 0.017840111422900762 0.012882220038591186 0.017840111422900762 -3330.202347093762 -0.0086232951823603798 0.012882220038591186 -0.0086232951823603798 -9999.6362388124835 -3330.2354350246078 -0.0069914818482392782 0.01372312354578753 -0.0069914818482392782 -3330.2309717798198 -0.007166807580688328 0.01372312354578753 -0.007166807580688328 -9999.6541473792713 -3330.1617438882859 0.010523112054852568 0.047797475508559728 0.010523112054852568 -3330.1868842560816 0.00025570627803972457 0.047797475508559728 0.00025570627803972457 -9999.6043309195775 -3330.1953630165208 -0.0088474344409615879 0.036771821141883265 -0.0088474344409615879 -3330.215677934988 -0.0044750901579391211 0.036771821141883265 -0.0044750901579391211 -9999.6201050153613 -3330.2540893637542 -0.0091724630546717312 0.07991271266610056 -0.0091724630546717312 -3330.2260463133425 0.0088609582071512705 0.07991271266610056 0.0088609582071512705 -9999.6372078027598 -3330.2354816345742 -0.0061142303979603296 0.030467470941403008 -0.0061142303979603296 -3330.2244268420163 -0.0061643357148568612 0.030467470941403008 -0.0061643357148568612 -9999.6323218966245 -3330.2840990091918 -0.0069914818482392782 0.0021283587157086004 -0.0069914818482392782 -3330.2796357644038 -0.004091946652806655 0.0021283587157086004 -0.004091946652806655 -9999.8001393330123 -3330.2922259794268 -0.0061142303979604407 0.013917797509748198 -0.0061142303979604407 -3330.281171186869 -0.00093297601779340766 0.013917797509748198 -0.00093297601779340766 -9999.802554931186 -3330.270109281375 0.0061958940837659737 0.0046194516380637651 0.0061958940837659737 -3330.2731152426859 -0.0088409048039466143 0.0046194516380637651 -0.0088409048039466143 -9999.8171404637906 -3330.2786105746327 0.011509786295907043 0.0046157643191691022 0.011509786295907043 -3330.279213639682 -0.0088337917932221899 0.0046157643191691022 -0.0088337917932221899 -9999.8207903863513 -3330.2759910537461 0.0051918522297521585 -0.021980156592690037 0.0051918522297521585 -3330.2711020810693 -0.028977116897294763 -0.021980156592690037 -0.028977116897294763 -9999.8095708487017 -3330.2859621601074 0.0044226569303085217 -0.005516139164683409 0.0044226569303085217 -3330.2817721717474 -0.0080718718513708154 -0.005516139164683409 -0.0080718718513708154 -9999.8363320665303 -3330.2719881987996 0.0016310810319888347 -0.011325421190122142 0.0016310810319888347 -3330.275388563472 -0.0095175889910024125 -0.011325421190122142 -0.0095175889910024125 -9999.8108176621099 -3330.287837431546 -0.0075194778272713592 -0.0061199585006761481 -0.0075194778272713592 -3330.2846283813069 -0.00050146305511589162 -0.0061199585006761481 -0.00050146305511589162 -9999.8170899247561 -3330.3051308727026 0.0010363740847059155 -0.0089379894525336567 0.0010363740847059155 -3330.2836014908225 -0.032703645363653777 -0.0089379894525336567 -0.032703645363653777 -9999.8599007320299 -3330.2895488772829 0.0058020151547371057 0.0015839713923924137 0.0058020151547371057 -3330.2738638043229 -0.019010816573427292 0.0015839713923924137 -0.019010816573427292 -9999.8352516539671 -3330.300520891642 -0.00053268034239672968 -0.0013344674262043554 -0.00053268034239672968 -3330.2783674118382 -0.0240657009271672 -0.0013344674262043554 -0.0240657009271672 -9999.8391205594307 -3330.2847884416587 -0.00786006110260562 -0.013698875838599633 -0.00786006110260562 -3330.2781313410032 0.0050459114700061036 -0.013698875838599633 0.0050459114700061036 -9999.7999355852808 -3330.3122868447917 0.0053458100295813438 -0.020098121400224045 0.0053458100295813438 -3330.2984716816154 -0.015509537556113173 -0.020098121400224045 -0.015509537556113173 -9999.8654072727513 -3330.2918475623846 0.0035215335777946111 -0.011102361862867838 0.0035215335777946111 -3330.2897083123225 -0.01637928116178955 -0.011102361862867838 -0.01637928116178955 -9999.8511736178771 -3330.3105662540074 0.005894036462225638 -0.0085144143449724652 0.005894036462225638 -3330.300423906996 0.00053795450730831362 -0.0085144143449724652 0.00053795450730831362 -9999.8654651813995 -3330.2990756685958 0.00029433373234377669 -0.0033137016780528938 0.00029433373234377669 -3330.2909833611793 -0.0055892584205139428 -0.0033137016780528938 -0.0055892584205139428 -9999.8532994066409 -3330.2886078378342 0.0074055835049882113 -0.0075083085757796653 0.0074055835049882113 -3330.2828317912681 -0.0080270703898577267 -0.0075083085757796653 -0.0080270703898577267 -9999.8372583908422 -3330.2944514888004 0.0066612723677342833 -0.012003130061202683 0.0066612723677342833 -3330.2907634391449 -0.016359023979021003 -0.012003130061202683 -0.016359023979021003 -9999.8520883811871 -3330.2994100867181 0.0096673204611352759 -0.019053305812121835 0.0096673204611352759 -3330.2963193710275 -0.002758910326519981 -0.019053305812121835 -0.002758910326519981 -9999.8547170136371 -3330.2966465655445 0.0022507145642233772 0.0078729842916800408 0.0022507145642233772 -3330.2822758260299 -0.013041456350038061 0.0078729842916800408 -0.013041456350038061 -9999.8260649306685 -3330.2749272548044 0.003414235819930278 0.0011549837854545331 0.003414235819930278 -3330.2756043975969 -0.014841539170447504 0.0011549837854545331 -0.014841539170447504 -9999.8189672458684 -3330.2956723222815 0.0033269014961199161 -0.012909779012261424 0.0033269014961199161 -3330.2850524036767 -0.017382691663442529 -0.012909779012261424 -0.017382691663442529 -9999.8395796650511 -3330.2883286762208 -0.0050197525793536091 0.0082858948244393105 -0.0050197525793536091 -3330.2751211279083 0.0058362537256471114 0.0082858948244393105 0.0058362537256471114 -9999.7821614988497 -3330.2963369867302 -0.0016718851667583134 0.006904096640937496 -0.0016718851667583134 -3330.2805042870405 0.0072180519109679153 0.006904096640937496 0.0072180519109679153 -9999.7855093662583 -3330.2974889220459 0.00020811089883576717 -0.0049414857821830083 0.00020811089883576717 -3330.2799357734493 0.0050715594661596697 -0.0049414857821830083 0.0050715594661596697 -9999.7856552216908 -3330.3042578748718 0.005501834833845809 0.0060229551381780766 0.005501834833845809 -3330.2876689977784 -0.011191427192898118 0.0060229551381780766 -0.011191427192898118 -9999.8293160509274 -3330.309361974485 0.0044689732339754373 0.014018077690707287 0.0044689732339754373 -3330.2975935218437 -0.021567921066889539 0.014018077690707287 -0.021567921066889539 -9999.857023294433 -3330.3084404903693 0.004920236198582062 0.0093447928693422 0.004920236198582062 -3330.3023588596025 -1.7657297576079145e-05 0.0093447928693422 -1.7657297576079145e-05 -9999.8340341702642 -3330.3092637344907 0.0075950560512260124 0.022888199106091633 0.0075950560512260124 -3330.3073216065586 0.0082687849062494934 0.022888199106091633 0.0082687849062494934 -9999.8594307556195 -3330.3066335332242 0.0079323497371499574 -0.028816167541663162 0.0079323497371499574 -3330.3054478580361 -0.012682530481470167 -0.028816167541663162 -0.012682530481470167 -9999.8583047681677 -3330.3035535679082 0.006504572216443627 -0.021270094886858715 0.006504572216443627 -3330.2948342738164 -0.027962355128693162 -0.021270094886858715 -0.027962355128693162 -9999.8548813807865 -3330.3051836300674 -0.00047837414235696318 -0.00066148822224931791 -0.00047837414235696318 -3330.2875375724561 -0.004296823768527247 -0.00066148822224931791 -0.004296823768527247 -9999.8114666902111 -3330.3109549271994 0.0029771982975861366 0.0064205920280073769 0.0029771982975861366 -3330.2959374502152 -0.018637123577718739 0.0064205920280073769 -0.018637123577718739 -9999.8150094839366 
</DataArray>
</CellData>
</Piece>
</UnstructuredGrid>
</VTKFile>
