<?xml version="1.0"?>
<VTKFile type="UnstructuredGrid" version="0.1" byte_order="LittleEndian">
<UnstructuredGrid>
<Piece NumberOfPoints="2160" NumberOfCells="540">
<Points>
<DataArray type="Float64" NumberOfComponents="3" format="ascii">
-4.3301270160527148 -2.500000004970083 -12 -5 -1.397247784140632e-08 -12 -2.9547160992544761 -1.820741508163664 -12 -2.9547160992544761 -1.820741508163664 -15 -2.5000000000000022 -4.3301270189221919 -12 -4.3301270160527148 -2.500000004970083 -12 -2.9547160992544761 -1.820741508163664 -12 -2.9547160992544761 -1.820741508163664 -15 -4.3301270160527148 -2.500000004970083 -15 -2.5000000000000022 -4.3301270189221919 -12 -2.9547160992544761 -1.820741508163664 -15 -4.3301270160527148 -2.500000004970083 -12 -5 -1.397247784140632e-08 -15 -4.3301270160527148 -2.500000004970083 -15 -2.9547160992544761 -1.820741508163664 -15 -4.3301270160527148 -2.500000004970083 -12 -0.66987297914647026 -2.499999999706382 -15 -2.2735805010731909 0.22641949675281539 -12 -2.9547160992544761 -1.820741508163664 -15 -0.66987297914647026 -2.499999999706382 -12 -2.5000000000000022 -4.3301270189221919 -12 -0.66987297914647026 -2.499999999706382 -12 -0.66987297914647026 -2.499999999706382 -15 -2.9547160992544761 -1.820741508163664 -15 -2.2735805010731909 0.22641949675281539 -12 -0.66987297914647026 -2.499999999706382 -12 -2.9547160992544761 -1.820741508163664 -12 -2.9547160992544761 -1.820741508163664 -15 -0.66987297914647026 -2.499999999706382 -12 -2.5000000000000022 -4.3301270189221919 -12 -2.9547160992544761 -1.820741508163664 -12 -2.9547160992544761 -1.820741508163664 -15 -2.5000000000000022 -4.3301270189221919 -15 6.9142305214597846e-09 -5 -12 -0.66987297914647026 -2.499999999706382 -15 -2.5000000000000022 -4.3301270189221919 -12 -2.5000000000000022 -4.3301270189221919 -15 -0.66987297914647026 -2.499999999706382 -15 -2.9547160992544761 -1.820741508163664 -15 -2.5000000000000022 -4.3301270189221919 -12 -4.3301270160527148 -2.500000004970083 -15 -2.5000000000000022 -4.3301270189221919 -15 -2.9547160992544761 -1.820741508163664 -15 -2.5000000000000022 -4.3301270189221919 -12 -2.5000000000000022 -4.3301270189221919 -15 6.9142305214597846e-09 -5 -15 -0.66987297914647026 -2.499999999706382 -15 6.9142305214597846e-09 -5 -12 -0.66987297914647026 -2.499999999706382 -15 6.9142305214597846e-09 -5 -15 0.91506351643986317 -3.4150635091400758 -15 6.9142305214597846e-09 -5 -12 -0.66987297914647026 -2.499999999706382 -15 6.9142305214597846e-09 -5 -12 0.91506351643986317 -3.4150635091400758 -15 -0.66987297914647026 -2.499999999706382 -12 0.20080558631870429 0.033909897404034287 -15 -0.66987297914647026 -2.499999999706382 -15 0.95458002071209891 -1.657898275923388 -15 -0.66987297914647026 -2.499999999706382 -12 0.95458002071209891 -1.657898275923388 -15 -0.66987297914647026 -2.499999999706382 -15 0.91506351643986317 -3.4150635091400758 -15 -0.66987297914647026 -2.499999999706382 -12 0.95458002071209891 -1.657898275923388 -15 -0.66987297914647026 -2.499999999706382 -12 0.91506351643986317 -3.4150635091400758 -15 0.91506351643986317 -3.4150635091400758 -12 2.3883545080289421 -0.94497882694672608 -12 0.95458002071209891 -1.657898275923388 -12 0.95458002071209891 -1.657898275923388 -15 2.217625015551433 -2.5696135239339939 -15 2.3883545080289421 -0.94497882694672608 -15 0.95458002071209891 -1.657898275923388 -15 2.217625015551433 -2.5696135239339939 -15 2.3883545080289421 -0.94497882694672608 -12 0.95458002071209891 -1.657898275923388 -15 0.91506351643986317 -3.4150635091400758 -12 2.217625015551433 -2.5696135239339939 -15 0.95458002071209891 -1.657898275923388 -12 0.95458002071209891 -1.657898275923388 -15 0.91506351643986317 -3.4150635091400758 -15 2.217625015551433 -2.5696135239339939 -15 0.91506351643986317 -3.4150635091400758 -12 0.91506351643986317 -3.4150635091400758 -15 2.500000010727558 -4.3301270127286351 -15 2.217625015551433 -2.5696135239339939 -15 2.500000010727558 -4.3301270127286351 -12 6.9142305214597846e-09 -5 -15 2.500000010727558 -4.3301270127286351 -12 0.91506351643986317 -3.4150635091400758 -15 6.9142305214597846e-09 -5 -12 6.9142305214597846e-09 -5 -15 2.500000010727558 -4.3301270127286351 -15 0.91506351643986317 -3.4150635091400758 -15 2.500000010727558 -4.3301270127286351 -12 0.91506351643986317 -3.4150635091400758 -15 2.500000010727558 -4.3301270127286351 -12 2.217625015551433 -2.5696135239339939 -15 0.91506351643986317 -3.4150635091400758 -12 2.500000010727558 -4.3301270127286351 -12 6.9142305214597846e-09 -5 -12 0.91506351643986317 -3.4150635091400758 -12 0.91506351643986317 -3.4150635091400758 -15 2.500000010727558 -4.3301270127286351 -12 0.91506351643986317 -3.4150635091400758 -12 2.217625015551433 -2.5696135239339939 -12 2.217625015551433 -2.5696135239339939 -15 0.95458002071209891 -1.657898275923388 -12 2.3883545080289421 -0.94497882694672608 -12 2.217625015551433 -2.5696135239339939 -12 2.217625015551433 -2.5696135239339939 -15 0.91506351643986317 -3.4150635091400758 -12 0.95458002071209891 -1.657898275923388 -12 2.217625015551433 -2.5696135239339939 -12 2.217625015551433 -2.5696135239339939 -15 -0.66987297914647026 -2.499999999706382 -12 0.95458002071209891 -1.657898275923388 -12 0.91506351643986317 -3.4150635091400758 -12 0.95458002071209891 -1.657898275923388 -15 -0.66987297914647026 -2.499999999706382 -12 0.20080558631870429 0.033909897404034287 -12 0.95458002071209891 -1.657898275923388 -12 0.95458002071209891 -1.657898275923388 -15 6.9142305214597846e-09 -5 -12 -0.66987297914647026 -2.499999999706382 -12 0.91506351643986317 -3.4150635091400758 -12 0.91506351643986317 -3.4150635091400758 -15 6.9142305214597846e-09 -5 -12 -2.5000000000000022 -4.3301270189221919 -12 -0.66987297914647026 -2.499999999706382 -12 -0.66987297914647026 -2.499999999706382 -15 -0.66987297914647026 -2.499999999706382 -12 6.9142305214597846e-09 -5 -12 0.91506351643986317 -3.4150635091400758 -12 6.9142305214597846e-09 -5 -9 6.9142305214597846e-09 -5 -9 -0.66987297914647026 -2.499999999706382 -9 0.91506351643986317 -3.4150635091400758 -9 0.91506351643986317 -3.4150635091400758 -12 -0.66987297914647026 -2.499999999706382 -12 6.9142305214597846e-09 -5 -9 0.91506351643986317 -3.4150635091400758 -12 -0.66987297914647026 -2.499999999706382 -9 6.9142305214597846e-09 -5 -9 -2.5000000000000022 -4.3301270189221919 -9 -0.66987297914647026 -2.499999999706382 -9 -0.66987297914647026 -2.499999999706382 -12 -2.5000000000000022 -4.3301270189221919 -12 6.9142305214597846e-09 -5 -12 -0.66987297914647026 -2.499999999706382 -12 6.9142305214597846e-09 -5 -9 0.20080558631870429 0.033909897404034287 -12 -0.66987297914647026 -2.499999999706382 -12 0.95458002071209891 -1.657898275923388 -12 -0.66987297914647026 -2.499999999706382 -9 0.95458002071209891 -1.657898275923388 -12 -0.66987297914647026 -2.499999999706382 -9 0.91506351643986317 -3.4150635091400758 -12 0.91506351643986317 -3.4150635091400758 -9 -0.66987297914647026 -2.499999999706382 -9 0.20080558631870429 0.033909897404034287 -9 0.95458002071209891 -1.657898275923388 -9 0.95458002071209891 -1.657898275923388 -12 0.95458002071209891 -1.657898275923388 -12 -0.66987297914647026 -2.499999999706382 -12 0.91506351643986317 -3.4150635091400758 -12 -0.66987297914647026 -2.499999999706382 -9 -0.66987297914647026 -2.499999999706382 -9 0.95458002071209891 -1.657898275923388 -9 0.91506351643986317 -3.4150635091400758 -9 0.95458002071209891 -1.657898275923388 -12 0.95458002071209891 -1.657898275923388 -9 2.3883545080289421 -0.94497882694672608 -9 2.217625015551433 -2.5696135239339939 -9 2.217625015551433 -2.5696135239339939 -12 2.3883545080289421 -0.94497882694672608 -12 0.95458002071209891 -1.657898275923388 -12 2.217625015551433 -2.5696135239339939 -12 2.3883545080289421 -0.94497882694672608 -9 2.3883545080289421 -0.94497882694672608 -9 0.95458002071209891 -1.657898275923388 -9 0.95458002071209891 -1.657898275923388 -12 2.217625015551433 -2.5696135239339939 -12 0.95458002071209891 -1.657898275923388 -12 0.91506351643986317 -3.4150635091400758 -9 2.217625015551433 -2.5696135239339939 -12 0.95458002071209891 -1.657898275923388 -9 0.95458002071209891 -1.657898275923388 -12 0.91506351643986317 -3.4150635091400758 -12 2.217625015551433 -2.5696135239339939 -12 0.91506351643986317 -3.4150635091400758 -9 0.91506351643986317 -3.4150635091400758 -9 0.95458002071209891 -1.657898275923388 -9 2.217625015551433 -2.5696135239339939 -9 2.217625015551433 -2.5696135239339939 -12 6.9142305214597846e-09 -5 -12 2.500000010727558 -4.3301270127286351 -12 0.91506351643986317 -3.4150635091400758 -12 2.500000010727558 -4.3301270127286351 -9 2.500000010727558 -4.3301270127286351 -9 6.9142305214597846e-09 -5 -9 0.91506351643986317 -3.4150635091400758 -9 0.91506351643986317 -3.4150635091400758 -12 6.9142305214597846e-09 -5 -12 2.500000010727558 -4.3301270127286351 -9 0.91506351643986317 -3.4150635091400758 -12 6.9142305214597846e-09 -5 -9 0.91506351643986317 -3.4150635091400758 -12 2.500000010727558 -4.3301270127286351 -9 2.217625015551433 -2.5696135239339939 -12 0.91506351643986317 -3.4150635091400758 -9 0.91506351643986317 -3.4150635091400758 -12 2.500000010727558 -4.3301270127286351 -12 2.217625015551433 -2.5696135239339939 -12 2.500000010727558 -4.3301270127286351 -9 2.500000010727558 -4.3301270127286351 -9 0.91506351643986317 -3.4150635091400758 -9 2.217625015551433 -2.5696135239339939 -9 2.217625015551433 -2.5696135239339939 -12 6.9142305214597846e-09 -5 -9 2.500000010727558 -4.3301270127286351 -9 0.91506351643986317 -3.4150635091400758 -9 2.500000010727558 -4.3301270127286351 -6 0.91506351643986317 -3.4150635091400758 -9 2.500000010727558 -4.3301270127286351 -9 2.217625015551433 -2.5696135239339939 -9 2.500000010727558 -4.3301270127286351 -6 0.95458002071209891 -1.657898275923388 -9 0.91506351643986317 -3.4150635091400758 -9 2.217625015551433 -2.5696135239339939 -9 0.91506351643986317 -3.4150635091400758 -6 2.3883545080289421 -0.94497882694672608 -9 0.95458002071209891 -1.657898275923388 -9 2.217625015551433 -2.5696135239339939 -9 2.3883545080289421 -0.94497882694672608 -6 0.95458002071209891 -1.657898275923388 -9 -0.66987297914647026 -2.499999999706382 -9 0.91506351643986317 -3.4150635091400758 -9 -0.66987297914647026 -2.499999999706382 -6 0.20080558631870429 0.033909897404034287 -9 -0.66987297914647026 -2.499999999706382 -9 0.95458002071209891 -1.657898275923388 -9 -0.66987297914647026 -2.499999999706382 -6 -2.5000000000000022 -4.3301270189221919 -9 6.9142305214597846e-09 -5 -9 -0.66987297914647026 -2.499999999706382 -9 6.9142305214597846e-09 -5 -6 -0.66987297914647026 -2.499999999706382 -9 6.9142305214597846e-09 -5 -9 0.91506351643986317 -3.4150635091400758 -9 6.9142305214597846e-09 -5 -6 -2.5000000000000022 -4.3301270189221919 -9 -0.66987297914647026 -2.499999999706382 -9 -2.9547160992544761 -1.820741508163664 -9 -2.5000000000000022 -4.3301270189221919 -6 -4.3301270160527148 -2.500000004970083 -9 -2.5000000000000022 -4.3301270189221919 -9 -2.9547160992544761 -1.820741508163664 -9 -2.5000000000000022 -4.3301270189221919 -6 -2.5000000000000022 -4.3301270189221919 -12 6.9142305214597846e-09 -5 -9 -0.66987297914647026 -2.499999999706382 -12 -2.5000000000000022 -4.3301270189221919 -9 -2.5000000000000022 -4.3301270189221919 -12 -0.66987297914647026 -2.499999999706382 -12 -2.9547160992544761 -1.820741508163664 -12 -2.5000000000000022 -4.3301270189221919 -9 -4.3301270160527148 -2.500000004970083 -12 -2.5000000000000022 -4.3301270189221919 -12 -2.9547160992544761 -1.820741508163664 -12 -2.5000000000000022 -4.3301270189221919 -9 -2.2735805010731909 0.22641949675281539 -9 -0.66987297914647026 -2.499999999706382 -9 -2.9547160992544761 -1.820741508163664 -9 -2.9547160992544761 -1.820741508163664 -12 -0.66987297914647026 -2.499999999706382 -9 -2.5000000000000022 -4.3301270189221919 -9 -2.9547160992544761 -1.820741508163664 -9 -2.9547160992544761 -1.820741508163664 -12 -2.5000000000000022 -4.3301270189221919 -9 -0.66987297914647026 -2.499999999706382 -9 -0.66987297914647026 -2.499999999706382 -12 -2.9547160992544761 -1.820741508163664 -12 -0.66987297914647026 -2.499999999706382 -12 -2.2735805010731909 0.22641949675281539 -9 -2.9547160992544761 -1.820741508163664 -12 -0.66987297914647026 -2.499999999706382 -9 -2.5000000000000022 -4.3301270189221919 -9 -4.3301270160527148 -2.500000004970083 -9 -2.9547160992544761 -1.820741508163664 -9 -2.9547160992544761 -1.820741508163664 -12 -4.3301270160527148 -2.500000004970083 -12 -2.5000000000000022 -4.3301270189221919 -9 -2.9547160992544761 -1.820741508163664 -12 -4.3301270160527148 -2.500000004970083 -9 -4.3301270160527148 -2.500000004970083 -9 -5 -1.397247784140632e-08 -9 -2.9547160992544761 -1.820741508163664 -9 -2.9547160992544761 -1.820741508163664 -12 -5 -1.397247784140632e-08 -12 -4.3301270160527148 -2.500000004970083 -12 -2.9547160992544761 -1.820741508163664 -12 -4.3301270160527148 -2.500000004970083 -9 -5 -1.397247784140632e-08 -9 -4.3301270160527148 -2.500000004970083 -9 -2.9547160992544761 -1.820741508163664 -9 -4.3301270160527148 -2.500000004970083 -6 -2.2735805010731909 0.22641949675281539 -9 -0.66987297914647026 -2.499999999706382 -9 0.20080558631870429 0.033909897404034287 -9 -2.2735805010731909 0.22641949675281539 -6 -0.66987297914647026 -2.499999999706382 -9 -2.2735805010731909 0.22641949675281539 -9 -2.9547160992544761 -1.820741508163664 -9 -2.2735805010731909 0.22641949675281539 -6 -2.2735805010731909 0.22641949675281539 -9 0.20080558631870429 0.033909897404034287 -9 -0.91506351183037493 1.5849364925866429 -9 -2.2735805010731909 0.22641949675281539 -6 -2.2735805010731909 0.22641949675281539 -9 -5 -1.397247784140632e-08 -9 -2.9547160992544761 -1.820741508163664 -9 -5 -1.397247784140632e-08 -6 -5 -1.397247784140632e-08 -9 -2.2735805010731909 0.22641949675281539 -9 -2.9547160992544761 -1.820741508163664 -9 -2.9547160992544761 -1.820741508163664 -12 -2.2735805010731909 0.22641949675281539 -12 -5 -1.397247784140632e-08 -12 -2.9547160992544761 -1.820741508163664 -12 -5 -1.397247784140632e-08 -9 -2.2735805010731909 0.22641949675281539 -12 -5 -1.397247784140632e-08 -9 -2.9547160992544761 -1.820741508163664 -12 -2.2735805010731909 0.22641949675281539 -9 -5 -1.397247784140632e-08 -12 -4.3301270160527148 -2.500000004970083 -9 -2.9547160992544761 -1.820741508163664 -12 -5 -1.397247784140632e-08 -9 -0.66987297914647026 -2.499999999706382 -12 -2.2735805010731909 0.22641949675281539 -12 -2.9547160992544761 -1.820741508163664 -12 -2.2735805010731909 0.22641949675281539 -9 -2.2735805010731909 0.22641949675281539 -12 0.20080558631870429 0.033909897404034287 -12 -0.91506351183037493 1.5849364925866429 -12 -2.2735805010731909 0.22641949675281539 -9 -2.2735805010731909 0.22641949675281539 -12 -0.66987297914647026 -2.499999999706382 -12 0.20080558631870429 0.033909897404034287 -12 -2.2735805010731909 0.22641949675281539 -9 -1.107852388446384 3.1911857209629071 -9 -0.91506351183037493 1.5849364925866429 -9 -2.2253246846922492 2.366533744740174 -9 -2.2253246846922492 2.366533744740174 -12 -2.2735805010731909 0.22641949675281539 -12 -0.91506351183037493 1.5849364925866429 -12 -2.2253246846922492 2.366533744740174 -12 -2.2735805010731909 0.22641949675281539 -9 -0.91506351183037493 1.5849364925866429 -12 -1.107852388446384 3.1911857209629071 -12 -2.2253246846922492 2.366533744740174 -12 -0.91506351183037493 1.5849364925866429 -9 -0.91506351183037493 1.5849364925866429 -9 -2.2735805010731909 0.22641949675281539 -9 -2.2253246846922492 2.366533744740174 -9 -2.2253246846922492 2.366533744740174 -12 -2.2735805010731909 0.22641949675281539 -9 -0.91506351183037493 1.5849364925866429 -9 -0.91506351183037493 1.5849364925866429 -12 -2.2253246846922492 2.366533744740174 -12 -2.2735805010731909 0.22641949675281539 -9 -4.3301270221112951 2.4999999944763132 -9 -2.2253246846922492 2.366533744740174 -9 -2.2253246846922492 2.366533744740174 -12 -4.3301270221112951 2.4999999944763132 -9 -2.2735805010731909 0.22641949675281539 -9 -2.2735805010731909 0.22641949675281539 -12 -2.2253246846922492 2.366533744740174 -12 -4.3301270221112951 2.4999999944763132 -12 -5 -1.397247784140632e-08 -9 -2.2735805010731909 0.22641949675281539 -12 -4.3301270221112951 2.4999999944763132 -9 -4.3301270221112951 2.4999999944763132 -12 -5 -1.397247784140632e-08 -12 -2.2735805010731909 0.22641949675281539 -12 -5 -1.397247784140632e-08 -9 -5 -1.397247784140632e-08 -9 -4.3301270221112951 2.4999999944763132 -9 -2.2735805010731909 0.22641949675281539 -9 -2.2735805010731909 0.22641949675281539 -12 -4.3301270221112951 2.4999999944763132 -12 -2.2735805010731909 0.22641949675281539 -12 -2.2253246846922492 2.366533744740174 -12 -4.3301270221112951 2.4999999944763132 -9 -4.3301270221112951 2.4999999944763132 -9 -5 -1.397247784140632e-08 -9 -2.2735805010731909 0.22641949675281539 -9 -5 -1.397247784140632e-08 -6 -4.3301270221112951 2.4999999944763132 -9 -2.2735805010731909 0.22641949675281539 -9 -2.2253246846922492 2.366533744740174 -9 -4.3301270221112951 2.4999999944763132 -6 -0.91506351183037493 1.5849364925866429 -9 -1.107852388446384 3.1911857209629071 -9 -2.2253246846922492 2.366533744740174 -9 -0.91506351183037493 1.5849364925866429 -6 -2.2735805010731909 0.22641949675281539 -9 -0.91506351183037493 1.5849364925866429 -9 -2.2253246846922492 2.366533744740174 -9 -2.2735805010731909 0.22641949675281539 -6 0.20080558631870429 0.033909897404034287 -9 0.37580157663508379 2.5408650916807378 -9 -0.91506351183037493 1.5849364925866429 -9 0.20080558631870429 0.033909897404034287 -6 -0.91506351183037493 1.5849364925866429 -9 0.37580157663508379 2.5408650916807378 -9 -1.107852388446384 3.1911857209629071 -9 0.37580157663508379 2.5408650916807378 -6 0.20080558631870429 0.033909897404034287 -9 2.3883545080289421 -0.94497882694672608 -9 2.465848112410058 1.4099871989758821 -9 2.3883545080289421 -0.94497882694672608 -6 2.3883545080289421 -0.94497882694672608 -9 0.20080558631870429 0.033909897404034287 -9 0.95458002071209891 -1.657898275923388 -9 2.3883545080289421 -0.94497882694672608 -6 0.37580157663508379 2.5408650916807378 -9 0.20080558631870429 0.033909897404034287 -9 2.465848112410058 1.4099871989758821 -9 0.20080558631870429 0.033909897404034287 -6 0.37580157663508379 2.5408650916807378 -12 0.20080558631870429 0.033909897404034287 -9 2.465848112410058 1.4099871989758821 -12 0.37580157663508379 2.5408650916807378 -9 0.37580157663508379 2.5408650916807378 -9 2.4999999879139869 4.3301270259000564 -9 2.465848112410058 1.4099871989758821 -9 2.465848112410058 1.4099871989758821 -12 0.20080558631870429 0.033909897404034287 -9 0.37580157663508379 2.5408650916807378 -9 2.465848112410058 1.4099871989758821 -9 2.465848112410058 1.4099871989758821 -12 0.37580157663508379 2.5408650916807378 -12 0.20080558631870429 0.033909897404034287 -12 2.465848112410058 1.4099871989758821 -12 0.20080558631870429 0.033909897404034287 -9 2.3883545080289421 -0.94497882694672608 -12 0.20080558631870429 0.033909897404034287 -12 0.95458002071209891 -1.657898275923388 -12 2.3883545080289421 -0.94497882694672608 -9 2.3883545080289421 -0.94497882694672608 -9 0.20080558631870429 0.033909897404034287 -9 0.20080558631870429 0.033909897404034287 -12 0.95458002071209891 -1.657898275923388 -12 2.3883545080289421 -0.94497882694672608 -9 0.20080558631870429 0.033909897404034287 -9 2.465848112410058 1.4099871989758821 -9 2.465848112410058 1.4099871989758821 -12 0.20080558631870429 0.033909897404034287 -12 2.3883545080289421 -0.94497882694672608 -12 2.465848112410058 1.4099871989758821 -12 2.3883545080289421 -0.94497882694672608 -9 0.20080558631870429 0.033909897404034287 -12 2.3883545080289421 -0.94497882694672608 -9 2.465848112410058 1.4099871989758821 -12 0.20080558631870429 0.033909897404034287 -9 0.20080558631870429 0.033909897404034287 -9 2.3883545080289421 -0.94497882694672608 -9 0.95458002071209891 -1.657898275923388 -9 0.95458002071209891 -1.657898275923388 -12 -2.2735805010731909 0.22641949675281539 -9 0.20080558631870429 0.033909897404034287 -9 0.20080558631870429 0.033909897404034287 -12 -0.91506351183037493 1.5849364925866429 -12 -2.2735805010731909 0.22641949675281539 -9 -0.66987297914647026 -2.499999999706382 -9 -0.66987297914647026 -2.499999999706382 -12 0.20080558631870429 0.033909897404034287 -12 0.20080558631870429 0.033909897404034287 -12 -0.66987297914647026 -2.499999999706382 -9 0.95458002071209891 -1.657898275923388 -12 0.20080558631870429 0.033909897404034287 -9 -0.66987297914647026 -2.499999999706382 -9 -2.2735805010731909 0.22641949675281539 -9 0.20080558631870429 0.033909897404034287 -9 0.20080558631870429 0.033909897404034287 -12 0.20080558631870429 0.033909897404034287 -9 -2.2735805010731909 0.22641949675281539 -9 -0.91506351183037493 1.5849364925866429 -9 -0.91506351183037493 1.5849364925866429 -12 0.37580157663508379 2.5408650916807378 -9 0.20080558631870429 0.033909897404034287 -9 -0.91506351183037493 1.5849364925866429 -9 -0.91506351183037493 1.5849364925866429 -12 0.20080558631870429 0.033909897404034287 -12 0.37580157663508379 2.5408650916807378 -12 -0.91506351183037493 1.5849364925866429 -12 0.20080558631870429 0.033909897404034287 -9 0.20080558631870429 0.033909897404034287 -9 0.37580157663508379 2.5408650916807378 -9 0.37580157663508379 2.5408650916807378 -12 -0.91506351183037493 1.5849364925866429 -12 -0.91506351183037493 1.5849364925866429 -12 0.37580157663508379 2.5408650916807378 -9 -1.107852388446384 3.1911857209629071 -12 -0.91506351183037493 1.5849364925866429 -9 -0.91506351183037493 1.5849364925866429 -12 0.37580157663508379 2.5408650916807378 -12 -1.107852388446384 3.1911857209629071 -12 0.37580157663508379 2.5408650916807378 -9 0.20080558631870429 0.033909897404034287 -12 -2.2735805010731909 0.22641949675281539 -12 -0.91506351183037493 1.5849364925866429 -12 -0.91506351183037493 1.5849364925866429 -15 0.37580157663508379 2.5408650916807378 -12 0.20080558631870429 0.033909897404034287 -12 -0.91506351183037493 1.5849364925866429 -12 -0.91506351183037493 1.5849364925866429 -15 -0.66987297914647026 -2.499999999706382 -12 -2.2735805010731909 0.22641949675281539 -12 0.20080558631870429 0.033909897404034287 -12 0.20080558631870429 0.033909897404034287 -15 2.3883545080289421 -0.94497882694672608 -12 0.20080558631870429 0.033909897404034287 -12 2.465848112410058 1.4099871989758821 -12 2.465848112410058 1.4099871989758821 -15 0.20080558631870429 0.033909897404034287 -12 2.3883545080289421 -0.94497882694672608 -12 0.95458002071209891 -1.657898275923388 -12 0.95458002071209891 -1.657898275923388 -15 0.37580157663508379 2.5408650916807378 -12 2.4999999879139869 4.3301270259000564 -12 2.465848112410058 1.4099871989758821 -12 2.465848112410058 1.4099871989758821 -15 0.20080558631870429 0.033909897404034287 -12 0.37580157663508379 2.5408650916807378 -12 2.465848112410058 1.4099871989758821 -12 2.465848112410058 1.4099871989758821 -15 0.37580157663508379 2.5408650916807378 -15 0.20080558631870429 0.033909897404034287 -12 2.465848112410058 1.4099871989758821 -15 0.37580157663508379 2.5408650916807378 -12 0.37580157663508379 2.5408650916807378 -15 0.20080558631870429 0.033909897404034287 -15 2.465848112410058 1.4099871989758821 -15 0.20080558631870429 0.033909897404034287 -12 0.20080558631870429 0.033909897404034287 -15 2.3883545080289421 -0.94497882694672608 -15 2.465848112410058 1.4099871989758821 -15 2.3883545080289421 -0.94497882694672608 -12 2.3883545080289421 -0.94497882694672608 -12 0.20080558631870429 0.033909897404034287 -12 0.20080558631870429 0.033909897404034287 -15 0.95458002071209891 -1.657898275923388 -15 0.20080558631870429 0.033909897404034287 -15 2.3883545080289421 -0.94497882694672608 -12 2.465848112410058 1.4099871989758821 -15 0.20080558631870429 0.033909897404034287 -12 2.3883545080289421 -0.94497882694672608 -15 0.20080558631870429 0.033909897404034287 -15 0.95458002071209891 -1.657898275923388 -15 2.3883545080289421 -0.94497882694672608 -12 -2.2735805010731909 0.22641949675281539 -12 -0.66987297914647026 -2.499999999706382 -12 -0.66987297914647026 -2.499999999706382 -15 0.20080558631870429 0.033909897404034287 -15 -2.2735805010731909 0.22641949675281539 -12 0.20080558631870429 0.033909897404034287 -12 0.20080558631870429 0.033909897404034287 -15 -0.91506351183037493 1.5849364925866429 -15 0.20080558631870429 0.033909897404034287 -15 -0.66987297914647026 -2.499999999706382 -12 0.95458002071209891 -1.657898275923388 -15 0.20080558631870429 0.033909897404034287 -12 0.20080558631870429 0.033909897404034287 -12 0.37580157663508379 2.5408650916807378 -12 0.37580157663508379 2.5408650916807378 -15 -0.91506351183037493 1.5849364925866429 -15 -0.91506351183037493 1.5849364925866429 -15 0.37580157663508379 2.5408650916807378 -15 -1.107852388446384 3.1911857209629071 -15 0.37580157663508379 2.5408650916807378 -12 -0.91506351183037493 1.5849364925866429 -15 0.37580157663508379 2.5408650916807378 -12 -1.107852388446384 3.1911857209629071 -15 -0.91506351183037493 1.5849364925866429 -12 0.20080558631870429 0.033909897404034287 -15 0.37580157663508379 2.5408650916807378 -15 -0.91506351183037493 1.5849364925866429 -15 0.20080558631870429 0.033909897404034287 -12 -2.2735805010731909 0.22641949675281539 -12 -0.91506351183037493 1.5849364925866429 -12 -0.91506351183037493 1.5849364925866429 -15 -2.2253246846922492 2.366533744740174 -15 -2.2735805010731909 0.22641949675281539 -15 -0.91506351183037493 1.5849364925866429 -15 -2.2253246846922492 2.366533744740174 -15 -2.2735805010731909 0.22641949675281539 -12 -4.3301270221112951 2.4999999944763132 -12 -2.2735805010731909 0.22641949675281539 -12 -2.2735805010731909 0.22641949675281539 -15 -2.2253246846922492 2.366533744740174 -15 -0.91506351183037493 1.5849364925866429 -15 -1.107852388446384 3.1911857209629071 -15 -2.2253246846922492 2.366533744740174 -15 -0.91506351183037493 1.5849364925866429 -12 -0.91506351183037493 1.5849364925866429 -12 -2.2735805010731909 0.22641949675281539 -12 -2.2253246846922492 2.366533744740174 -12 -2.2253246846922492 2.366533744740174 -15 -2.2735805010731909 0.22641949675281539 -12 -4.3301270221112951 2.4999999944763132 -12 -2.2253246846922492 2.366533744740174 -12 -2.2253246846922492 2.366533744740174 -15 -1.107852388446384 3.1911857209629071 -12 -0.91506351183037493 1.5849364925866429 -12 -2.2253246846922492 2.366533744740174 -12 -2.2253246846922492 2.366533744740174 -15 -0.66987297914647026 -2.499999999706382 -15 -2.2735805010731909 0.22641949675281539 -15 -2.9547160992544761 -1.820741508163664 -15 -2.2735805010731909 0.22641949675281539 -12 -2.2735805010731909 0.22641949675281539 -15 0.20080558631870429 0.033909897404034287 -15 -0.91506351183037493 1.5849364925866429 -15 -2.2735805010731909 0.22641949675281539 -12 -2.2735805010731909 0.22641949675281539 -15 -0.66987297914647026 -2.499999999706382 -15 0.20080558631870429 0.033909897404034287 -15 -2.2735805010731909 0.22641949675281539 -12 -5 -1.397247784140632e-08 -15 -4.3301270160527148 -2.500000004970083 -12 -2.9547160992544761 -1.820741508163664 -15 -5 -1.397247784140632e-08 -12 -2.2735805010731909 0.22641949675281539 -15 -5 -1.397247784140632e-08 -12 -2.9547160992544761 -1.820741508163664 -15 -2.2735805010731909 0.22641949675281539 -12 -2.2735805010731909 0.22641949675281539 -15 -5 -1.397247784140632e-08 -15 -2.9547160992544761 -1.820741508163664 -15 -5 -1.397247784140632e-08 -12 -5 -1.397247784140632e-08 -12 -2.2735805010731909 0.22641949675281539 -12 -2.9547160992544761 -1.820741508163664 -12 -2.9547160992544761 -1.820741508163664 -15 -5 -1.397247784140632e-08 -12 -4.3301270221112951 2.4999999944763132 -12 -2.2735805010731909 0.22641949675281539 -12 -2.2735805010731909 0.22641949675281539 -15 -4.3301270221112951 2.4999999944763132 -15 -5 -1.397247784140632e-08 -15 -2.2735805010731909 0.22641949675281539 -15 -5 -1.397247784140632e-08 -12 -4.3301270221112951 2.4999999944763132 -15 -5 -1.397247784140632e-08 -12 -2.2735805010731909 0.22641949675281539 -15 -4.3301270221112951 2.4999999944763132 -12 -4.3301270221112951 2.4999999944763132 -15 -2.2735805010731909 0.22641949675281539 -15 -2.2253246846922492 2.366533744740174 -15 -4.3301270221112951 2.4999999944763132 -12 -2.4999999999999991 4.3301270189221936 -15 -4.3301270221112951 2.4999999944763132 -15 -2.2253246846922492 2.366533744740174 -15 -4.3301270221112951 2.4999999944763132 -12 -0.91506351183037493 1.5849364925866429 -12 -1.107852388446384 3.1911857209629071 -12 -1.107852388446384 3.1911857209629071 -15 -2.2253246846922492 2.366533744740174 -15 -2.4999999999999991 4.3301270189221936 -15 -4.3301270221112951 2.4999999944763132 -12 -2.2253246846922492 2.366533744740174 -15 -2.4999999999999991 4.3301270189221936 -12 -1.107852388446384 3.1911857209629071 -15 -2.4999999999999991 4.3301270189221936 -15 -2.2253246846922492 2.366533744740174 -15 -2.4999999999999991 4.3301270189221936 -12 -1.107852388446384 3.1911857209629071 -15 -2.4999999999999991 4.3301270189221936 -12 -2.2253246846922492 2.366533744740174 -15 -1.107852388446384 3.1911857209629071 -12 -6.2995949836986492e-09 5 -15 -2.4999999999999991 4.3301270189221936 -15 -1.107852388446384 3.1911857209629071 -15 -2.4999999999999991 4.3301270189221936 -12 -2.4999999999999991 4.3301270189221936 -12 -1.107852388446384 3.1911857209629071 -12 -2.2253246846922492 2.366533744740174 -12 -2.2253246846922492 2.366533744740174 -15 -4.3301270221112951 2.4999999944763132 -12 -2.4999999999999991 4.3301270189221936 -12 -2.2253246846922492 2.366533744740174 -12 -2.2253246846922492 2.366533744740174 -15 -2.4999999999999991 4.3301270189221936 -12 -4.3301270221112951 2.4999999944763132 -12 -2.2253246846922492 2.366533744740174 -12 -4.3301270221112951 2.4999999944763132 -9 -6.2995949836986492e-09 5 -12 -2.4999999999999991 4.3301270189221936 -12 -1.107852388446384 3.1911857209629071 -12 -2.4999999999999991 4.3301270189221936 -9 -0.91506351183037493 1.5849364925866429 -9 -1.107852388446384 3.1911857209629071 -9 -1.107852388446384 3.1911857209629071 -12 -2.2253246846922492 2.366533744740174 -12 -2.4999999999999991 4.3301270189221936 -12 -4.3301270221112951 2.4999999944763132 -9 -2.2253246846922492 2.366533744740174 -12 -2.4999999999999991 4.3301270189221936 -9 -4.3301270221112951 2.4999999944763132 -9 -2.4999999999999991 4.3301270189221936 -9 -2.2253246846922492 2.366533744740174 -9 -2.2253246846922492 2.366533744740174 -12 -2.4999999999999991 4.3301270189221936 -9 -1.107852388446384 3.1911857209629071 -9 -2.2253246846922492 2.366533744740174 -9 -2.2253246846922492 2.366533744740174 -12 -1.107852388446384 3.1911857209629071 -12 -2.4999999999999991 4.3301270189221936 -12 -2.2253246846922492 2.366533744740174 -12 -2.4999999999999991 4.3301270189221936 -9 -1.107852388446384 3.1911857209629071 -12 -2.4999999999999991 4.3301270189221936 -9 -2.2253246846922492 2.366533744740174 -12 -1.107852388446384 3.1911857209629071 -9 -6.2995949836986492e-09 5 -9 -2.4999999999999991 4.3301270189221936 -9 -1.107852388446384 3.1911857209629071 -9 -2.4999999999999991 4.3301270189221936 -6 -1.107852388446384 3.1911857209629071 -9 -2.4999999999999991 4.3301270189221936 -9 -2.2253246846922492 2.366533744740174 -9 -2.4999999999999991 4.3301270189221936 -6 -2.4999999999999991 4.3301270189221936 -9 -4.3301270221112951 2.4999999944763132 -9 -2.2253246846922492 2.366533744740174 -9 -4.3301270221112951 2.4999999944763132 -6 -6.2995949836986492e-09 5 -12 -2.4999999999999991 4.3301270189221936 -9 -1.107852388446384 3.1911857209629071 -12 -6.2995949836986492e-09 5 -9 2.4999999879139869 4.3301270259000564 -9 -6.2995949836986492e-09 5 -9 0.37580157663508379 2.5408650916807378 -9 -6.2995949836986492e-09 5 -6 2.4999999879139869 4.3301270259000564 -9 0.37580157663508379 2.5408650916807378 -9 2.465848112410058 1.4099871989758821 -9 2.4999999879139869 4.3301270259000564 -6 0.37580157663508379 2.5408650916807378 -9 -6.2995949836986492e-09 5 -9 -1.107852388446384 3.1911857209629071 -9 -6.2995949836986492e-09 5 -6 0.37580157663508379 2.5408650916807378 -9 -0.91506351183037493 1.5849364925866429 -9 -1.107852388446384 3.1911857209629071 -9 -1.107852388446384 3.1911857209629071 -12 0.37580157663508379 2.5408650916807378 -12 -6.2995949836986492e-09 5 -9 -1.107852388446384 3.1911857209629071 -12 0.37580157663508379 2.5408650916807378 -9 0.37580157663508379 2.5408650916807378 -12 -6.2995949836986492e-09 5 -12 -1.107852388446384 3.1911857209629071 -12 -6.2995949836986492e-09 5 -9 -2.4999999999999991 4.3301270189221936 -9 -6.2995949836986492e-09 5 -9 -1.107852388446384 3.1911857209629071 -9 -1.107852388446384 3.1911857209629071 -12 -6.2995949836986492e-09 5 -9 0.37580157663508379 2.5408650916807378 -9 -1.107852388446384 3.1911857209629071 -9 -1.107852388446384 3.1911857209629071 -12 2.4999999879139869 4.3301270259000564 -12 0.37580157663508379 2.5408650916807378 -12 2.465848112410058 1.4099871989758821 -12 2.4999999879139869 4.3301270259000564 -9 -6.2995949836986492e-09 5 -9 2.4999999879139869 4.3301270259000564 -9 0.37580157663508379 2.5408650916807378 -9 0.37580157663508379 2.5408650916807378 -12 2.4999999879139869 4.3301270259000564 -12 -6.2995949836986492e-09 5 -12 0.37580157663508379 2.5408650916807378 -12 -6.2995949836986492e-09 5 -9 2.4999999879139869 4.3301270259000564 -12 -6.2995949836986492e-09 5 -9 0.37580157663508379 2.5408650916807378 -12 2.4999999879139869 4.3301270259000564 -9 2.4999999879139869 4.3301270259000564 -9 0.37580157663508379 2.5408650916807378 -9 0.37580157663508379 2.5408650916807378 -12 2.465848112410058 1.4099871989758821 -12 -6.2995949836986492e-09 5 -12 2.4999999879139869 4.3301270259000564 -12 0.37580157663508379 2.5408650916807378 -12 0.37580157663508379 2.5408650916807378 -15 -2.4999999999999991 4.3301270189221936 -12 -6.2995949836986492e-09 5 -12 -1.107852388446384 3.1911857209629071 -12 -1.107852388446384 3.1911857209629071 -15 0.37580157663508379 2.5408650916807378 -12 -0.91506351183037493 1.5849364925866429 -12 -1.107852388446384 3.1911857209629071 -12 -1.107852388446384 3.1911857209629071 -15 -6.2995949836986492e-09 5 -12 0.37580157663508379 2.5408650916807378 -12 -1.107852388446384 3.1911857209629071 -12 -1.107852388446384 3.1911857209629071 -15 0.37580157663508379 2.5408650916807378 -15 -6.2995949836986492e-09 5 -12 -1.107852388446384 3.1911857209629071 -15 0.37580157663508379 2.5408650916807378 -12 0.37580157663508379 2.5408650916807378 -15 -6.2995949836986492e-09 5 -15 -1.107852388446384 3.1911857209629071 -15 -6.2995949836986492e-09 5 -12 -6.2995949836986492e-09 5 -15 -2.4999999999999991 4.3301270189221936 -12 -1.107852388446384 3.1911857209629071 -15 -6.2995949836986492e-09 5 -12 2.4999999879139869 4.3301270259000564 -15 -6.2995949836986492e-09 5 -12 0.37580157663508379 2.5408650916807378 -15 2.4999999879139869 4.3301270259000564 -12 2.4999999879139869 4.3301270259000564 -12 0.37580157663508379 2.5408650916807378 -12 0.37580157663508379 2.5408650916807378 -15 2.465848112410058 1.4099871989758821 -15 2.4999999879139869 4.3301270259000564 -15 0.37580157663508379 2.5408650916807378 -15 2.465848112410058 1.4099871989758821 -15 2.4999999879139869 4.3301270259000564 -12 2.4999999879139869 4.3301270259000564 -15 -6.2995949836986492e-09 5 -15 0.37580157663508379 2.5408650916807378 -15 -6.2995949836986492e-09 5 -12 4.3301270155636349 2.5000000058171929 -15 2.4999999879139869 4.3301270259000564 -12 2.465848112410058 1.4099871989758821 -15 4.3301270155636349 2.5000000058171929 -12 4.3301270155636349 2.5000000058171929 -15 2.4999999879139869 4.3301270259000564 -15 2.465848112410058 1.4099871989758821 -15 2.4999999879139869 4.3301270259000564 -12 4.3301270155636349 2.5000000058171929 -12 2.4999999879139869 4.3301270259000564 -9 2.465848112410058 1.4099871989758821 -12 4.3301270155636349 2.5000000058171929 -9 4.3301270155636349 2.5000000058171929 -12 2.4999999879139869 4.3301270259000564 -12 2.465848112410058 1.4099871989758821 -12 2.4999999879139869 4.3301270259000564 -9 4.3301270155636349 2.5000000058171929 -9 2.4999999879139869 4.3301270259000564 -9 2.465848112410058 1.4099871989758821 -9 2.4999999879139869 4.3301270259000564 -6 2.500000010727558 -4.3301270127286351 -15 4.3301270218486989 -2.4999999949311431 -12 2.217625015551433 -2.5696135239339939 -15 2.500000010727558 -4.3301270127286351 -12 4.3301270218486989 -2.4999999949311431 -12 2.500000010727558 -4.3301270127286351 -12 2.217625015551433 -2.5696135239339939 -12 2.217625015551433 -2.5696135239339939 -15 2.3883545080289421 -0.94497882694672608 -12 4.3301270218486989 -2.4999999949311431 -12 2.217625015551433 -2.5696135239339939 -12 2.217625015551433 -2.5696135239339939 -15 2.500000010727558 -4.3301270127286351 -15 4.3301270218486989 -2.4999999949311431 -15 2.217625015551433 -2.5696135239339939 -15 4.3301270218486989 -2.4999999949311431 -12 4.3301270218486989 -2.4999999949311431 -12 2.3883545080289421 -0.94497882694672608 -12 2.3883545080289421 -0.94497882694672608 -15 2.217625015551433 -2.5696135239339939 -15 4.3301270218486989 -2.4999999949311431 -15 2.3883545080289421 -0.94497882694672608 -15 2.217625015551433 -2.5696135239339939 -15 4.3301270218486989 -2.4999999949311431 -12 4.3301270218486989 -2.4999999949311431 -15 5 0 -12 2.3883545080289421 -0.94497882694672608 -15 4.3301270218486989 -2.4999999949311431 -12 4.3301270218486989 -2.4999999949311431 -15 5 0 -15 2.3883545080289421 -0.94497882694672608 -15 5 0 -12 2.3883545080289421 -0.94497882694672608 -15 5 0 -15 2.465848112410058 1.4099871989758821 -15 5 0 -12 2.3883545080289421 -0.94497882694672608 -15 5 0 -12 2.465848112410058 1.4099871989758821 -15 2.3883545080289421 -0.94497882694672608 -12 5 0 -15 4.3301270155636349 2.5000000058171929 -15 2.465848112410058 1.4099871989758821 -15 4.3301270155636349 2.5000000058171929 -12 5 0 -15 4.3301270155636349 2.5000000058171929 -12 2.465848112410058 1.4099871989758821 -15 5 0 -12 2.4999999879139869 4.3301270259000564 -12 4.3301270155636349 2.5000000058171929 -12 2.465848112410058 1.4099871989758821 -12 2.465848112410058 1.4099871989758821 -15 4.3301270155636349 2.5000000058171929 -12 5 0 -12 2.465848112410058 1.4099871989758821 -12 2.465848112410058 1.4099871989758821 -15 5 0 -12 4.3301270218486989 -2.4999999949311431 -12 2.3883545080289421 -0.94497882694672608 -12 2.3883545080289421 -0.94497882694672608 -15 5 0 -12 2.3883545080289421 -0.94497882694672608 -12 2.465848112410058 1.4099871989758821 -12 2.465848112410058 1.4099871989758821 -15 5 0 -9 4.3301270218486989 -2.4999999949311431 -9 2.3883545080289421 -0.94497882694672608 -9 2.3883545080289421 -0.94497882694672608 -12 4.3301270218486989 -2.4999999949311431 -12 5 0 -12 2.3883545080289421 -0.94497882694672608 -12 5 0 -9 2.3883545080289421 -0.94497882694672608 -12 5 0 -9 2.465848112410058 1.4099871989758821 -12 2.3883545080289421 -0.94497882694672608 -9 5 0 -9 2.3883545080289421 -0.94497882694672608 -9 2.465848112410058 1.4099871989758821 -9 2.465848112410058 1.4099871989758821 -12 2.3883545080289421 -0.94497882694672608 -12 5 0 -12 2.465848112410058 1.4099871989758821 -12 5 0 -9 2.4999999879139869 4.3301270259000564 -9 4.3301270155636349 2.5000000058171929 -9 2.465848112410058 1.4099871989758821 -9 2.465848112410058 1.4099871989758821 -12 5 0 -12 4.3301270155636349 2.5000000058171929 -9 2.465848112410058 1.4099871989758821 -12 5 0 -9 5 0 -12 4.3301270155636349 2.5000000058171929 -12 2.465848112410058 1.4099871989758821 -12 4.3301270155636349 2.5000000058171929 -9 4.3301270155636349 2.5000000058171929 -9 5 0 -9 2.465848112410058 1.4099871989758821 -9 2.465848112410058 1.4099871989758821 -12 5 0 -9 4.3301270155636349 2.5000000058171929 -9 2.465848112410058 1.4099871989758821 -9 4.3301270155636349 2.5000000058171929 -6 4.3301270218486989 -2.4999999949311431 -9 5 0 -9 2.3883545080289421 -0.94497882694672608 -9 5 0 -6 2.3883545080289421 -0.94497882694672608 -9 5 0 -9 2.465848112410058 1.4099871989758821 -9 5 0 -6 4.3301270218486989 -2.4999999949311431 -9 2.3883545080289421 -0.94497882694672608 -9 2.217625015551433 -2.5696135239339939 -9 4.3301270218486989 -2.4999999949311431 -6 2.500000010727558 -4.3301270127286351 -9 4.3301270218486989 -2.4999999949311431 -9 2.217625015551433 -2.5696135239339939 -9 4.3301270218486989 -2.4999999949311431 -6 4.3301270218486989 -2.4999999949311431 -12 2.3883545080289421 -0.94497882694672608 -12 2.217625015551433 -2.5696135239339939 -12 4.3301270218486989 -2.4999999949311431 -9 2.3883545080289421 -0.94497882694672608 -9 4.3301270218486989 -2.4999999949311431 -9 2.217625015551433 -2.5696135239339939 -9 2.217625015551433 -2.5696135239339939 -12 4.3301270218486989 -2.4999999949311431 -12 5 0 -9 2.3883545080289421 -0.94497882694672608 -12 4.3301270218486989 -2.4999999949311431 -9 4.3301270218486989 -2.4999999949311431 -9 2.3883545080289421 -0.94497882694672608 -9 2.3883545080289421 -0.94497882694672608 -12 2.217625015551433 -2.5696135239339939 -12 4.3301270218486989 -2.4999999949311431 -9 2.500000010727558 -4.3301270127286351 -9 2.217625015551433 -2.5696135239339939 -9 2.217625015551433 -2.5696135239339939 -12 2.500000010727558 -4.3301270127286351 -12 4.3301270218486989 -2.4999999949311431 -12 2.217625015551433 -2.5696135239339939 -12 4.3301270218486989 -2.4999999949311431 -9 2.500000010727558 -4.3301270127286351 -12 4.3301270218486989 -2.4999999949311431 -9 2.217625015551433 -2.5696135239339939 -12 2.500000010727558 -4.3301270127286351 -9 2.500000010727558 -4.3301270127286351 -9 4.3301270218486989 -2.4999999949311431 -6 2.217625015551433 -2.5696135239339939 -9 2.500000010727558 -4.3301270127286351 -6 2.500000010727558 -4.3301270127286351 -6 4.3301270218486989 -2.4999999949311431 -3 2.217625015551433 -2.5696135239339939 -6 2.500000010727558 -4.3301270127286351 -3 4.3301270218486989 -2.4999999949311431 -3 2.3883545080289421 -0.94497882694672608 -3 2.3883545080289421 -0.94497882694672608 -6 2.217625015551433 -2.5696135239339939 -6 4.3301270218486989 -2.4999999949311431 -6 2.3883545080289421 -0.94497882694672608 -6 2.217625015551433 -2.5696135239339939 -6 4.3301270218486989 -2.4999999949311431 -3 4.3301270218486989 -2.4999999949311431 -6 5 0 -3 2.3883545080289421 -0.94497882694672608 -6 4.3301270218486989 -2.4999999949311431 -3 2.500000010727558 -4.3301270127286351 -6 4.3301270218486989 -2.4999999949311431 -6 2.217625015551433 -2.5696135239339939 -6 4.3301270218486989 -2.4999999949311431 -3 4.3301270218486989 -2.4999999949311431 -6 2.500000010727558 -4.3301270127286351 -6 2.217625015551433 -2.5696135239339939 -6 2.217625015551433 -2.5696135239339939 -9 2.3883545080289421 -0.94497882694672608 -6 4.3301270218486989 -2.4999999949311431 -6 2.217625015551433 -2.5696135239339939 -6 2.217625015551433 -2.5696135239339939 -9 4.3301270218486989 -2.4999999949311431 -9 5 0 -6 2.3883545080289421 -0.94497882694672608 -9 4.3301270218486989 -2.4999999949311431 -6 4.3301270218486989 -2.4999999949311431 -6 2.3883545080289421 -0.94497882694672608 -6 2.3883545080289421 -0.94497882694672608 -9 2.217625015551433 -2.5696135239339939 -9 2.3883545080289421 -0.94497882694672608 -9 5 0 -6 2.465848112410058 1.4099871989758821 -9 2.3883545080289421 -0.94497882694672608 -6 5 0 -6 4.3301270218486989 -2.4999999949311431 -6 2.3883545080289421 -0.94497882694672608 -6 2.3883545080289421 -0.94497882694672608 -9 5 0 -6 2.3883545080289421 -0.94497882694672608 -6 2.465848112410058 1.4099871989758821 -6 2.465848112410058 1.4099871989758821 -9 5 0 -9 4.3301270155636349 2.5000000058171929 -6 2.465848112410058 1.4099871989758821 -9 5 0 -6 4.3301270155636349 2.5000000058171929 -6 5 0 -6 2.465848112410058 1.4099871989758821 -6 2.465848112410058 1.4099871989758821 -9 2.4999999879139869 4.3301270259000564 -6 4.3301270155636349 2.5000000058171929 -6 2.465848112410058 1.4099871989758821 -6 2.465848112410058 1.4099871989758821 -9 5 0 -6 4.3301270155636349 2.5000000058171929 -3 2.465848112410058 1.4099871989758821 -6 5 0 -3 5 0 -6 4.3301270155636349 2.5000000058171929 -6 2.465848112410058 1.4099871989758821 -6 4.3301270155636349 2.5000000058171929 -3 2.3883545080289421 -0.94497882694672608 -6 5 0 -6 2.465848112410058 1.4099871989758821 -6 5 0 -3 2.3883545080289421 -0.94497882694672608 -6 5 0 -3 2.465848112410058 1.4099871989758821 -6 2.3883545080289421 -0.94497882694672608 -3 4.3301270218486989 -2.4999999949311431 -6 5 0 -6 2.3883545080289421 -0.94497882694672608 -6 5 0 -3 5 0 -3 2.3883545080289421 -0.94497882694672608 -3 2.465848112410058 1.4099871989758821 -3 2.465848112410058 1.4099871989758821 -6 2.3883545080289421 -0.94497882694672608 -3 5 0 -3 2.465848112410058 1.4099871989758821 -3 5 0 0 4.3301270218486989 -2.4999999949311431 -3 5 0 -3 2.3883545080289421 -0.94497882694672608 -3 5 0 0 5 0 -3 4.3301270218486989 -2.4999999949311431 -3 2.3883545080289421 -0.94497882694672608 -3 2.3883545080289421 -0.94497882694672608 -6 5 0 -3 4.3301270155636349 2.5000000058171929 -3 2.465848112410058 1.4099871989758821 -3 4.3301270155636349 2.5000000058171929 0 4.3301270155636349 2.5000000058171929 -3 5 0 -3 2.465848112410058 1.4099871989758821 -3 2.465848112410058 1.4099871989758821 -6 2.4999999879139869 4.3301270259000564 -3 4.3301270155636349 2.5000000058171929 -3 2.465848112410058 1.4099871989758821 -3 2.465848112410058 1.4099871989758821 -6 2.4999999879139869 4.3301270259000564 0 4.3301270155636349 2.5000000058171929 0 2.465848112410058 1.4099871989758821 0 2.465848112410058 1.4099871989758821 -3 5 0 -3 4.3301270155636349 2.5000000058171929 0 2.465848112410058 1.4099871989758821 -3 5 0 0 4.3301270155636349 2.5000000058171929 0 5 0 0 2.465848112410058 1.4099871989758821 0 2.465848112410058 1.4099871989758821 -3 5 0 0 4.3301270218486989 -2.4999999949311431 0 2.3883545080289421 -0.94497882694672608 0 2.3883545080289421 -0.94497882694672608 -3 5 0 0 2.3883545080289421 -0.94497882694672608 0 2.465848112410058 1.4099871989758821 0 2.465848112410058 1.4099871989758821 -3 2.3883545080289421 -0.94497882694672608 -3 5 0 0 2.465848112410058 1.4099871989758821 -3 2.3883545080289421 -0.94497882694672608 0 4.3301270218486989 -2.4999999949311431 0 2.500000010727558 -4.3301270127286351 0 2.217625015551433 -2.5696135239339939 0 2.217625015551433 -2.5696135239339939 -3 2.3883545080289421 -0.94497882694672608 0 4.3301270218486989 -2.4999999949311431 0 2.217625015551433 -2.5696135239339939 0 2.217625015551433 -2.5696135239339939 -3 4.3301270218486989 -2.4999999949311431 0 2.3883545080289421 -0.94497882694672608 0 2.3883545080289421 -0.94497882694672608 -3 2.217625015551433 -2.5696135239339939 -3 4.3301270218486989 -2.4999999949311431 -3 5 0 0 2.3883545080289421 -0.94497882694672608 -3 4.3301270218486989 -2.4999999949311431 0 4.3301270218486989 -2.4999999949311431 -3 2.500000010727558 -4.3301270127286351 -3 2.217625015551433 -2.5696135239339939 -3 2.217625015551433 -2.5696135239339939 -6 4.3301270218486989 -2.4999999949311431 -3 2.3883545080289421 -0.94497882694672608 -3 2.217625015551433 -2.5696135239339939 -3 4.3301270218486989 -2.4999999949311431 0 2.3883545080289421 -0.94497882694672608 -3 4.3301270218486989 -2.4999999949311431 -3 2.217625015551433 -2.5696135239339939 -3 2.217625015551433 -2.5696135239339939 -6 2.500000010727558 -4.3301270127286351 -3 4.3301270218486989 -2.4999999949311431 -3 2.217625015551433 -2.5696135239339939 -3 4.3301270218486989 -2.4999999949311431 0 2.500000010727558 -4.3301270127286351 -3 4.3301270218486989 -2.4999999949311431 0 2.217625015551433 -2.5696135239339939 -3 2.500000010727558 -4.3301270127286351 0 4.3301270155636349 2.5000000058171929 -9 2.4999999879139869 4.3301270259000564 -6 2.465848112410058 1.4099871989758821 -9 4.3301270155636349 2.5000000058171929 -6 4.3301270155636349 2.5000000058171929 -6 2.4999999879139869 4.3301270259000564 -6 2.465848112410058 1.4099871989758821 -6 2.4999999879139869 4.3301270259000564 -3 4.3301270155636349 2.5000000058171929 -6 2.4999999879139869 4.3301270259000564 -3 2.465848112410058 1.4099871989758821 -6 4.3301270155636349 2.5000000058171929 -3 4.3301270155636349 2.5000000058171929 -3 2.4999999879139869 4.3301270259000564 -3 2.465848112410058 1.4099871989758821 -3 2.4999999879139869 4.3301270259000564 0 4.3301270155636349 2.5000000058171929 -3 2.4999999879139869 4.3301270259000564 0 2.465848112410058 1.4099871989758821 -3 4.3301270155636349 2.5000000058171929 0 -6.2995949836986492e-09 5 0 2.4999999879139869 4.3301270259000564 0 0.37580157663508379 2.5408650916807378 0 0.37580157663508379 2.5408650916807378 -3 2.4999999879139869 4.3301270259000564 0 0.37580157663508379 2.5408650916807378 0 0.37580157663508379 2.5408650916807378 -3 2.465848112410058 1.4099871989758821 -3 2.4999999879139869 4.3301270259000564 -3 -6.2995949836986492e-09 5 0 0.37580157663508379 2.5408650916807378 -3 2.4999999879139869 4.3301270259000564 0 -6.2995949836986492e-09 5 -3 -2.4999999999999991 4.3301270189221936 0 -1.107852388446384 3.1911857209629071 -3 -6.2995949836986492e-09 5 0 -6.2995949836986492e-09 5 0 0.37580157663508379 2.5408650916807378 0 -1.107852388446384 3.1911857209629071 0 -1.107852388446384 3.1911857209629071 -3 -2.4999999999999991 4.3301270189221936 0 -6.2995949836986492e-09 5 0 -1.107852388446384 3.1911857209629071 0 -1.107852388446384 3.1911857209629071 -3 0.37580157663508379 2.5408650916807378 -3 -6.2995949836986492e-09 5 0 -1.107852388446384 3.1911857209629071 -3 0.37580157663508379 2.5408650916807378 0 0.37580157663508379 2.5408650916807378 0 -0.91506351183037493 1.5849364925866429 0 -1.107852388446384 3.1911857209629071 0 -1.107852388446384 3.1911857209629071 -3 0.37580157663508379 2.5408650916807378 -3 -6.2995949836986492e-09 5 -3 -1.107852388446384 3.1911857209629071 -3 -6.2995949836986492e-09 5 0 2.4999999879139869 4.3301270259000564 -3 -6.2995949836986492e-09 5 -3 0.37580157663508379 2.5408650916807378 -3 -6.2995949836986492e-09 5 0 2.4999999879139869 4.3301270259000564 -3 0.37580157663508379 2.5408650916807378 -3 2.465848112410058 1.4099871989758821 -3 2.4999999879139869 4.3301270259000564 0 2.4999999879139869 4.3301270259000564 -3 0.37580157663508379 2.5408650916807378 -3 0.37580157663508379 2.5408650916807378 -6 2.465848112410058 1.4099871989758821 -6 2.4999999879139869 4.3301270259000564 -6 0.37580157663508379 2.5408650916807378 -6 2.465848112410058 1.4099871989758821 -6 2.4999999879139869 4.3301270259000564 -3 2.4999999879139869 4.3301270259000564 -6 -6.2995949836986492e-09 5 -3 0.37580157663508379 2.5408650916807378 -6 2.4999999879139869 4.3301270259000564 -3 2.4999999879139869 4.3301270259000564 -6 -6.2995949836986492e-09 5 -6 0.37580157663508379 2.5408650916807378 -6 -6.2995949836986492e-09 5 -3 -6.2995949836986492e-09 5 -3 2.4999999879139869 4.3301270259000564 -3 0.37580157663508379 2.5408650916807378 -3 0.37580157663508379 2.5408650916807378 -6 0.37580157663508379 2.5408650916807378 -3 -0.91506351183037493 1.5849364925866429 -3 -1.107852388446384 3.1911857209629071 -3 -1.107852388446384 3.1911857209629071 -6 -6.2995949836986492e-09 5 -3 0.37580157663508379 2.5408650916807378 -3 -1.107852388446384 3.1911857209629071 -3 -1.107852388446384 3.1911857209629071 -6 0.37580157663508379 2.5408650916807378 -6 -6.2995949836986492e-09 5 -6 -1.107852388446384 3.1911857209629071 -6 -6.2995949836986492e-09 5 -3 0.37580157663508379 2.5408650916807378 -6 -6.2995949836986492e-09 5 -3 -1.107852388446384 3.1911857209629071 -6 0.37580157663508379 2.5408650916807378 -3 -2.4999999999999991 4.3301270189221936 -3 -6.2995949836986492e-09 5 -3 -1.107852388446384 3.1911857209629071 -3 -1.107852388446384 3.1911857209629071 -6 -6.2995949836986492e-09 5 -6 0.37580157663508379 2.5408650916807378 -6 -1.107852388446384 3.1911857209629071 -6 -1.107852388446384 3.1911857209629071 -9 -2.4999999999999991 4.3301270189221936 -6 -6.2995949836986492e-09 5 -6 -1.107852388446384 3.1911857209629071 -6 -1.107852388446384 3.1911857209629071 -9 0.37580157663508379 2.5408650916807378 -9 -6.2995949836986492e-09 5 -6 -1.107852388446384 3.1911857209629071 -9 0.37580157663508379 2.5408650916807378 -6 0.37580157663508379 2.5408650916807378 -6 -0.91506351183037493 1.5849364925866429 -6 -1.107852388446384 3.1911857209629071 -6 -1.107852388446384 3.1911857209629071 -9 2.4999999879139869 4.3301270259000564 -9 -6.2995949836986492e-09 5 -6 0.37580157663508379 2.5408650916807378 -9 2.4999999879139869 4.3301270259000564 -6 -6.2995949836986492e-09 5 -6 2.4999999879139869 4.3301270259000564 -6 0.37580157663508379 2.5408650916807378 -6 0.37580157663508379 2.5408650916807378 -9 2.4999999879139869 4.3301270259000564 -6 0.37580157663508379 2.5408650916807378 -6 0.37580157663508379 2.5408650916807378 -9 2.465848112410058 1.4099871989758821 -9 -6.2995949836986492e-09 5 -9 -2.4999999999999991 4.3301270189221936 -6 -1.107852388446384 3.1911857209629071 -9 -6.2995949836986492e-09 5 -6 -6.2995949836986492e-09 5 -6 -2.4999999999999991 4.3301270189221936 -3 -1.107852388446384 3.1911857209629071 -6 -6.2995949836986492e-09 5 -3 -2.4999999999999991 4.3301270189221936 -6 -1.107852388446384 3.1911857209629071 -6 -2.2253246846922492 2.366533744740174 -6 -2.2253246846922492 2.366533744740174 -9 -0.91506351183037493 1.5849364925866429 -6 -1.107852388446384 3.1911857209629071 -6 -1.107852388446384 3.1911857209629071 -9 -2.2253246846922492 2.366533744740174 -9 -1.107852388446384 3.1911857209629071 -9 -2.4999999999999991 4.3301270189221936 -6 -2.2253246846922492 2.366533744740174 -9 -1.107852388446384 3.1911857209629071 -6 -2.4999999999999991 4.3301270189221936 -9 -4.3301270221112951 2.4999999944763132 -6 -2.2253246846922492 2.366533744740174 -9 -2.4999999999999991 4.3301270189221936 -6 -4.3301270221112951 2.4999999944763132 -6 -2.4999999999999991 4.3301270189221936 -6 -2.2253246846922492 2.366533744740174 -6 -2.2253246846922492 2.366533744740174 -9 -0.91506351183037493 1.5849364925866429 -3 -1.107852388446384 3.1911857209629071 -3 -1.107852388446384 3.1911857209629071 -6 -2.2253246846922492 2.366533744740174 -6 -1.107852388446384 3.1911857209629071 -6 -2.4999999999999991 4.3301270189221936 -6 -2.2253246846922492 2.366533744740174 -6 -2.4999999999999991 4.3301270189221936 -3 -6.2995949836986492e-09 5 -6 -2.4999999999999991 4.3301270189221936 -6 -1.107852388446384 3.1911857209629071 -6 -2.4999999999999991 4.3301270189221936 -3 -2.4999999999999991 4.3301270189221936 -3 -1.107852388446384 3.1911857209629071 -3 -2.2253246846922492 2.366533744740174 -3 -2.2253246846922492 2.366533744740174 -6 -1.107852388446384 3.1911857209629071 -6 -2.4999999999999991 4.3301270189221936 -3 -2.2253246846922492 2.366533744740174 -6 -1.107852388446384 3.1911857209629071 -3 -2.4999999999999991 4.3301270189221936 -6 -4.3301270221112951 2.4999999944763132 -3 -2.2253246846922492 2.366533744740174 -6 -2.4999999999999991 4.3301270189221936 -3 -4.3301270221112951 2.4999999944763132 -3 -2.4999999999999991 4.3301270189221936 -3 -2.2253246846922492 2.366533744740174 -3 -2.2253246846922492 2.366533744740174 -6 -2.4999999999999991 4.3301270189221936 -6 -4.3301270221112951 2.4999999944763132 -6 -2.2253246846922492 2.366533744740174 -6 -4.3301270221112951 2.4999999944763132 -3 -2.4999999999999991 4.3301270189221936 -3 -4.3301270221112951 2.4999999944763132 -3 -2.2253246846922492 2.366533744740174 -3 -4.3301270221112951 2.4999999944763132 0 -1.107852388446384 3.1911857209629071 -3 -2.4999999999999991 4.3301270189221936 -3 -2.2253246846922492 2.366533744740174 -3 -2.4999999999999991 4.3301270189221936 0 -6.2995949836986492e-09 5 -3 -2.4999999999999991 4.3301270189221936 -3 -1.107852388446384 3.1911857209629071 -3 -2.4999999999999991 4.3301270189221936 0 -4.3301270221112951 2.4999999944763132 0 -2.4999999999999991 4.3301270189221936 0 -2.2253246846922492 2.366533744740174 0 -2.2253246846922492 2.366533744740174 -3 -0.91506351183037493 1.5849364925866429 0 -1.107852388446384 3.1911857209629071 0 -1.107852388446384 3.1911857209629071 -3 -2.2253246846922492 2.366533744740174 -3 -2.4999999999999991 4.3301270189221936 -3 -4.3301270221112951 2.4999999944763132 0 -2.2253246846922492 2.366533744740174 -3 -2.4999999999999991 4.3301270189221936 0 -1.107852388446384 3.1911857209629071 -3 -2.4999999999999991 4.3301270189221936 0 -2.2253246846922492 2.366533744740174 -3 -1.107852388446384 3.1911857209629071 0 -2.4999999999999991 4.3301270189221936 0 -1.107852388446384 3.1911857209629071 0 -2.2253246846922492 2.366533744740174 0 -2.2253246846922492 2.366533744740174 -3 -5 -1.397247784140632e-08 0 -4.3301270221112951 2.4999999944763132 0 -2.2735805010731909 0.22641949675281539 0 -2.2735805010731909 0.22641949675281539 -3 -4.3301270221112951 2.4999999944763132 -3 -5 -1.397247784140632e-08 0 -2.2735805010731909 0.22641949675281539 -3 -4.3301270221112951 2.4999999944763132 0 -4.3301270221112951 2.4999999944763132 -3 -2.2735805010731909 0.22641949675281539 -3 -2.2253246846922492 2.366533744740174 -3 -4.3301270221112951 2.4999999944763132 0 -4.3301270221112951 2.4999999944763132 -3 -5 -1.397247784140632e-08 -3 -2.2735805010731909 0.22641949675281539 -3 -5 -1.397247784140632e-08 0 -2.2735805010731909 0.22641949675281539 -3 -5 -1.397247784140632e-08 -3 -2.9547160992544761 -1.820741508163664 -3 -5 -1.397247784140632e-08 0 -5 -1.397247784140632e-08 -3 -4.3301270160527148 -2.500000004970083 0 -2.9547160992544761 -1.820741508163664 -3 -5 -1.397247784140632e-08 0 -2.2735805010731909 0.22641949675281539 -3 -5 -1.397247784140632e-08 0 -2.9547160992544761 -1.820741508163664 -3 -2.2735805010731909 0.22641949675281539 0 -5 -1.397247784140632e-08 0 -2.2735805010731909 0.22641949675281539 0 -2.9547160992544761 -1.820741508163664 0 -2.9547160992544761 -1.820741508163664 -3 -0.66987297914647026 -2.499999999706382 -3 -2.2735805010731909 0.22641949675281539 -3 -2.9547160992544761 -1.820741508163664 -3 -2.2735805010731909 0.22641949675281539 0 -2.2735805010731909 0.22641949675281539 -3 -0.66987297914647026 -2.499999999706382 -3 0.20080558631870429 0.033909897404034287 -3 -2.2735805010731909 0.22641949675281539 0 -2.2735805010731909 0.22641949675281539 -3 0.20080558631870429 0.033909897404034287 -3 -0.91506351183037493 1.5849364925866429 -3 -2.2735805010731909 0.22641949675281539 0 -2.2735805010731909 0.22641949675281539 -3 -0.91506351183037493 1.5849364925866429 -3 -2.2253246846922492 2.366533744740174 -3 -2.2735805010731909 0.22641949675281539 0 -0.91506351183037493 1.5849364925866429 -3 -1.107852388446384 3.1911857209629071 -3 -2.2253246846922492 2.366533744740174 -3 -0.91506351183037493 1.5849364925866429 0 -2.2735805010731909 0.22641949675281539 0 -0.91506351183037493 1.5849364925866429 0 -0.91506351183037493 1.5849364925866429 -3 -2.2253246846922492 2.366533744740174 -3 -1.107852388446384 3.1911857209629071 0 -0.91506351183037493 1.5849364925866429 0 -2.2253246846922492 2.366533744740174 0 -2.2253246846922492 2.366533744740174 -3 -4.3301270221112951 2.4999999944763132 0 -2.2735805010731909 0.22641949675281539 0 -2.2735805010731909 0.22641949675281539 -3 -2.2253246846922492 2.366533744740174 -3 -0.91506351183037493 1.5849364925866429 0 -2.2735805010731909 0.22641949675281539 0 -2.2253246846922492 2.366533744740174 0 -2.2253246846922492 2.366533744740174 -3 -2.2735805010731909 0.22641949675281539 0 -4.3301270221112951 2.4999999944763132 0 -2.2253246846922492 2.366533744740174 0 -2.2253246846922492 2.366533744740174 -3 -0.91506351183037493 1.5849364925866429 -3 0.37580157663508379 2.5408650916807378 0 -1.107852388446384 3.1911857209629071 -3 -0.91506351183037493 1.5849364925866429 0 0.37580157663508379 2.5408650916807378 0 0.20080558631870429 0.033909897404034287 0 -0.91506351183037493 1.5849364925866429 0 -0.91506351183037493 1.5849364925866429 -3 0.20080558631870429 0.033909897404034287 0 -2.2735805010731909 0.22641949675281539 0 -0.91506351183037493 1.5849364925866429 0 -0.91506351183037493 1.5849364925866429 -3 0.20080558631870429 0.033909897404034287 0 0.37580157663508379 2.5408650916807378 0 0.37580157663508379 2.5408650916807378 -3 -0.91506351183037493 1.5849364925866429 -3 -0.66987297914647026 -2.499999999706382 0 -2.2735805010731909 0.22641949675281539 0 0.20080558631870429 0.033909897404034287 0 0.20080558631870429 0.033909897404034287 -3 -2.2735805010731909 0.22641949675281539 0 0.20080558631870429 0.033909897404034287 0 0.20080558631870429 0.033909897404034287 -3 -0.91506351183037493 1.5849364925866429 -3 0.20080558631870429 0.033909897404034287 -3 -0.66987297914647026 -2.499999999706382 0 0.95458002071209891 -1.657898275923388 -3 0.20080558631870429 0.033909897404034287 0 -2.2735805010731909 0.22641949675281539 0 -0.66987297914647026 -2.499999999706382 0 -0.66987297914647026 -2.499999999706382 -3 0.20080558631870429 0.033909897404034287 -3 0.20080558631870429 0.033909897404034287 0 2.3883545080289421 -0.94497882694672608 0 0.95458002071209891 -1.657898275923388 0 0.95458002071209891 -1.657898275923388 -3 2.3883545080289421 -0.94497882694672608 0 0.20080558631870429 0.033909897404034287 0 0.20080558631870429 0.033909897404034287 -3 0.95458002071209891 -1.657898275923388 -3 0.20080558631870429 0.033909897404034287 -3 2.3883545080289421 -0.94497882694672608 0 2.465848112410058 1.4099871989758821 -3 0.20080558631870429 0.033909897404034287 0 2.3883545080289421 -0.94497882694672608 0 0.20080558631870429 0.033909897404034287 0 2.465848112410058 1.4099871989758821 0 2.465848112410058 1.4099871989758821 -3 0.37580157663508379 2.5408650916807378 0 2.4999999879139869 4.3301270259000564 0 2.465848112410058 1.4099871989758821 0 2.465848112410058 1.4099871989758821 -3 0.37580157663508379 2.5408650916807378 -3 0.20080558631870429 0.033909897404034287 0 2.465848112410058 1.4099871989758821 -3 0.37580157663508379 2.5408650916807378 0 0.20080558631870429 0.033909897404034287 0 0.37580157663508379 2.5408650916807378 0 2.465848112410058 1.4099871989758821 0 2.465848112410058 1.4099871989758821 -3 0.37580157663508379 2.5408650916807378 -3 0.20080558631870429 0.033909897404034287 -3 2.465848112410058 1.4099871989758821 -3 0.20080558631870429 0.033909897404034287 0 0.20080558631870429 0.033909897404034287 -3 2.3883545080289421 -0.94497882694672608 -3 2.465848112410058 1.4099871989758821 -3 2.3883545080289421 -0.94497882694672608 0 2.3883545080289421 -0.94497882694672608 -3 0.20080558631870429 0.033909897404034287 -3 0.95458002071209891 -1.657898275923388 -3 2.3883545080289421 -0.94497882694672608 0 -0.91506351183037493 1.5849364925866429 -3 0.37580157663508379 2.5408650916807378 -3 -1.107852388446384 3.1911857209629071 -3 0.37580157663508379 2.5408650916807378 0 0.20080558631870429 0.033909897404034287 -3 0.37580157663508379 2.5408650916807378 -3 -0.91506351183037493 1.5849364925866429 -3 0.20080558631870429 0.033909897404034287 0 0.20080558631870429 0.033909897404034287 -3 0.37580157663508379 2.5408650916807378 -3 0.37580157663508379 2.5408650916807378 -6 -0.91506351183037493 1.5849364925866429 -6 0.20080558631870429 0.033909897404034287 -6 0.37580157663508379 2.5408650916807378 -6 -0.91506351183037493 1.5849364925866429 -6 0.20080558631870429 0.033909897404034287 -3 -0.91506351183037493 1.5849364925866429 -6 0.37580157663508379 2.5408650916807378 -6 -1.107852388446384 3.1911857209629071 -6 0.37580157663508379 2.5408650916807378 -3 0.20080558631870429 0.033909897404034287 -3 -2.2735805010731909 0.22641949675281539 -3 -0.91506351183037493 1.5849364925866429 -3 -0.91506351183037493 1.5849364925866429 -6 -0.91506351183037493 1.5849364925866429 -6 0.37580157663508379 2.5408650916807378 -3 -1.107852388446384 3.1911857209629071 -6 -0.91506351183037493 1.5849364925866429 -3 0.37580157663508379 2.5408650916807378 -3 0.20080558631870429 0.033909897404034287 -3 -0.91506351183037493 1.5849364925866429 -3 -0.91506351183037493 1.5849364925866429 -6 0.20080558631870429 0.033909897404034287 -6 -0.66987297914647026 -2.499999999706382 -3 0.95458002071209891 -1.657898275923388 -6 0.20080558631870429 0.033909897404034287 -3 -2.2735805010731909 0.22641949675281539 -3 -0.66987297914647026 -2.499999999706382 -3 -0.66987297914647026 -2.499999999706382 -6 0.20080558631870429 0.033909897404034287 -6 -0.66987297914647026 -2.499999999706382 -3 -2.2735805010731909 0.22641949675281539 -3 0.20080558631870429 0.033909897404034287 -3 0.20080558631870429 0.033909897404034287 -6 -2.2735805010731909 0.22641949675281539 -3 0.20080558631870429 0.033909897404034287 -3 0.20080558631870429 0.033909897404034287 -6 -0.91506351183037493 1.5849364925866429 -6 2.3883545080289421 -0.94497882694672608 -3 0.20080558631870429 0.033909897404034287 -3 0.20080558631870429 0.033909897404034287 -6 0.95458002071209891 -1.657898275923388 -6 2.3883545080289421 -0.94497882694672608 -6 0.20080558631870429 0.033909897404034287 -6 0.95458002071209891 -1.657898275923388 -6 2.3883545080289421 -0.94497882694672608 -3 0.20080558631870429 0.033909897404034287 -3 2.3883545080289421 -0.94497882694672608 -3 0.95458002071209891 -1.657898275923388 -3 0.95458002071209891 -1.657898275923388 -6 0.20080558631870429 0.033909897404034287 -6 2.3883545080289421 -0.94497882694672608 -3 2.465848112410058 1.4099871989758821 -6 0.20080558631870429 0.033909897404034287 -3 0.20080558631870429 0.033909897404034287 -6 2.3883545080289421 -0.94497882694672608 -6 2.465848112410058 1.4099871989758821 -6 2.3883545080289421 -0.94497882694672608 -3 2.3883545080289421 -0.94497882694672608 -3 0.20080558631870429 0.033909897404034287 -3 2.465848112410058 1.4099871989758821 -3 2.465848112410058 1.4099871989758821 -6 0.37580157663508379 2.5408650916807378 -3 2.4999999879139869 4.3301270259000564 -3 2.465848112410058 1.4099871989758821 -3 2.465848112410058 1.4099871989758821 -6 0.37580157663508379 2.5408650916807378 -6 0.20080558631870429 0.033909897404034287 -3 2.465848112410058 1.4099871989758821 -6 0.37580157663508379 2.5408650916807378 -3 0.37580157663508379 2.5408650916807378 -6 0.20080558631870429 0.033909897404034287 -6 2.465848112410058 1.4099871989758821 -6 0.20080558631870429 0.033909897404034287 -3 0.20080558631870429 0.033909897404034287 -3 0.37580157663508379 2.5408650916807378 -3 2.465848112410058 1.4099871989758821 -3 2.465848112410058 1.4099871989758821 -6 0.37580157663508379 2.5408650916807378 -9 0.20080558631870429 0.033909897404034287 -6 2.465848112410058 1.4099871989758821 -9 0.37580157663508379 2.5408650916807378 -6 0.37580157663508379 2.5408650916807378 -6 2.4999999879139869 4.3301270259000564 -6 2.465848112410058 1.4099871989758821 -6 2.465848112410058 1.4099871989758821 -9 0.20080558631870429 0.033909897404034287 -6 0.37580157663508379 2.5408650916807378 -6 2.465848112410058 1.4099871989758821 -6 2.465848112410058 1.4099871989758821 -9 2.3883545080289421 -0.94497882694672608 -6 0.20080558631870429 0.033909897404034287 -6 0.20080558631870429 0.033909897404034287 -9 0.95458002071209891 -1.657898275923388 -9 0.20080558631870429 0.033909897404034287 -6 2.3883545080289421 -0.94497882694672608 -6 0.95458002071209891 -1.657898275923388 -6 0.95458002071209891 -1.657898275923388 -9 0.20080558631870429 0.033909897404034287 -9 2.3883545080289421 -0.94497882694672608 -6 2.465848112410058 1.4099871989758821 -9 0.20080558631870429 0.033909897404034287 -6 2.3883545080289421 -0.94497882694672608 -6 0.20080558631870429 0.033909897404034287 -6 2.465848112410058 1.4099871989758821 -6 2.465848112410058 1.4099871989758821 -9 -2.2735805010731909 0.22641949675281539 -6 0.20080558631870429 0.033909897404034287 -6 0.20080558631870429 0.033909897404034287 -9 -0.91506351183037493 1.5849364925866429 -9 -0.66987297914647026 -2.499999999706382 -6 -2.2735805010731909 0.22641949675281539 -6 0.20080558631870429 0.033909897404034287 -6 0.20080558631870429 0.033909897404034287 -9 -2.2735805010731909 0.22641949675281539 -6 -0.66987297914647026 -2.499999999706382 -6 -0.66987297914647026 -2.499999999706382 -9 0.20080558631870429 0.033909897404034287 -9 0.20080558631870429 0.033909897404034287 -9 -0.66987297914647026 -2.499999999706382 -6 0.95458002071209891 -1.657898275923388 -9 0.20080558631870429 0.033909897404034287 -6 -0.91506351183037493 1.5849364925866429 -9 0.37580157663508379 2.5408650916807378 -6 -1.107852388446384 3.1911857209629071 -9 -0.91506351183037493 1.5849364925866429 -6 0.20080558631870429 0.033909897404034287 -6 -2.2735805010731909 0.22641949675281539 -6 -0.91506351183037493 1.5849364925866429 -6 -0.91506351183037493 1.5849364925866429 -9 0.20080558631870429 0.033909897404034287 -6 0.37580157663508379 2.5408650916807378 -6 0.37580157663508379 2.5408650916807378 -9 -0.91506351183037493 1.5849364925866429 -9 0.37580157663508379 2.5408650916807378 -6 0.20080558631870429 0.033909897404034287 -6 -0.91506351183037493 1.5849364925866429 -6 -0.91506351183037493 1.5849364925866429 -9 -2.2735805010731909 0.22641949675281539 -6 -4.3301270221112951 2.4999999944763132 -6 -2.2253246846922492 2.366533744740174 -6 -2.2253246846922492 2.366533744740174 -9 -1.107852388446384 3.1911857209629071 -6 -0.91506351183037493 1.5849364925866429 -6 -2.2253246846922492 2.366533744740174 -6 -2.2253246846922492 2.366533744740174 -9 -4.3301270221112951 2.4999999944763132 -6 -2.2735805010731909 0.22641949675281539 -6 -2.2735805010731909 0.22641949675281539 -9 -2.2253246846922492 2.366533744740174 -9 -2.2735805010731909 0.22641949675281539 -6 -0.91506351183037493 1.5849364925866429 -6 -0.91506351183037493 1.5849364925866429 -9 -2.2253246846922492 2.366533744740174 -9 -0.91506351183037493 1.5849364925866429 -6 -2.2735805010731909 0.22641949675281539 -6 -2.2253246846922492 2.366533744740174 -6 -2.2253246846922492 2.366533744740174 -9 -5 -1.397247784140632e-08 -6 -4.3301270221112951 2.4999999944763132 -6 -2.2735805010731909 0.22641949675281539 -6 -2.2735805010731909 0.22641949675281539 -9 -4.3301270221112951 2.4999999944763132 -9 -5 -1.397247784140632e-08 -6 -2.2735805010731909 0.22641949675281539 -9 -4.3301270221112951 2.4999999944763132 -6 -5 -1.397247784140632e-08 -3 -4.3301270221112951 2.4999999944763132 -3 -2.2735805010731909 0.22641949675281539 -3 -2.2735805010731909 0.22641949675281539 -6 -4.3301270221112951 2.4999999944763132 -6 -2.2735805010731909 0.22641949675281539 -6 -2.2253246846922492 2.366533744740174 -6 -4.3301270221112951 2.4999999944763132 -3 -4.3301270221112951 2.4999999944763132 -6 -5 -1.397247784140632e-08 -6 -2.2735805010731909 0.22641949675281539 -6 -5 -1.397247784140632e-08 -3 -4.3301270221112951 2.4999999944763132 -6 -5 -1.397247784140632e-08 -3 -2.2735805010731909 0.22641949675281539 -6 -4.3301270221112951 2.4999999944763132 -3 -1.107852388446384 3.1911857209629071 -3 -0.91506351183037493 1.5849364925866429 -3 -2.2253246846922492 2.366533744740174 -3 -2.2253246846922492 2.366533744740174 -6 -2.2735805010731909 0.22641949675281539 -3 -4.3301270221112951 2.4999999944763132 -3 -2.2253246846922492 2.366533744740174 -3 -2.2253246846922492 2.366533744740174 -6 -0.91506351183037493 1.5849364925866429 -6 -1.107852388446384 3.1911857209629071 -6 -2.2253246846922492 2.366533744740174 -6 -0.91506351183037493 1.5849364925866429 -3 -0.91506351183037493 1.5849364925866429 -3 -2.2735805010731909 0.22641949675281539 -3 -2.2253246846922492 2.366533744740174 -3 -2.2253246846922492 2.366533744740174 -6 -2.2735805010731909 0.22641949675281539 -6 -0.91506351183037493 1.5849364925866429 -6 -2.2253246846922492 2.366533744740174 -6 -2.2735805010731909 0.22641949675281539 -3 -2.2735805010731909 0.22641949675281539 -3 -0.91506351183037493 1.5849364925866429 -3 -0.91506351183037493 1.5849364925866429 -6 -2.2253246846922492 2.366533744740174 -6 -4.3301270221112951 2.4999999944763132 -3 -2.2735805010731909 0.22641949675281539 -3 -2.2735805010731909 0.22641949675281539 -6 -2.2253246846922492 2.366533744740174 -6 -2.2735805010731909 0.22641949675281539 -6 -0.66987297914647026 -2.499999999706382 -6 0.20080558631870429 0.033909897404034287 -6 -2.2735805010731909 0.22641949675281539 -3 -2.2735805010731909 0.22641949675281539 -6 0.20080558631870429 0.033909897404034287 -6 -0.91506351183037493 1.5849364925866429 -6 -2.2735805010731909 0.22641949675281539 -3 -0.66987297914647026 -2.499999999706382 -6 -2.2735805010731909 0.22641949675281539 -6 -2.9547160992544761 -1.820741508163664 -6 -2.2735805010731909 0.22641949675281539 -3 -5 -1.397247784140632e-08 -6 -4.3301270160527148 -2.500000004970083 -3 -2.9547160992544761 -1.820741508163664 -6 -5 -1.397247784140632e-08 -3 -5 -1.397247784140632e-08 -3 -2.2735805010731909 0.22641949675281539 -3 -2.9547160992544761 -1.820741508163664 -3 -2.9547160992544761 -1.820741508163664 -6 -2.2735805010731909 0.22641949675281539 -6 -5 -1.397247784140632e-08 -6 -2.9547160992544761 -1.820741508163664 -6 -5 -1.397247784140632e-08 -3 -2.2735805010731909 0.22641949675281539 -6 -5 -1.397247784140632e-08 -3 -2.9547160992544761 -1.820741508163664 -6 -2.2735805010731909 0.22641949675281539 -3 -5 -1.397247784140632e-08 -9 -4.3301270160527148 -2.500000004970083 -6 -2.9547160992544761 -1.820741508163664 -9 -5 -1.397247784140632e-08 -6 -2.2735805010731909 0.22641949675281539 -9 -5 -1.397247784140632e-08 -6 -2.9547160992544761 -1.820741508163664 -9 -2.2735805010731909 0.22641949675281539 -6 -5 -1.397247784140632e-08 -6 -2.2735805010731909 0.22641949675281539 -6 -2.9547160992544761 -1.820741508163664 -6 -2.9547160992544761 -1.820741508163664 -9 -0.66987297914647026 -2.499999999706382 -9 -2.2735805010731909 0.22641949675281539 -6 -2.9547160992544761 -1.820741508163664 -9 -0.66987297914647026 -2.499999999706382 -6 -2.2735805010731909 0.22641949675281539 -6 -0.66987297914647026 -2.499999999706382 -6 -2.9547160992544761 -1.820741508163664 -6 -2.9547160992544761 -1.820741508163664 -9 -2.5000000000000022 -4.3301270189221919 -6 -0.66987297914647026 -2.499999999706382 -6 -0.66987297914647026 -2.499999999706382 -9 -2.9547160992544761 -1.820741508163664 -9 -0.66987297914647026 -2.499999999706382 -6 -2.5000000000000022 -4.3301270189221919 -6 -2.9547160992544761 -1.820741508163664 -6 -2.9547160992544761 -1.820741508163664 -9 -2.5000000000000022 -4.3301270189221919 -6 -4.3301270160527148 -2.500000004970083 -6 -2.9547160992544761 -1.820741508163664 -6 -2.9547160992544761 -1.820741508163664 -9 -4.3301270160527148 -2.500000004970083 -6 -5 -1.397247784140632e-08 -6 -2.9547160992544761 -1.820741508163664 -6 -2.9547160992544761 -1.820741508163664 -9 -4.3301270160527148 -2.500000004970083 -9 -2.5000000000000022 -4.3301270189221919 -6 -2.9547160992544761 -1.820741508163664 -9 -4.3301270160527148 -2.500000004970083 -6 -4.3301270160527148 -2.500000004970083 -6 -2.5000000000000022 -4.3301270189221919 -3 -2.9547160992544761 -1.820741508163664 -6 -4.3301270160527148 -2.500000004970083 -3 -5 -1.397247784140632e-08 -6 -4.3301270160527148 -2.500000004970083 -6 -2.9547160992544761 -1.820741508163664 -6 -4.3301270160527148 -2.500000004970083 -3 -4.3301270160527148 -2.500000004970083 -3 -5 -1.397247784140632e-08 -3 -2.9547160992544761 -1.820741508163664 -3 -2.9547160992544761 -1.820741508163664 -6 -2.5000000000000022 -4.3301270189221919 -3 -4.3301270160527148 -2.500000004970083 -3 -2.9547160992544761 -1.820741508163664 -3 -2.9547160992544761 -1.820741508163664 -6 -0.66987297914647026 -2.499999999706382 -3 -2.5000000000000022 -4.3301270189221919 -3 -2.9547160992544761 -1.820741508163664 -3 -2.9547160992544761 -1.820741508163664 -6 -2.2735805010731909 0.22641949675281539 -3 -0.66987297914647026 -2.499999999706382 -3 -2.9547160992544761 -1.820741508163664 -3 -2.9547160992544761 -1.820741508163664 -6 -2.5000000000000022 -4.3301270189221919 -3 -0.66987297914647026 -2.499999999706382 -3 -0.66987297914647026 -2.499999999706382 -6 -2.9547160992544761 -1.820741508163664 -6 -0.66987297914647026 -2.499999999706382 -6 -2.2735805010731909 0.22641949675281539 -3 -2.9547160992544761 -1.820741508163664 -6 -0.66987297914647026 -2.499999999706382 -3 -2.5000000000000022 -4.3301270189221919 -6 -0.66987297914647026 -2.499999999706382 -6 -2.9547160992544761 -1.820741508163664 -6 -2.5000000000000022 -4.3301270189221919 -3 -4.3301270160527148 -2.500000004970083 -6 -2.5000000000000022 -4.3301270189221919 -6 -2.9547160992544761 -1.820741508163664 -6 -2.5000000000000022 -4.3301270189221919 -3 -2.5000000000000022 -4.3301270189221919 -6 6.9142305214597846e-09 -5 -3 -0.66987297914647026 -2.499999999706382 -6 -2.5000000000000022 -4.3301270189221919 -3 -2.5000000000000022 -4.3301270189221919 -9 6.9142305214597846e-09 -5 -6 -0.66987297914647026 -2.499999999706382 -9 -2.5000000000000022 -4.3301270189221919 -6 -0.66987297914647026 -2.499999999706382 -9 6.9142305214597846e-09 -5 -6 0.91506351643986317 -3.4150635091400758 -9 -0.66987297914647026 -2.499999999706382 -6 6.9142305214597846e-09 -5 -6 -2.5000000000000022 -4.3301270189221919 -6 -0.66987297914647026 -2.499999999706382 -6 -0.66987297914647026 -2.499999999706382 -9 6.9142305214597846e-09 -5 -6 -0.66987297914647026 -2.499999999706382 -6 0.91506351643986317 -3.4150635091400758 -6 0.91506351643986317 -3.4150635091400758 -9 0.95458002071209891 -1.657898275923388 -9 -0.66987297914647026 -2.499999999706382 -6 0.91506351643986317 -3.4150635091400758 -9 0.91506351643986317 -3.4150635091400758 -6 -0.66987297914647026 -2.499999999706382 -6 0.20080558631870429 0.033909897404034287 -6 0.95458002071209891 -1.657898275923388 -6 0.95458002071209891 -1.657898275923388 -9 -0.66987297914647026 -2.499999999706382 -6 0.95458002071209891 -1.657898275923388 -6 0.91506351643986317 -3.4150635091400758 -6 0.95458002071209891 -1.657898275923388 -9 0.95458002071209891 -1.657898275923388 -6 2.3883545080289421 -0.94497882694672608 -6 2.217625015551433 -2.5696135239339939 -6 2.217625015551433 -2.5696135239339939 -9 2.3883545080289421 -0.94497882694672608 -6 0.95458002071209891 -1.657898275923388 -6 0.95458002071209891 -1.657898275923388 -9 2.217625015551433 -2.5696135239339939 -9 0.91506351643986317 -3.4150635091400758 -6 0.95458002071209891 -1.657898275923388 -6 2.217625015551433 -2.5696135239339939 -6 2.217625015551433 -2.5696135239339939 -9 0.95458002071209891 -1.657898275923388 -9 0.91506351643986317 -3.4150635091400758 -6 2.217625015551433 -2.5696135239339939 -9 0.95458002071209891 -1.657898275923388 -6 6.9142305214597846e-09 -5 -9 2.500000010727558 -4.3301270127286351 -6 0.91506351643986317 -3.4150635091400758 -9 6.9142305214597846e-09 -5 -6 2.500000010727558 -4.3301270127286351 -6 6.9142305214597846e-09 -5 -6 0.91506351643986317 -3.4150635091400758 -6 0.91506351643986317 -3.4150635091400758 -9 2.500000010727558 -4.3301270127286351 -6 0.91506351643986317 -3.4150635091400758 -6 2.217625015551433 -2.5696135239339939 -6 2.217625015551433 -2.5696135239339939 -9 0.91506351643986317 -3.4150635091400758 -9 2.500000010727558 -4.3301270127286351 -6 2.217625015551433 -2.5696135239339939 -9 0.91506351643986317 -3.4150635091400758 -6 2.500000010727558 -4.3301270127286351 -3 6.9142305214597846e-09 -5 -3 0.91506351643986317 -3.4150635091400758 -3 0.91506351643986317 -3.4150635091400758 -6 0.91506351643986317 -3.4150635091400758 -6 2.500000010727558 -4.3301270127286351 -6 2.217625015551433 -2.5696135239339939 -6 2.500000010727558 -4.3301270127286351 -3 0.91506351643986317 -3.4150635091400758 -6 2.500000010727558 -4.3301270127286351 -3 2.217625015551433 -2.5696135239339939 -6 0.91506351643986317 -3.4150635091400758 -3 2.500000010727558 -4.3301270127286351 -3 0.91506351643986317 -3.4150635091400758 -3 2.217625015551433 -2.5696135239339939 -3 2.217625015551433 -2.5696135239339939 -6 6.9142305214597846e-09 -5 -6 2.500000010727558 -4.3301270127286351 -6 0.91506351643986317 -3.4150635091400758 -6 2.500000010727558 -4.3301270127286351 -3 6.9142305214597846e-09 -5 -6 2.500000010727558 -4.3301270127286351 -3 0.91506351643986317 -3.4150635091400758 -6 6.9142305214597846e-09 -5 -3 0.95458002071209891 -1.657898275923388 -6 0.91506351643986317 -3.4150635091400758 -3 2.217625015551433 -2.5696135239339939 -6 0.95458002071209891 -1.657898275923388 -3 2.3883545080289421 -0.94497882694672608 -3 0.95458002071209891 -1.657898275923388 -3 0.95458002071209891 -1.657898275923388 -6 2.217625015551433 -2.5696135239339939 -6 2.3883545080289421 -0.94497882694672608 -6 0.95458002071209891 -1.657898275923388 -6 2.217625015551433 -2.5696135239339939 -6 2.3883545080289421 -0.94497882694672608 -3 0.95458002071209891 -1.657898275923388 -3 2.3883545080289421 -0.94497882694672608 -3 2.217625015551433 -2.5696135239339939 -3 2.217625015551433 -2.5696135239339939 -6 0.91506351643986317 -3.4150635091400758 -3 0.95458002071209891 -1.657898275923388 -3 2.217625015551433 -2.5696135239339939 -3 2.217625015551433 -2.5696135239339939 -6 0.95458002071209891 -1.657898275923388 -6 0.91506351643986317 -3.4150635091400758 -6 2.217625015551433 -2.5696135239339939 -6 0.91506351643986317 -3.4150635091400758 -3 -0.66987297914647026 -2.499999999706382 -3 0.20080558631870429 0.033909897404034287 -3 0.95458002071209891 -1.657898275923388 -3 0.95458002071209891 -1.657898275923388 -6 0.20080558631870429 0.033909897404034287 -6 -0.66987297914647026 -2.499999999706382 -6 0.95458002071209891 -1.657898275923388 -6 -0.66987297914647026 -2.499999999706382 -3 -0.66987297914647026 -2.499999999706382 -3 0.95458002071209891 -1.657898275923388 -3 0.91506351643986317 -3.4150635091400758 -3 0.95458002071209891 -1.657898275923388 -6 0.95458002071209891 -1.657898275923388 -6 -0.66987297914647026 -2.499999999706382 -6 0.91506351643986317 -3.4150635091400758 -6 -0.66987297914647026 -2.499999999706382 -3 0.95458002071209891 -1.657898275923388 -6 -0.66987297914647026 -2.499999999706382 -3 0.91506351643986317 -3.4150635091400758 -6 0.91506351643986317 -3.4150635091400758 -3 6.9142305214597846e-09 -5 -3 -0.66987297914647026 -2.499999999706382 -3 0.91506351643986317 -3.4150635091400758 -3 0.91506351643986317 -3.4150635091400758 -6 -0.66987297914647026 -2.499999999706382 -6 6.9142305214597846e-09 -5 -6 0.91506351643986317 -3.4150635091400758 -6 6.9142305214597846e-09 -5 -3 -0.66987297914647026 -2.499999999706382 -6 6.9142305214597846e-09 -5 -3 0.91506351643986317 -3.4150635091400758 -6 -0.66987297914647026 -2.499999999706382 -3 -2.5000000000000022 -4.3301270189221919 -6 6.9142305214597846e-09 -5 -6 -0.66987297914647026 -2.499999999706382 -6 6.9142305214597846e-09 -5 -3 6.9142305214597846e-09 -5 -3 -2.5000000000000022 -4.3301270189221919 -3 -0.66987297914647026 -2.499999999706382 -3 -0.66987297914647026 -2.499999999706382 -6 -0.66987297914647026 -2.499999999706382 -3 6.9142305214597846e-09 -5 -3 0.91506351643986317 -3.4150635091400758 -3 6.9142305214597846e-09 -5 0 -2.5000000000000022 -4.3301270189221919 -3 6.9142305214597846e-09 -5 -3 -0.66987297914647026 -2.499999999706382 -3 6.9142305214597846e-09 -5 0 0.95458002071209891 -1.657898275923388 -3 -0.66987297914647026 -2.499999999706382 -3 0.91506351643986317 -3.4150635091400758 -3 -0.66987297914647026 -2.499999999706382 0 0.20080558631870429 0.033909897404034287 -3 -0.66987297914647026 -2.499999999706382 -3 0.95458002071209891 -1.657898275923388 -3 -0.66987297914647026 -2.499999999706382 0 2.3883545080289421 -0.94497882694672608 -3 0.95458002071209891 -1.657898275923388 -3 2.217625015551433 -2.5696135239339939 -3 2.3883545080289421 -0.94497882694672608 0 0.95458002071209891 -1.657898275923388 -3 0.91506351643986317 -3.4150635091400758 -3 2.217625015551433 -2.5696135239339939 -3 0.91506351643986317 -3.4150635091400758 0 0.91506351643986317 -3.4150635091400758 -3 2.500000010727558 -4.3301270127286351 -3 2.217625015551433 -2.5696135239339939 -3 2.500000010727558 -4.3301270127286351 0 6.9142305214597846e-09 -5 -3 2.500000010727558 -4.3301270127286351 -3 0.91506351643986317 -3.4150635091400758 -3 2.500000010727558 -4.3301270127286351 0 2.500000010727558 -4.3301270127286351 0 0.91506351643986317 -3.4150635091400758 0 2.217625015551433 -2.5696135239339939 0 2.217625015551433 -2.5696135239339939 -3 0.91506351643986317 -3.4150635091400758 -3 2.500000010727558 -4.3301270127286351 0 2.217625015551433 -2.5696135239339939 -3 0.91506351643986317 -3.4150635091400758 0 2.500000010727558 -4.3301270127286351 0 6.9142305214597846e-09 -5 0 0.91506351643986317 -3.4150635091400758 0 0.91506351643986317 -3.4150635091400758 -3 6.9142305214597846e-09 -5 -3 2.500000010727558 -4.3301270127286351 0 0.91506351643986317 -3.4150635091400758 -3 6.9142305214597846e-09 -5 0 0.91506351643986317 -3.4150635091400758 0 0.95458002071209891 -1.657898275923388 0 2.217625015551433 -2.5696135239339939 0 2.217625015551433 -2.5696135239339939 -3 0.95458002071209891 -1.657898275923388 -3 0.91506351643986317 -3.4150635091400758 0 2.217625015551433 -2.5696135239339939 -3 0.95458002071209891 -1.657898275923388 0 0.95458002071209891 -1.657898275923388 0 2.3883545080289421 -0.94497882694672608 0 2.217625015551433 -2.5696135239339939 0 2.217625015551433 -2.5696135239339939 -3 2.3883545080289421 -0.94497882694672608 0 0.95458002071209891 -1.657898275923388 0 0.95458002071209891 -1.657898275923388 -3 2.217625015551433 -2.5696135239339939 -3 0.95458002071209891 -1.657898275923388 -3 -0.66987297914647026 -2.499999999706382 0 0.91506351643986317 -3.4150635091400758 -3 0.91506351643986317 -3.4150635091400758 0 -0.66987297914647026 -2.499999999706382 0 0.95458002071209891 -1.657898275923388 0 0.91506351643986317 -3.4150635091400758 0 0.95458002071209891 -1.657898275923388 -3 -0.66987297914647026 -2.499999999706382 0 0.20080558631870429 0.033909897404034287 0 0.95458002071209891 -1.657898275923388 0 0.95458002071209891 -1.657898275923388 -3 6.9142305214597846e-09 -5 0 -2.5000000000000022 -4.3301270189221919 0 -0.66987297914647026 -2.499999999706382 0 -0.66987297914647026 -2.499999999706382 -3 -0.66987297914647026 -2.499999999706382 -3 6.9142305214597846e-09 -5 0 0.91506351643986317 -3.4150635091400758 -3 -0.66987297914647026 -2.499999999706382 0 6.9142305214597846e-09 -5 0 -0.66987297914647026 -2.499999999706382 0 0.91506351643986317 -3.4150635091400758 0 0.91506351643986317 -3.4150635091400758 -3 -2.5000000000000022 -4.3301270189221919 -3 6.9142305214597846e-09 -5 0 -0.66987297914647026 -2.499999999706382 -3 -2.5000000000000022 -4.3301270189221919 0 -2.5000000000000022 -4.3301270189221919 -3 -0.66987297914647026 -2.499999999706382 -3 -2.9547160992544761 -1.820741508163664 -3 -2.5000000000000022 -4.3301270189221919 0 -4.3301270160527148 -2.500000004970083 -3 -2.5000000000000022 -4.3301270189221919 -3 -2.9547160992544761 -1.820741508163664 -3 -2.5000000000000022 -4.3301270189221919 0 -2.5000000000000022 -4.3301270189221919 0 -0.66987297914647026 -2.499999999706382 0 -0.66987297914647026 -2.499999999706382 -3 -2.9547160992544761 -1.820741508163664 -3 -0.66987297914647026 -2.499999999706382 0 -2.5000000000000022 -4.3301270189221919 0 -2.9547160992544761 -1.820741508163664 0 -2.9547160992544761 -1.820741508163664 -3 -0.66987297914647026 -2.499999999706382 -3 -2.2735805010731909 0.22641949675281539 0 -2.9547160992544761 -1.820741508163664 -3 -0.66987297914647026 -2.499999999706382 0 -2.2735805010731909 0.22641949675281539 0 -0.66987297914647026 -2.499999999706382 0 -2.9547160992544761 -1.820741508163664 0 -2.9547160992544761 -1.820741508163664 -3 -4.3301270160527148 -2.500000004970083 0 -5 -1.397247784140632e-08 0 -2.9547160992544761 -1.820741508163664 0 -2.9547160992544761 -1.820741508163664 -3 -2.5000000000000022 -4.3301270189221919 0 -4.3301270160527148 -2.500000004970083 0 -2.9547160992544761 -1.820741508163664 0 -2.9547160992544761 -1.820741508163664 -3 -4.3301270160527148 -2.500000004970083 -3 -2.5000000000000022 -4.3301270189221919 0 -2.9547160992544761 -1.820741508163664 -3 -4.3301270160527148 -2.500000004970083 0 -5 -1.397247784140632e-08 -3 -4.3301270160527148 -2.500000004970083 -3 -2.9547160992544761 -1.820741508163664 -3 -4.3301270160527148 -2.500000004970083 0 
</DataArray>
</Points>
<Cells>
<DataArray type="UInt32" Name="connectivity" format="ascii">
0 1 2 3 4 5 6 7 8 9 10 11 12 13 14 15 16 17 18 19 20 21 22 23 24 25 26 27 28 29 30 31 32 33 34 35 36 37 38 39 40 41 42 43 44 45 46 47 48 49 50 51 52 53 54 55 56 57 58 59 60 61 62 63 64 65 66 67 68 69 70 71 72 73 74 75 76 77 78 79 80 81 82 83 84 85 86 87 88 89 90 91 92 93 94 95 96 97 98 99 100 101 102 103 104 105 106 107 108 109 110 111 112 113 114 115 116 117 118 119 120 121 122 123 124 125 126 127 128 129 130 131 132 133 134 135 136 137 138 139 140 141 142 143 144 145 146 147 148 149 150 151 152 153 154 155 156 157 158 159 160 161 162 163 164 165 166 167 168 169 170 171 172 173 174 175 176 177 178 179 180 181 182 183 184 185 186 187 188 189 190 191 192 193 194 195 196 197 198 199 200 201 202 203 204 205 206 207 208 209 210 211 212 213 214 215 216 217 218 219 220 221 222 223 224 225 226 227 228 229 230 231 232 233 234 235 236 237 238 239 240 241 242 243 244 245 246 247 248 249 250 251 252 253 254 255 256 257 258 259 260 261 262 263 264 265 266 267 268 269 270 271 272 273 274 275 276 277 278 279 280 281 282 283 284 285 286 287 288 289 290 291 292 293 294 295 296 297 298 299 300 301 302 303 304 305 306 307 308 309 310 311 312 313 314 315 316 317 318 319 320 321 322 323 324 325 326 327 328 329 330 331 332 333 334 335 336 337 338 339 340 341 342 343 344 345 346 347 348 349 350 351 352 353 354 355 356 357 358 359 360 361 362 363 364 365 366 367 368 369 370 371 372 373 374 375 376 377 378 379 380 381 382 383 384 385 386 387 388 389 390 391 392 393 394 395 396 397 398 399 400 401 402 403 404 405 406 407 408 409 410 411 412 413 414 415 416 417 418 419 420 421 422 423 424 425 426 427 428 429 430 431 432 433 434 435 436 437 438 439 440 441 442 443 444 445 446 447 448 449 450 451 452 453 454 455 456 457 458 459 460 461 462 463 464 465 466 467 468 469 470 471 472 473 474 475 476 477 478 479 480 481 482 483 484 485 486 487 488 489 490 491 492 493 494 495 496 497 498 499 500 501 502 503 504 505 506 507 508 509 510 511 512 513 514 515 516 517 518 519 520 521 522 523 524 525 526 527 528 529 530 531 532 533 534 535 536 537 538 539 540 541 542 543 544 545 546 547 548 549 550 551 552 553 554 555 556 557 558 559 560 561 562 563 564 565 566 567 568 569 570 571 572 573 574 575 576 577 578 579 580 581 582 583 584 585 586 587 588 589 590 591 592 593 594 595 596 597 598 599 600 601 602 603 604 605 606 607 608 609 610 611 612 613 614 615 616 617 618 619 620 621 622 623 624 625 626 627 628 629 630 631 632 633 634 635 636 637 638 639 640 641 642 643 644 645 646 647 648 649 650 651 652 653 654 655 656 657 658 659 660 661 662 663 664 665 666 667 668 669 670 671 672 673 674 675 676 677 678 679 680 681 682 683 684 685 686 687 688 689 690 691 692 693 694 695 696 697 698 699 700 701 702 703 704 705 706 707 708 709 710 711 712 713 714 715 716 717 718 719 720 721 722 723 724 725 726 727 728 729 730 731 732 733 734 735 736 737 738 739 740 741 742 743 744 745 746 747 748 749 750 751 752 753 754 755 756 757 758 759 760 761 762 763 764 765 766 767 768 769 770 771 772 773 774 775 776 777 778 779 780 781 782 783 784 785 786 787 788 789 790 791 792 793 794 795 796 797 798 799 800 801 802 803 804 805 806 807 808 809 810 811 812 813 814 815 816 817 818 819 820 821 822 823 824 825 826 827 828 829 830 831 832 833 834 835 836 837 838 839 840 841 842 843 844 845 846 847 848 849 850 851 852 853 854 855 856 857 858 859 860 861 862 863 864 865 866 867 868 869 870 871 872 873 874 875 876 877 878 879 880 881 882 883 884 885 886 887 888 889 890 891 892 893 894 895 896 897 898 899 900 901 902 903 904 905 906 907 908 909 910 911 912 913 914 915 916 917 918 919 920 921 922 923 924 925 926 927 928 929 930 931 932 933 934 935 936 937 938 939 940 941 942 943 944 945 946 947 948 949 950 951 952 953 954 955 956 957 958 959 960 961 962 963 964 965 966 967 968 969 970 971 972 973 974 975 976 977 978 979 980 981 982 983 984 985 986 987 988 989 990 991 992 993 994 995 996 997 998 999 1000 1001 1002 1003 1004 1005 1006 1007 1008 1009 1010 1011 1012 1013 1014 1015 1016 1017 1018 1019 1020 1021 1022 1023 1024 1025 1026 1027 1028 1029 1030 1031 1032 1033 1034 1035 1036 1037 1038 1039 1040 1041 1042 1043 1044 1045 1046 1047 1048 1049 1050 1051 1052 1053 1054 1055 1056 1057 1058 1059 1060 1061 1062 1063 1064 1065 1066 1067 1068 1069 1070 1071 1072 1073 1074 1075 1076 1077 1078 1079 1080 1081 1082 1083 1084 1085 1086 1087 1088 1089 1090 1091 1092 1093 1094 1095 1096 1097 1098 1099 1100 1101 1102 1103 1104 1105 1106 1107 1108 1109 1110 1111 1112 1113 1114 1115 1116 1117 1118 1119 1120 1121 1122 1123 1124 1125 1126 1127 1128 1129 1130 1131 1132 1133 1134 1135 1136 1137 1138 1139 1140 1141 1142 1143 1144 1145 1146 1147 1148 1149 1150 1151 1152 1153 1154 1155 1156 1157 1158 1159 1160 1161 1162 1163 1164 1165 1166 1167 1168 1169 1170 1171 1172 1173 1174 1175 1176 1177 1178 1179 1180 1181 1182 1183 1184 1185 1186 1187 1188 1189 1190 1191 1192 1193 1194 1195 1196 1197 1198 1199 1200 1201 1202 1203 1204 1205 1206 1207 1208 1209 1210 1211 1212 1213 1214 1215 1216 1217 1218 1219 1220 1221 1222 1223 1224 1225 1226 1227 1228 1229 1230 1231 1232 1233 1234 1235 1236 1237 1238 1239 1240 1241 1242 1243 1244 1245 1246 1247 1248 1249 1250 1251 1252 1253 1254 1255 1256 1257 1258 1259 1260 1261 1262 1263 1264 1265 1266 1267 1268 1269 1270 1271 1272 1273 1274 1275 1276 1277 1278 1279 1280 1281 1282 1283 1284 1285 1286 1287 1288 1289 1290 1291 1292 1293 1294 1295 1296 1297 1298 1299 1300 1301 1302 1303 1304 1305 1306 1307 1308 1309 1310 1311 1312 1313 1314 1315 1316 1317 1318 1319 1320 1321 1322 1323 1324 1325 1326 1327 1328 1329 1330 1331 1332 1333 1334 1335 1336 1337 1338 1339 1340 1341 1342 1343 1344 1345 1346 1347 1348 1349 1350 1351 1352 1353 1354 1355 1356 1357 1358 1359 1360 1361 1362 1363 1364 1365 1366 1367 1368 1369 1370 1371 1372 1373 1374 1375 1376 1377 1378 1379 1380 1381 1382 1383 1384 1385 1386 1387 1388 1389 1390 1391 1392 1393 1394 1395 1396 1397 1398 1399 1400 1401 1402 1403 1404 1405 1406 1407 1408 1409 1410 1411 1412 1413 1414 1415 1416 1417 1418 1419 1420 1421 1422 1423 1424 1425 1426 1427 1428 1429 1430 1431 1432 1433 1434 1435 1436 1437 1438 1439 1440 1441 1442 1443 1444 1445 1446 1447 1448 1449 1450 1451 1452 1453 1454 1455 1456 1457 1458 1459 1460 1461 1462 1463 1464 1465 1466 1467 1468 1469 1470 1471 1472 1473 1474 1475 1476 1477 1478 1479 1480 1481 1482 1483 1484 1485 1486 1487 1488 1489 1490 1491 1492 1493 1494 1495 1496 1497 1498 1499 1500 1501 1502 1503 1504 1505 1506 1507 1508 1509 1510 1511 1512 1513 1514 1515 1516 1517 1518 1519 1520 1521 1522 1523 1524 1525 1526 1527 1528 1529 1530 1531 1532 1533 1534 1535 1536 1537 1538 1539 1540 1541 1542 1543 1544 1545 1546 1547 1548 1549 1550 1551 1552 1553 1554 1555 1556 1557 1558 1559 1560 1561 1562 1563 1564 1565 1566 1567 1568 1569 1570 1571 1572 1573 1574 1575 1576 1577 1578 1579 1580 1581 1582 1583 1584 1585 1586 1587 1588 1589 1590 1591 1592 1593 1594 1595 1596 1597 1598 1599 1600 1601 1602 1603 1604 1605 1606 1607 1608 1609 1610 1611 1612 1613 1614 1615 1616 1617 1618 1619 1620 1621 1622 1623 1624 1625 1626 1627 1628 1629 1630 1631 1632 1633 1634 1635 1636 1637 1638 1639 1640 1641 1642 1643 1644 1645 1646 1647 1648 1649 1650 1651 1652 1653 1654 1655 1656 1657 1658 1659 1660 1661 1662 1663 1664 1665 1666 1667 1668 1669 1670 1671 1672 1673 1674 1675 1676 1677 1678 1679 1680 1681 1682 1683 1684 1685 1686 1687 1688 1689 1690 1691 1692 1693 1694 1695 1696 1697 1698 1699 1700 1701 1702 1703 1704 1705 1706 1707 1708 1709 1710 1711 1712 1713 1714 1715 1716 1717 1718 1719 1720 1721 1722 1723 1724 1725 1726 1727 1728 1729 1730 1731 1732 1733 1734 1735 1736 1737 1738 1739 1740 1741 1742 1743 1744 1745 1746 1747 1748 1749 1750 1751 1752 1753 1754 1755 1756 1757 1758 1759 1760 1761 1762 1763 1764 1765 1766 1767 1768 1769 1770 1771 1772 1773 1774 1775 1776 1777 1778 1779 1780 1781 1782 1783 1784 1785 1786 1787 1788 1789 1790 1791 1792 1793 1794 1795 1796 1797 1798 1799 1800 1801 1802 1803 1804 1805 1806 1807 1808 1809 1810 1811 1812 1813 1814 1815 1816 1817 1818 1819 1820 1821 1822 1823 1824 1825 1826 1827 1828 1829 1830 1831 1832 1833 1834 1835 1836 1837 1838 1839 1840 1841 1842 1843 1844 1845 1846 1847 1848 1849 1850 1851 1852 1853 1854 1855 1856 1857 1858 1859 1860 1861 1862 1863 1864 1865 1866 1867 1868 1869 1870 1871 1872 1873 1874 1875 1876 1877 1878 1879 1880 1881 1882 1883 1884 1885 1886 1887 1888 1889 1890 1891 1892 1893 1894 1895 1896 1897 1898 1899 1900 1901 1902 1903 1904 1905 1906 1907 1908 1909 1910 1911 1912 1913 1914 1915 1916 1917 1918 1919 1920 1921 1922 1923 1924 1925 1926 1927 1928 1929 1930 1931 1932 1933 1934 1935 1936 1937 1938 1939 1940 1941 1942 1943 1944 1945 1946 1947 1948 1949 1950 1951 1952 1953 1954 1955 1956 1957 1958 1959 1960 1961 1962 1963 1964 1965 1966 1967 1968 1969 1970 1971 1972 1973 1974 1975 1976 1977 1978 1979 1980 1981 1982 1983 1984 1985 1986 1987 1988 1989 1990 1991 1992 1993 1994 1995 1996 1997 1998 1999 2000 2001 2002 2003 2004 2005 2006 2007 2008 2009 2010 2011 2012 2013 2014 2015 2016 2017 2018 2019 2020 2021 2022 2023 2024 2025 2026 2027 2028 2029 2030 2031 2032 2033 2034 2035 2036 2037 2038 2039 2040 2041 2042 2043 2044 2045 2046 2047 2048 2049 2050 2051 2052 2053 2054 2055 2056 2057 2058 2059 2060 2061 2062 2063 2064 2065 2066 2067 2068 2069 2070 2071 2072 2073 2074 2075 2076 2077 2078 2079 2080 2081 2082 2083 2084 2085 2086 2087 2088 2089 2090 2091 2092 2093 2094 2095 2096 2097 2098 2099 2100 2101 2102 2103 2104 2105 2106 2107 2108 2109 2110 2111 2112 2113 2114 2115 2116 2117 2118 2119 2120 2121 2122 2123 2124 2125 2126 2127 2128 2129 2130 2131 2132 2133 2134 2135 2136 2137 2138 2139 2140 2141 2142 2143 2144 2145 2146 2147 2148 2149 2150 2151 2152 2153 2154 2155 2156 2157 2158 2159 
</DataArray>
<DataArray type="UInt32" Name="offsets" format="ascii">
4 8 12 16 20 24 28 32 36 40 44 48 52 56 60 64 68 72 76 80 84 88 92 96 100 104 108 112 116 120 124 128 132 136 140 144 148 152 156 160 164 168 172 176 180 184 188 192 196 200 204 208 212 216 220 224 228 232 236 240 244 248 252 256 260 264 268 272 276 280 284 288 292 296 300 304 308 312 316 320 324 328 332 336 340 344 348 352 356 360 364 368 372 376 380 384 388 392 396 400 404 408 412 416 420 424 428 432 436 440 444 448 452 456 460 464 468 472 476 480 484 488 492 496 500 504 508 512 516 520 524 528 532 536 540 544 548 552 556 560 564 568 572 576 580 584 588 592 596 600 604 608 612 616 620 624 628 632 636 640 644 648 652 656 660 664 668 672 676 680 684 688 692 696 700 704 708 712 716 720 724 728 732 736 740 744 748 752 756 760 764 768 772 776 780 784 788 792 796 800 804 808 812 816 820 824 828 832 836 840 844 848 852 856 860 864 868 872 876 880 884 888 892 896 900 904 908 912 916 920 924 928 932 936 940 944 948 952 956 960 964 968 972 976 980 984 988 992 996 1000 1004 1008 1012 1016 1020 1024 1028 1032 1036 1040 1044 1048 1052 1056 1060 1064 1068 1072 1076 1080 1084 1088 1092 1096 1100 1104 1108 1112 1116 1120 1124 1128 1132 1136 1140 1144 1148 1152 1156 1160 1164 1168 1172 1176 1180 1184 1188 1192 1196 1200 1204 1208 1212 1216 1220 1224 1228 1232 1236 1240 1244 1248 1252 1256 1260 1264 1268 1272 1276 1280 1284 1288 1292 1296 1300 1304 1308 1312 1316 1320 1324 1328 1332 1336 1340 1344 1348 1352 1356 1360 1364 1368 1372 1376 1380 1384 1388 1392 1396 1400 1404 1408 1412 1416 1420 1424 1428 1432 1436 1440 1444 1448 1452 1456 1460 1464 1468 1472 1476 1480 1484 1488 1492 1496 1500 1504 1508 1512 1516 1520 1524 1528 1532 1536 1540 1544 1548 1552 1556 1560 1564 1568 1572 1576 1580 1584 1588 1592 1596 1600 1604 1608 1612 1616 1620 1624 1628 1632 1636 1640 1644 1648 1652 1656 1660 1664 1668 1672 1676 1680 1684 1688 1692 1696 1700 1704 1708 1712 1716 1720 1724 1728 1732 1736 1740 1744 1748 1752 1756 1760 1764 1768 1772 1776 1780 1784 1788 1792 1796 1800 1804 1808 1812 1816 1820 1824 1828 1832 1836 1840 1844 1848 1852 1856 1860 1864 1868 1872 1876 1880 1884 1888 1892 1896 1900 1904 1908 1912 1916 1920 1924 1928 1932 1936 1940 1944 1948 1952 1956 1960 1964 1968 1972 1976 1980 1984 1988 1992 1996 2000 2004 2008 2012 2016 2020 2024 2028 2032 2036 2040 2044 2048 2052 2056 2060 2064 2068 2072 2076 2080 2084 2088 2092 2096 2100 2104 2108 2112 2116 2120 2124 2128 2132 2136 2140 2144 2148 2152 2156 2160 
</DataArray>
<DataArray type="UInt32" Name="types" format="ascii">
10 10 10 10 10 10 10 10 10 10 10 10 10 10 10 10 10 10 10 10 10 10 10 10 10 10 10 10 10 10 10 10 10 10 10 10 10 10 10 10 10 10 10 10 10 10 10 10 10 10 10 10 10 10 10 10 10 10 10 10 10 10 10 10 10 10 10 10 10 10 10 10 10 10 10 10 10 10 10 10 10 10 10 10 10 10 10 10 10 10 10 10 10 10 10 10 10 10 10 10 10 10 10 10 10 10 10 10 10 10 10 10 10 10 10 10 10 10 10 10 10 10 10 10 10 10 10 10 10 10 10 10 10 10 10 10 10 10 10 10 10 10 10 10 10 10 10 10 10 10 10 10 10 10 10 10 10 10 10 10 10 10 10 10 10 10 10 10 10 10 10 10 10 10 10 10 10 10 10 10 10 10 10 10 10 10 10 10 10 10 10 10 10 10 10 10 10 10 10 10 10 10 10 10 10 10 10 10 10 10 10 10 10 10 10 10 10 10 10 10 10 10 10 10 10 10 10 10 10 10 10 10 10 10 10 10 10 10 10 10 10 10 10 10 10 10 10 10 10 10 10 10 10 10 10 10 10 10 10 10 10 10 10 10 10 10 10 10 10 10 10 10 10 10 10 10 10 10 10 10 10 10 10 10 10 10 10 10 10 10 10 10 10 10 10 10 10 10 10 10 10 10 10 10 10 10 10 10 10 10 10 10 10 10 10 10 10 10 10 10 10 10 10 10 10 10 10 10 10 10 10 10 10 10 10 10 10 10 10 10 10 10 10 10 10 10 10 10 10 10 10 10 10 10 10 10 10 10 10 10 10 10 10 10 10 10 10 10 10 10 10 10 10 10 10 10 10 10 10 10 10 10 10 10 10 10 10 10 10 10 10 10 10 10 10 10 10 10 10 10 10 10 10 10 10 10 10 10 10 10 10 10 10 10 10 10 10 10 10 10 10 10 10 10 10 10 10 10 10 10 10 10 10 10 10 10 10 10 10 10 10 10 10 10 10 10 10 10 10 10 10 10 10 10 10 10 10 10 10 10 10 10 10 10 10 10 10 10 10 10 10 10 10 10 10 10 10 10 10 10 10 10 10 10 10 10 10 10 10 10 10 10 10 10 10 10 10 10 10 10 10 10 10 10 10 10 10 10 10 10 10 10 10 10 10 10 10 10 10 10 10 10 10 10 10 10 10 10 10 10 10 10 10 10 10 10 10 10 10 10 
</DataArray>
</Cells>
<PointData Scalars="" Vectors="displacement," Tensors="">
<DataArray type="Float64" Name="displacement" NumberOfComponents="3" format="ascii">
-1.3342883229842191e-07 -1.9516434925411404e-08 -0.00025022324047550333 -1.2759411541877062e-07 4.9914851297164003e-08 -0.00025024279164036125 -8.4334397898222672e-08 -2.3212081678539829e-08 -0.00025022252745755081 2.4514538911149493e-08 1.6152160978948574e-08 -1.8749904757849739e-07 -1.007514671632177e-07 -8.6364403835804173e-08 -0.0002502377500839503 -1.3342883229842191e-07 -1.9516434925411404e-08 -0.00025022324047550333 -8.4334397898222672e-08 -2.3212081678539829e-08 -0.00025022252745755081 2.4514538911149493e-08 1.6152160978948574e-08 -1.8749904757849739e-07 -5.4628447584566611e-08 -3.5567157148032954e-08 -1.0558495910729389e-07 -1.0075146716321769e-07 -8.6364403835804187e-08 -0.00025023775008395024 2.4514538911149493e-08 1.6152160978948574e-08 -1.8749904757849739e-07 -1.3342883229842191e-07 -1.9516434925411404e-08 -0.00025022324047550333 -5.2294344670229777e-08 -4.3712990444001387e-09 -2.4536026217811442e-07 -5.4628447584566611e-08 -3.5567157148032954e-08 -1.0558495910729389e-07 2.4514538911149493e-08 1.6152160978948574e-08 -1.8749904757849739e-07 -1.3342883229842191e-07 -1.9516434925411404e-08 -0.00025022324047550333 -2.6316637500784287e-09 1.1331787882284237e-08 -2.1468365887016163e-07 -5.4681916162202845e-08 1.3876553528783818e-08 -0.00025020920504924672 2.4514538911149493e-08 1.6152160978948574e-08 -1.8749904757849739e-07 -4.0158908619492991e-08 -5.0911632795239524e-08 -0.00025020835587148194 -1.007514671632177e-07 -8.6364403835804173e-08 -0.0002502377500839503 -4.0158908619492997e-08 -5.0911632795239524e-08 -0.00025020835587148194 -2.6316637500784287e-09 1.1331787882284237e-08 -2.1468365887016163e-07 2.4514538911149493e-08 1.6152160978948574e-08 -1.8749904757849739e-07 -5.4681916162202818e-08 1.3876553528783805e-08 -0.00025020920504924667 -4.0158908619492991e-08 -5.0911632795239524e-08 -0.00025020835587148194 -8.4334397898222672e-08 -2.3212081678539829e-08 -0.00025022252745755081 2.4514538911149493e-08 1.6152160978948574e-08 -1.8749904757849739e-07 -4.0158908619492991e-08 -5.0911632795239524e-08 -0.00025020835587148194 -1.0075146716321772e-07 -8.6364403835804173e-08 -0.0002502377500839503 -8.4334397898222659e-08 -2.3212081678539819e-08 -0.00025022252745755076 2.4514538911149493e-08 1.6152160978948574e-08 -1.8749904757849739e-07 -2.4655729152667163e-08 -4.6469410893809583e-08 -2.3441226927588455e-07 -5.1939184295188069e-08 -1.2724311256401889e-07 -0.00025021216830859681 -2.6316637500784287e-09 1.1331787882284237e-08 -2.1468365887016163e-07 -1.007514671632177e-07 -8.6364403835804173e-08 -0.0002502377500839503 -2.4655729152667163e-08 -4.6469410893809583e-08 -2.3441226927588455e-07 -2.6316637500784237e-09 1.1331787882284243e-08 -2.1468365887016163e-07 2.4514538911149493e-08 1.6152160978948574e-08 -1.8749904757849739e-07 -1.007514671632177e-07 -8.6364403835804173e-08 -0.0002502377500839503 -5.4628447584566611e-08 -3.5567157148032954e-08 -1.0558495910729389e-07 -2.4655729152667163e-08 -4.6469410893809583e-08 -2.3441226927588455e-07 2.4514538911149493e-08 1.6152160978948574e-08 -1.8749904757849739e-07 -1.007514671632177e-07 -8.6364403835804173e-08 -0.0002502377500839503 -2.4655729152667163e-08 -4.6469410893809583e-08 -2.3441226927588455e-07 5.0246463010499909e-09 -5.2719272644237892e-08 -1.8098160952633834e-07 -2.6316637500784287e-09 1.1331787882284237e-08 -2.1468365887016163e-07 -5.1939184295188076e-08 -1.2724311256401886e-07 -0.00025021216830859681 -2.6316637500784287e-09 1.1331787882284237e-08 -2.1468365887016163e-07 5.024646301049995e-09 -5.2719272644237892e-08 -1.8098160952631367e-07 -4.8806223860454941e-09 1.6546189858303176e-08 -9.7709408372592842e-08 -5.1939184295188076e-08 -1.2724311256401886e-07 -0.00025021216830859681 -2.6316637500784287e-09 1.1331787882284237e-08 -2.1468365887016163e-07 -5.1939184295188069e-08 -1.2724311256401892e-07 -0.00025021216830859675 -4.8806223860454941e-09 1.6546189858303179e-08 -9.7709408372601432e-08 -4.0158908619492991e-08 -5.0911632795239524e-08 -0.00025020835587148194 3.7896767625158571e-09 2.5030088511346338e-09 -1.8649055724320294e-07 -2.6316637500784287e-09 1.1331787882284237e-08 -2.1468365887016163e-07 5.7102190334683015e-09 -9.1894705582126005e-09 -7.2571482609018102e-08 -4.0158908619492991e-08 -5.0911632795239524e-08 -0.00025020835587148194 5.7102190334683015e-09 -9.1894705582126005e-09 -7.2571482609018102e-08 -2.6316637500784311e-09 1.1331787882284233e-08 -2.1468365887017396e-07 -4.8806223860454941e-09 1.6546189858303176e-08 -9.7709408372592842e-08 -4.0158908619492991e-08 -5.0911632795239524e-08 -0.00025020835587148194 5.7102190334683015e-09 -9.1894705582126005e-09 -7.2571482609018102e-08 -4.0158908619492971e-08 -5.0911632795239564e-08 -0.000250208355871482 -4.8806223860454916e-09 1.6546189858303173e-08 -9.7709408372598083e-08 -5.1085831171041958e-09 -8.4144134977234086e-08 -0.00025018943751936747 5.3191410639960233e-08 -2.6638905470421582e-08 -0.00025019976907319542 1.240269243864022e-08 -4.2726602051985782e-08 -0.0002501845084915609 5.7102190334683015e-09 -9.1894705582126005e-09 -7.2571482609018102e-08 -1.27012042919164e-08 1.1314637939762252e-08 -9.8543622808716344e-08 -1.2600673062214614e-08 4.7779824252430675e-09 -1.7697884512078979e-07 5.7102190334683015e-09 -9.1894705582125989e-09 -7.2571482609018089e-08 -1.27012042919164e-08 1.1314637939762252e-08 -9.8543622808716344e-08 5.3191410639960233e-08 -2.6638905470421582e-08 -0.00025019976907319542 5.7102190334683015e-09 -9.1894705582126005e-09 -7.2571482609018102e-08 -5.1085831171041958e-09 -8.4144134977234086e-08 -0.00025018943751936747 -1.27012042919164e-08 1.1314637939762252e-08 -9.8543622808716344e-08 1.240269243864021e-08 -4.2726602051985782e-08 -0.0002501845084915609 5.7102190334683015e-09 -9.1894705582126005e-09 -7.2571482609018102e-08 -4.8806223860454941e-09 1.6546189858303176e-08 -9.7709408372592842e-08 -1.27012042919164e-08 1.1314637939762252e-08 -9.8543622808716344e-08 -5.1085831171041958e-09 -8.4144134977234086e-08 -0.00025018943751936747 -4.8806223860454941e-09 1.6546189858303176e-08 -9.7709408372592842e-08 2.9117656673290376e-08 -4.4972329630568704e-08 -1.3795291065128073e-07 -1.27012042919164e-08 1.1314637939762252e-08 -9.8543622808716344e-08 1.9423600154076716e-08 -1.3542081044891272e-07 -0.00025020184729806773 5.024646301049995e-09 -5.2719272644237892e-08 -1.8098160952631367e-07 1.942360015407672e-08 -1.3542081044891275e-07 -0.00025020184729806778 -4.8806223860454941e-09 1.6546189858303176e-08 -9.7709408372592842e-08 -5.1939184295188062e-08 -1.2724311256401886e-07 -0.00025021216830859675 5.024646301049995e-09 -5.2719272644237892e-08 -1.8098160952631367e-07 2.9117656673290382e-08 -4.4972329630568724e-08 -1.3795291065128073e-07 -4.8806223860454941e-09 1.6546189858303176e-08 -9.7709408372592842e-08 1.9423600154076713e-08 -1.3542081044891275e-07 -0.00025020184729806778 -4.8806223860454941e-09 1.6546189858303176e-08 -9.7709408372592842e-08 1.9423600154076716e-08 -1.3542081044891272e-07 -0.00025020184729806773 -1.27012042919164e-08 1.1314637939762254e-08 -9.8543622808711804e-08 -5.1085831171041958e-09 -8.4144134977234086e-08 -0.00025018943751936747 1.9423600154076716e-08 -1.3542081044891272e-07 -0.00025020184729806773 -5.1939184295188056e-08 -1.2724311256401884e-07 -0.0002502121683085967 -5.1085831171041958e-09 -8.4144134977234086e-08 -0.00025018943751936747 -4.8806223860454941e-09 1.6546189858303176e-08 -9.7709408372592842e-08 1.9423600154076716e-08 -1.3542081044891272e-07 -0.00025020184729806773 -5.1085831171041958e-09 -8.4144134977234086e-08 -0.00025018943751936747 3.6406066461811419e-08 -7.0372027676066264e-08 -0.00025019283072037063 -1.27012042919164e-08 1.1314637939762252e-08 -9.8543622808716344e-08 1.240269243864021e-08 -4.2726602051985782e-08 -0.0002501845084915609 5.319141063996024e-08 -2.6638905470421582e-08 -0.00025019976907319542 3.6406066461811419e-08 -7.0372027676066264e-08 -0.00025019283072037063 -1.27012042919164e-08 1.1314637939762252e-08 -9.8543622808716344e-08 -5.1085831171041958e-09 -8.4144134977234086e-08 -0.00025018943751936747 1.240269243864021e-08 -4.2726602051985782e-08 -0.0002501845084915609 3.6406066461811419e-08 -7.0372027676066264e-08 -0.00025019283072037063 -1.27012042919164e-08 1.1314637939762252e-08 -9.8543622808716344e-08 -4.0158908619492991e-08 -5.0911632795239524e-08 -0.00025020835587148194 1.2402692438640212e-08 -4.2726602051985782e-08 -0.0002501845084915609 -5.1085831171041958e-09 -8.4144134977234086e-08 -0.00025018943751936747 5.7102190334683015e-09 -9.1894705582126005e-09 -7.2571482609018102e-08 -4.0158908619492991e-08 -5.0911632795239524e-08 -0.00025020835587148194 4.6048391832521285e-09 -1.6620695916737986e-10 -0.00025020158781292575 1.240269243864021e-08 -4.2726602051985782e-08 -0.0002501845084915609 5.7102190334683015e-09 -9.1894705582126005e-09 -7.2571482609018102e-08 -5.1939184295188062e-08 -1.2724311256401886e-07 -0.00025021216830859675 -4.0158908619492991e-08 -5.0911632795239524e-08 -0.00025020835587148194 -5.1085831171041958e-09 -8.4144134977234086e-08 -0.00025018943751936747 -4.8806223860454941e-09 1.6546189858303176e-08 -9.7709408372592842e-08 -5.1939184295188062e-08 -1.2724311256401886e-07 -0.00025021216830859675 -1.007514671632177e-07 -8.636440383580416e-08 -0.0002502377500839503 -4.0158908619492991e-08 -5.0911632795239524e-08 -0.00025020835587148194 -2.6316637500784175e-09 1.1331787882284253e-08 -2.1468365887010638e-07 -4.0158908619492991e-08 -5.0911632795239524e-08 -0.00025020835587148194 -5.1939184295188062e-08 -1.2724311256401886e-07 -0.00025021216830859675 -5.1085831171041958e-09 -8.4144134977234086e-08 -0.00025018943751936747 1.3425891901158805e-08 -1.0927714585556063e-07 -0.00050025136626898916 1.3425891901158788e-08 -1.0927714585556064e-07 -0.00050025136626898916 -1.7770674444979064e-08 -5.5703692189627372e-08 -0.00050025023544010908 2.1580871205805665e-08 -7.3846275974637352e-08 -0.0005002465547416429 -5.1085831171041958e-09 -8.4144134977234086e-08 -0.00025018943751936747 -4.0158908619492991e-08 -5.0911632795239524e-08 -0.00025020835587148194 1.342589190115879e-08 -1.0927714585556067e-07 -0.00050025136626898916 -5.1085831171041949e-09 -8.4144134977234073e-08 -0.00025018943751936747 -1.7770674444979064e-08 -5.5703692189627372e-08 -0.00050025023544010908 1.3425891901158788e-08 -1.0927714585556064e-07 -0.00050025136626898916 -4.4956565020267745e-08 -1.0091432974825899e-07 -0.00050026097659897452 -1.7770674444979064e-08 -5.5703692189627372e-08 -0.00050025023544010908 -4.0158908619492991e-08 -5.0911632795239524e-08 -0.00025020835587148189 -1.007514671632177e-07 -8.6364403835804173e-08 -0.0002502377500839503 -5.1939184295188056e-08 -1.2724311256401884e-07 -0.00025021216830859675 -4.0158908619492991e-08 -5.0911632795239524e-08 -0.00025020835587148194 1.3425891901158805e-08 -1.0927714585556063e-07 -0.00050025136626898916 4.6048391832521285e-09 -1.6620695916737986e-10 -0.00025020158781292575 -4.0158908619492991e-08 -5.0911632795239524e-08 -0.00025020835587148194 1.240269243864021e-08 -4.2726602051985782e-08 -0.0002501845084915609 -1.7770674444979064e-08 -5.5703692189627372e-08 -0.00050025023544010908 1.240269243864021e-08 -4.2726602051985782e-08 -0.0002501845084915609 -1.7770674444979027e-08 -5.5703692189627372e-08 -0.00050025023544010918 -5.1085831171041933e-09 -8.4144134977234086e-08 -0.00025018943751936747 2.1580871205805665e-08 -7.3846275974637352e-08 -0.0005002465547416429 -1.7770674444979064e-08 -5.5703692189627372e-08 -0.00050025023544010908 5.2810852298274845e-09 3.3949209962932722e-09 -0.00050024966825985254 2.1894127013188268e-08 -3.3947674169561606e-08 -0.00050024567292928236 1.240269243864021e-08 -4.2726602051985782e-08 -0.0002501845084915609 1.240269243864021e-08 -4.2726602051985782e-08 -0.0002501845084915609 -4.0158908619492991e-08 -5.0911632795239524e-08 -0.00025020835587148194 -5.1085831171041958e-09 -8.4144134977234086e-08 -0.00025018943751936747 -1.7770674444979064e-08 -5.5703692189627372e-08 -0.00050025023544010908 -1.7770674444979064e-08 -5.5703692189627372e-08 -0.00050025023544010908 2.1894127013188268e-08 -3.3947674169561606e-08 -0.00050024567292928236 2.1580871205805665e-08 -7.3846275974637352e-08 -0.0005002465547416429 1.240269243864021e-08 -4.2726602051985782e-08 -0.0002501845084915609 2.1894127013188268e-08 -3.3947674169561606e-08 -0.00050024567292928236 5.474360214741219e-08 -1.5674011990448157e-08 -0.00050025146488591205 5.1807258871773415e-08 -5.3008049376357186e-08 -0.00050024689752642653 3.6406066461811419e-08 -7.0372027676066264e-08 -0.00025019283072037063 5.3191410639960233e-08 -2.6638905470421582e-08 -0.00025019976907319542 1.2402692438640209e-08 -4.2726602051985788e-08 -0.0002501845084915609 3.6406066461811419e-08 -7.0372027676066264e-08 -0.00025019283072037063 5.4743602147412184e-08 -1.5674011990448154e-08 -0.00050025146488591205 5.4743602147412184e-08 -1.5674011990448154e-08 -0.00050025146488591205 2.1894127013188275e-08 -3.3947674169561599e-08 -0.00050024567292928236 1.240269243864021e-08 -4.2726602051985782e-08 -0.0002501845084915609 3.6406066461811419e-08 -7.0372027676066264e-08 -0.00025019283072037063 1.240269243864021e-08 -4.2726602051985782e-08 -0.0002501845084915609 2.1580871205805665e-08 -7.3846275974637352e-08 -0.0005002465547416429 3.6406066461811419e-08 -7.0372027676066264e-08 -0.00025019283072037063 2.1894127013188268e-08 -3.3947674169561606e-08 -0.00050024567292928236 1.240269243864021e-08 -4.2726602051985782e-08 -0.0002501845084915609 -5.1085831171041958e-09 -8.4144134977234086e-08 -0.00025018943751936747 3.6406066461811419e-08 -7.0372027676066264e-08 -0.00025019283072037063 2.1580871205805665e-08 -7.3846275974637352e-08 -0.0005002465547416429 2.1580871205805665e-08 -7.3846275974637352e-08 -0.0005002465547416429 2.1894127013188268e-08 -3.3947674169561606e-08 -0.00050024567292928236 5.1807258871773415e-08 -5.3008049376357186e-08 -0.00050024689752642653 3.6406066461811419e-08 -7.0372027676066264e-08 -0.00025019283072037063 -5.1939184295188062e-08 -1.2724311256401886e-07 -0.00025021216830859675 1.9423600154076716e-08 -1.3542081044891272e-07 -0.00025020184729806773 -5.1085831171041958e-09 -8.4144134977234086e-08 -0.00025018943751936747 6.6418059559279121e-08 -8.7906635211201584e-08 -0.00050024757942731353 6.6418059559279108e-08 -8.7906635211201611e-08 -0.00050024757942731353 1.3425891901158782e-08 -1.0927714585556063e-07 -0.00050025136626898905 2.1580871205805665e-08 -7.3846275974637352e-08 -0.0005002465547416429 -5.1085831171041958e-09 -8.4144134977234086e-08 -0.00025018943751936747 -5.1939184295188062e-08 -1.2724311256401886e-07 -0.00025021216830859675 6.6418059559279135e-08 -8.7906635211201598e-08 -0.00050024757942731353 -5.1085831171041958e-09 -8.4144134977234086e-08 -0.00025018943751936747 1.3425891901158788e-08 -1.0927714585556064e-07 -0.00050025136626898916 -5.1085831171041958e-09 -8.4144134977234086e-08 -0.00025018943751936747 6.6418059559279108e-08 -8.7906635211201611e-08 -0.00050024757942731353 3.6406066461811419e-08 -7.0372027676066277e-08 -0.00025019283072037069 2.1580871205805665e-08 -7.3846275974637352e-08 -0.0005002465547416429 -5.1085831171041958e-09 -8.4144134977234086e-08 -0.00025018943751936747 1.9423600154076713e-08 -1.3542081044891272e-07 -0.00025020184729806773 3.6406066461811419e-08 -7.0372027676066264e-08 -0.00025019283072037063 6.6418059559279108e-08 -8.7906635211201611e-08 -0.00050024757942731353 6.6418059559279108e-08 -8.7906635211201611e-08 -0.00050024757942731353 2.1580871205805665e-08 -7.3846275974637352e-08 -0.0005002465547416429 5.1807258871773415e-08 -5.3008049376357186e-08 -0.00050024689752642653 3.6406066461811419e-08 -7.0372027676066264e-08 -0.00025019283072037063 1.3425891901158788e-08 -1.0927714585556064e-07 -0.00050025136626898916 6.6418059559279121e-08 -8.7906635211201611e-08 -0.00050024757942731353 2.1580871205805665e-08 -7.3846275974637352e-08 -0.0005002465547416429 5.4068082169524775e-08 -9.7708429033403576e-08 -0.00075029061775707339 2.1580871205805665e-08 -7.3846275974637352e-08 -0.0005002465547416429 6.6418059559279108e-08 -8.7906635211201624e-08 -0.00050024757942731353 5.1807258871773415e-08 -5.3008049376357186e-08 -0.00050024689752642653 5.4068082169524781e-08 -9.7708429033403576e-08 -0.00075029061775707328 2.1894127013188268e-08 -3.3947674169561606e-08 -0.00050024567292928236 2.1580871205805665e-08 -7.3846275974637352e-08 -0.0005002465547416429 5.1807258871773415e-08 -5.3008049376357186e-08 -0.00050024689752642653 1.943231220346929e-08 -7.5936896817676817e-08 -0.00075029061674943269 5.4743602147412184e-08 -1.5674011990448154e-08 -0.00050025146488591205 2.1894127013188268e-08 -3.3947674169561612e-08 -0.00050024567292928236 5.1807258871773415e-08 -5.3008049376357186e-08 -0.00050024689752642653 5.3666718251463445e-08 -1.9718420579080394e-08 -0.00075029328865685045 2.1894127013188268e-08 -3.3947674169561606e-08 -0.00050024567292928236 -1.7770674444979064e-08 -5.5703692189627372e-08 -0.00050025023544010908 2.1580871205805665e-08 -7.3846275974637352e-08 -0.0005002465547416429 -1.6524079828581977e-08 -5.5263222251799113e-08 -0.00075029142827252372 5.2810852298274845e-09 3.3949209962932722e-09 -0.00050024966825985254 -1.7770674444979064e-08 -5.5703692189627372e-08 -0.00050025023544010908 2.1894127013188268e-08 -3.3947674169561606e-08 -0.00050024567292928236 -1.6524079828581977e-08 -5.5263222251799113e-08 -0.00075029142827252372 -4.4956565020267745e-08 -1.0091432974825901e-07 -0.00050026097659897452 1.3425891901158788e-08 -1.0927714585556063e-07 -0.00050025136626898916 -1.7770674444979064e-08 -5.5703692189627372e-08 -0.00050025023544010908 -1.9360357159294171e-09 -1.1164543170585769e-07 -0.00075029093582458831 -1.7770674444979064e-08 -5.5703692189627372e-08 -0.00050025023544010908 1.3425891901158788e-08 -1.0927714585556064e-07 -0.00050025136626898916 2.1580871205805665e-08 -7.3846275974637352e-08 -0.0005002465547416429 -1.9360357159294171e-09 -1.1164543170585769e-07 -0.00075029093582458831 -4.4956565020267745e-08 -1.0091432974825901e-07 -0.00050026097659897452 -1.7770674444979067e-08 -5.5703692189627365e-08 -0.00050025023544010908 -6.5687181550285389e-08 -4.3493119571988769e-08 -0.00050025491969184687 -5.7166336231667262e-08 -9.5803185446926754e-08 -0.00075029410285296929 -8.7983094825961068e-08 -6.6307467335059989e-08 -0.00050025621488750149 -4.4956565020267745e-08 -1.0091432974825901e-07 -0.00050026097659897452 -6.5687181550285389e-08 -4.3493119571988769e-08 -0.00050025491969184687 -5.7166336231667262e-08 -9.5803185446926754e-08 -0.00075029410285296929 -1.007514671632177e-07 -8.6364403835804173e-08 -0.0002502377500839503 1.3425891901158815e-08 -1.0927714585556065e-07 -0.00050025136626898916 -4.0158908619492991e-08 -5.0911632795239524e-08 -0.00025020835587148194 -4.4956565020267745e-08 -1.0091432974825901e-07 -0.00050026097659897452 -1.007514671632177e-07 -8.6364403835804173e-08 -0.0002502377500839503 -4.0158908619492984e-08 -5.0911632795239518e-08 -0.00025020835587148194 -8.4334397898222672e-08 -2.3212081678539829e-08 -0.00025022252745755081 -4.4956565020267745e-08 -1.0091432974825901e-07 -0.00050026097659897452 -1.3342883229842191e-07 -1.9516434925411404e-08 -0.00025022324047550333 -1.007514671632177e-07 -8.6364403835804173e-08 -0.0002502377500839503 -8.4334397898222672e-08 -2.3212081678539829e-08 -0.00025022252745755081 -4.4956565020267745e-08 -1.0091432974825901e-07 -0.00050026097659897452 -5.0940742438021181e-08 3.0293919836787966e-09 -0.00050025215855928958 -1.7770674444979064e-08 -5.5703692189627372e-08 -0.00050025023544010908 -6.5687181550285389e-08 -4.3493119571988769e-08 -0.00050025491969184687 -8.4334397898222672e-08 -2.3212081678539829e-08 -0.00025022252745755081 -1.7770674444979064e-08 -5.5703692189627372e-08 -0.00050025023544010908 -4.4956565020267752e-08 -1.0091432974825901e-07 -0.00050026097659897452 -6.5687181550285402e-08 -4.3493119571988756e-08 -0.00050025491969184677 -8.4334397898222672e-08 -2.3212081678539829e-08 -0.00025022252745755081 -4.4956565020267745e-08 -1.0091432974825901e-07 -0.00050026097659897452 -1.7770674444979064e-08 -5.5703692189627385e-08 -0.00050025023544010908 -4.0158908619492991e-08 -5.0911632795239524e-08 -0.00025020835587148194 -8.4334397898222672e-08 -2.3212081678539829e-08 -0.00025022252745755081 -4.0158908619492991e-08 -5.0911632795239524e-08 -0.00025020835587148194 -5.0940742438021175e-08 3.0293919836788119e-09 -0.00050025215855928958 -8.4334397898222672e-08 -2.3212081678539829e-08 -0.00025022252745755081 -1.7770674444979064e-08 -5.5703692189627372e-08 -0.00050025023544010908 -4.4956565020267745e-08 -1.0091432974825901e-07 -0.00050026097659897452 -8.7983094825961068e-08 -6.6307467335059989e-08 -0.00050025621488750149 -6.5687181550285389e-08 -4.3493119571988769e-08 -0.00050025491969184687 -8.4334397898222672e-08 -2.3212081678539829e-08 -0.00025022252745755081 -1.3342883229842191e-07 -1.9516434925411404e-08 -0.00025022324047550333 -4.4956565020267759e-08 -1.0091432974825902e-07 -0.00050026097659897452 -8.4334397898222672e-08 -2.3212081678539829e-08 -0.00025022252745755081 -8.7983094825961068e-08 -6.6307467335059989e-08 -0.00050025621488750149 -8.7983094825961068e-08 -6.6307467335059989e-08 -0.00050025621488750149 -1.0916144251666503e-07 -1.323810271869238e-08 -0.00050026339463872776 -6.5687181550285389e-08 -4.3493119571988769e-08 -0.00050025491969184687 -8.4334397898222672e-08 -2.3212081678539829e-08 -0.00025022252745755081 -1.2759411541877062e-07 4.9914851297164003e-08 -0.00025024279164036125 -1.3342883229842191e-07 -1.9516434925411404e-08 -0.00025022324047550333 -8.4334397898222672e-08 -2.3212081678539829e-08 -0.00025022252745755081 -8.7983094825961068e-08 -6.6307467335059989e-08 -0.00050025621488750149 -1.0916144251666503e-07 -1.3238102718692381e-08 -0.00050026339463872776 -8.7983094825961068e-08 -6.6307467335059989e-08 -0.00050025621488750149 -6.5687181550285389e-08 -4.3493119571988769e-08 -0.00050025491969184687 -9.7764005716457676e-08 -5.4075409610679581e-08 -0.0007502924919332082 -5.0940742438021181e-08 3.0293919836787966e-09 -0.00050025215855928958 -1.7770674444979064e-08 -5.5703692189627372e-08 -0.00050025023544010908 5.2810852298274845e-09 3.3949209962932722e-09 -0.00050024966825985254 -5.0707614727823174e-08 5.2361287571130768e-09 -0.00075029248740899029 -1.7770674444979064e-08 -5.5703692189627372e-08 -0.00050025023544010908 -5.0940742438021175e-08 3.0293919836788057e-09 -0.00050025215855928958 -6.5687181550285389e-08 -4.3493119571988769e-08 -0.00050025491969184687 -5.0707614727823167e-08 5.2361287571130777e-09 -0.0007502924874089904 -5.0940742438021181e-08 3.0293919836787966e-09 -0.00050025215855928958 5.2810852298274845e-09 3.3949209962932722e-09 -0.00050024966825985254 -1.9842616120045239e-08 3.6183302736703932e-08 -0.00050024803703788265 -5.0707614727823174e-08 5.2361287571130768e-09 -0.00075029248740899029 -5.0940742438021181e-08 3.0293919836787966e-09 -0.00050025215855928958 -1.0916144251666503e-07 -1.3238102718692381e-08 -0.00050026339463872776 -6.5687181550285389e-08 -4.3493119571988769e-08 -0.00050025491969184687 -1.1167141577120347e-07 1.937403769117409e-09 -0.0007502956053227212 -1.0916144251666503e-07 -1.3238102718692381e-08 -0.00050026339463872776 -5.0940742438021181e-08 3.0293919836787966e-09 -0.00050025215855928958 -6.5687181550285389e-08 -4.3493119571988769e-08 -0.00050025491969184687 -8.4334397898222672e-08 -2.3212081678539829e-08 -0.00025022252745755081 -5.4681916162202818e-08 1.3876553528783805e-08 -0.00025020920504924667 -1.2759411541877062e-07 4.9914851297164003e-08 -0.00025024279164036125 -8.4334397898222672e-08 -2.3212081678539829e-08 -0.00025022252745755081 -1.0916144251666503e-07 -1.3238102718692381e-08 -0.00050026339463872776 -5.4681916162202818e-08 1.3876553528783805e-08 -0.00025020920504924667 -1.0916144251666503e-07 -1.3238102718692376e-08 -0.00050026339463872776 -8.4334397898222672e-08 -2.3212081678539829e-08 -0.00025022252745755081 -5.0940742438021181e-08 3.0293919836787966e-09 -0.00050025215855928958 -1.2759411541877062e-07 4.9914851297164003e-08 -0.00025024279164036125 -8.7983094825961055e-08 -6.6307467335060015e-08 -0.00050025621488750159 -8.4334397898222685e-08 -2.3212081678539819e-08 -0.00025022252745755081 -1.0916144251666503e-07 -1.3238102718692381e-08 -0.00050026339463872776 -4.0158908619492991e-08 -5.0911632795239524e-08 -0.00025020835587148194 -5.4681916162202812e-08 1.387655352878381e-08 -0.00025020920504924667 -8.4334397898222672e-08 -2.3212081678539829e-08 -0.00025022252745755081 -5.0940742438021175e-08 3.0293919836787904e-09 -0.00050025215855928969 -5.4681916162202818e-08 1.3876553528783805e-08 -0.00025020920504924667 4.6048391832521285e-09 -1.6620695916737986e-10 -0.00025020158781292575 -7.031883410406941e-09 4.0877189632862248e-08 -0.00025018427127070791 -5.0940742438021181e-08 3.0293919836787966e-09 -0.00050025215855928958 -5.4681916162202818e-08 1.3876553528783805e-08 -0.00025020920504924667 -4.0158908619492991e-08 -5.0911632795239524e-08 -0.00025020835587148194 4.6048391832521285e-09 -1.6620695916737986e-10 -0.00025020158781292575 -5.0940742438021181e-08 3.0293919836787966e-09 -0.00050025215855928958 -2.5387428524520158e-08 6.9262181772528588e-08 -0.00050025006255158006 -1.9842616120045239e-08 3.6183302736703932e-08 -0.00050024803703788265 -5.1293301280460267e-08 5.0049584698290588e-08 -0.00050024921562088977 -3.5776755508246392e-08 6.6275533332473988e-08 -0.00025019803290177764 -5.4681916162202818e-08 1.3876553528783805e-08 -0.00025020920504924667 -7.031883410406941e-09 4.0877189632862248e-08 -0.00025018427127070791 -3.5776755508246392e-08 6.6275533332473988e-08 -0.00025019803290177764 -5.0940742438021181e-08 3.0293919836787966e-09 -0.00050025215855928958 -7.031883410406941e-09 4.0877189632862248e-08 -0.00025018427127070791 -5.5002406628713537e-10 8.0957551581911584e-08 -0.00025019480177759248 -3.5776755508246392e-08 6.6275533332473988e-08 -0.00025019803290177764 -1.9842616120045239e-08 3.6183302736703932e-08 -0.00050024803703788265 -1.9842616120045239e-08 3.6183302736703932e-08 -0.00050024803703788265 -5.0940742438021181e-08 3.0293919836787966e-09 -0.00050025215855928958 -5.1293301280460267e-08 5.0049584698290588e-08 -0.00050024921562088977 -3.5776755508246392e-08 6.6275533332473988e-08 -0.00025019803290177764 -5.0940742438021181e-08 3.0293919836787966e-09 -0.00050025215855928958 -1.9842616120045239e-08 3.6183302736703932e-08 -0.00050024803703788265 -7.031883410406941e-09 4.0877189632862248e-08 -0.00025018427127070791 -3.5776755508246392e-08 6.6275533332473988e-08 -0.00025019803290177764 -5.0940742438021181e-08 3.0293919836787966e-09 -0.00050025215855928958 -1.013219310669086e-07 4.3161875770134435e-08 -0.00050025767852552314 -5.1293301280460267e-08 5.0049584698290588e-08 -0.00050024921562088977 -3.5776755508246392e-08 6.6275533332473988e-08 -0.00025019803290177764 -1.0132193106690861e-07 4.3161875770134422e-08 -0.00050025767852552314 -5.0940742438021181e-08 3.0293919836787966e-09 -0.00050025215855928958 -5.4681916162202818e-08 1.3876553528783805e-08 -0.00025020920504924667 -3.5776755508246392e-08 6.6275533332473988e-08 -0.00025019803290177764 -8.5145097111083865e-08 1.063627621953482e-07 -0.00025022994564360913 -1.0916144251666503e-07 -1.3238102718692381e-08 -0.00050026339463872776 -5.4681916162202818e-08 1.3876553528783805e-08 -0.00025020920504924667 -1.0132193106690861e-07 4.3161875770134422e-08 -0.00050025767852552314 -8.5145097111083865e-08 1.063627621953482e-07 -0.00025022994564360913 -1.2759411541877059e-07 4.9914851297163989e-08 -0.0002502427916403613 -5.4681916162202818e-08 1.3876553528783805e-08 -0.00025020920504924667 -1.0916144251666503e-07 -1.3238102718692381e-08 -0.00050026339463872776 -1.0916144251666503e-07 -1.3238102718692381e-08 -0.00050026339463872776 -1.0132193106690861e-07 4.3161875770134422e-08 -0.00050025767852552314 -5.0940742438021181e-08 3.0293919836787966e-09 -0.00050025215855928958 -5.4681916162202818e-08 1.3876553528783805e-08 -0.00025020920504924667 -8.5145097111083865e-08 1.063627621953482e-07 -0.00025022994564360913 -5.4681916162202818e-08 1.3876553528783805e-08 -0.00025020920504924667 -3.5776755508246392e-08 6.6275533332473988e-08 -0.00025019803290177764 -1.0132193106690861e-07 4.3161875770134422e-08 -0.00050025767852552314 -1.0132193106690861e-07 4.3161875770134422e-08 -0.00050025767852552314 -1.0916144251666503e-07 -1.3238102718692378e-08 -0.00050026339463872787 -5.0940742438021181e-08 3.0293919836787966e-09 -0.00050025215855928958 -1.1167141577120347e-07 1.937403769117409e-09 -0.0007502956053227212 -1.0132193106690861e-07 4.3161875770134422e-08 -0.00050025767852552314 -5.0940742438021181e-08 3.0293919836787966e-09 -0.00050025215855928958 -5.1293301280460267e-08 5.0049584698290588e-08 -0.00050024921562088977 -9.5740061019157508e-08 5.7465164599475821e-08 -0.00075029432990317117 -1.9842616120045239e-08 3.6183302736703932e-08 -0.00050024803703788265 -2.5387428524520158e-08 6.9262181772528588e-08 -0.00050025006255158006 -5.1293301280460267e-08 5.0049584698290588e-08 -0.00050024921562088977 -1.9293162792987485e-08 3.6136375971017564e-08 -0.00075029216184420986 -5.0940742438021181e-08 3.0293919836787966e-09 -0.00050025215855928958 -1.9842616120045239e-08 3.6183302736703932e-08 -0.00050024803703788265 -5.1293301280460267e-08 5.0049584698290588e-08 -0.00050024921562088977 -5.0707614727823174e-08 5.2361287571130768e-09 -0.00075029248740899029 5.2810852298274845e-09 3.3949209962932722e-09 -0.00050024966825985254 1.2957079443304348e-08 5.6986557809796995e-08 -0.00050025537193551549 -1.9842616120045239e-08 3.6183302736703932e-08 -0.00050024803703788265 4.8940057649573297e-09 1.8421228681301404e-09 -0.00075029192001347506 -1.9842616120045239e-08 3.6183302736703932e-08 -0.00050024803703788265 1.2957079443304358e-08 5.6986557809796989e-08 -0.0005002553719355156 -2.5387428524520158e-08 6.9262181772528588e-08 -0.00050025006255158006 1.0865503860700955e-08 5.703293664768339e-08 -0.00075029507568270403 5.2810852298274845e-09 3.3949209962932722e-09 -0.00050024966825985254 5.4743602147412184e-08 -1.5674011990448154e-08 -0.00050025146488591205 5.724752719908296e-08 3.4703563917878049e-08 -0.00050026517545948576 5.3666718251463438e-08 -1.9718420579080394e-08 -0.00075029328865685034 5.4743602147412184e-08 -1.5674011990448154e-08 -0.00050025146488591205 5.2810852298274845e-09 3.3949209962932722e-09 -0.00050024966825985254 2.1894127013188268e-08 -3.3947674169561606e-08 -0.00050024567292928236 5.3666718251463445e-08 -1.9718420579080394e-08 -0.00075029328865685045 1.2957079443304358e-08 5.6986557809796989e-08 -0.0005002553719355156 5.2810852298274845e-09 3.3949209962932722e-09 -0.00050024966825985254 5.724752719908296e-08 3.4703563917878049e-08 -0.00050026517545948576 4.8940057649573297e-09 1.8421228681301404e-09 -0.00075029192001347506 3.7101626120211257e-08 5.4395784754521508e-08 -0.00025021187414787639 5.2810852298274845e-09 3.3949209962932722e-09 -0.00050024966825985254 6.9849830345717846e-08 1.9623595522300325e-08 -0.00025024546619169838 1.2957079443304358e-08 5.6986557809796989e-08 -0.0005002553719355156 1.2957079443304358e-08 5.6986557809796989e-08 -0.0005002553719355156 4.4876223365015613e-08 1.0090576477400094e-07 -0.00050027506367549067 5.724752719908296e-08 3.4703563917878049e-08 -0.00050026517545948576 6.9849830345717846e-08 1.9623595522300325e-08 -0.00025024546619169838 5.2810852298274845e-09 3.3949209962932722e-09 -0.00050024966825985254 1.2957079443304358e-08 5.6986557809796989e-08 -0.0005002553719355156 5.7247527199082953e-08 3.4703563917878049e-08 -0.00050026517545948565 6.9849830345717846e-08 1.9623595522300325e-08 -0.00025024546619169838 3.7101626120211257e-08 5.4395784754521508e-08 -0.00025021187414787639 4.6048391832521285e-09 -1.6620695916737986e-10 -0.00025020158781292575 6.9849830345717846e-08 1.9623595522300325e-08 -0.00025024546619169838 5.2810852298274845e-09 3.3949209962932722e-09 -0.00050024966825985254 5.3191410639960233e-08 -2.6638905470421582e-08 -0.00025019976907319542 4.6048391832521285e-09 -1.6620695916737986e-10 -0.00025020158781292575 1.240269243864021e-08 -4.2726602051985782e-08 -0.0002501845084915609 5.4743602147412184e-08 -1.5674011990448154e-08 -0.00050025146488591205 5.4743602147412184e-08 -1.5674011990448154e-08 -0.00050025146488591205 5.2810852298274845e-09 3.3949209962932722e-09 -0.00050024966825985254 4.604839183252102e-09 -1.6620695916741489e-10 -0.0002502015878129258 1.240269243864021e-08 -4.2726602051985782e-08 -0.0002501845084915609 5.4743602147412184e-08 -1.5674011990448154e-08 -0.00050025146488591205 5.2810852298274845e-09 3.3949209962932722e-09 -0.00050024966825985254 5.724752719908296e-08 3.4703563917878049e-08 -0.00050026517545948576 6.9849830345717846e-08 1.9623595522300325e-08 -0.00025024546619169838 4.6048391832521285e-09 -1.6620695916737986e-10 -0.00025020158781292575 5.3191410639960233e-08 -2.6638905470421582e-08 -0.00025019976907319542 6.9849830345717846e-08 1.9623595522300325e-08 -0.00025024546619169838 5.4743602147412177e-08 -1.5674011990448154e-08 -0.00050025146488591205 4.6048391832521285e-09 -1.6620695916737986e-10 -0.00025020158781292575 5.4743602147412171e-08 -1.5674011990448131e-08 -0.00050025146488591194 6.9849830345717846e-08 1.9623595522300325e-08 -0.00025024546619169838 5.2810852298274845e-09 3.3949209962932722e-09 -0.00050024966825985254 5.2810852298274845e-09 3.3949209962932722e-09 -0.00050024966825985254 5.4743602147412184e-08 -1.5674011990448154e-08 -0.00050025146488591205 2.1894127013188268e-08 -3.3947674169561606e-08 -0.00050024567292928236 1.240269243864021e-08 -4.2726602051985782e-08 -0.0002501845084915609 -5.0940742438021181e-08 3.0293919836787966e-09 -0.00050025215855928958 5.2810852298274845e-09 3.3949209962932722e-09 -0.00050024966825985254 4.6048391832521161e-09 -1.6620695916741437e-10 -0.00025020158781292575 -7.031883410406941e-09 4.0877189632862248e-08 -0.00025018427127070791 -5.0940742438021181e-08 3.0293919836787966e-09 -0.00050025215855928958 -1.7770674444979064e-08 -5.5703692189627372e-08 -0.00050025023544010908 -4.015890861949305e-08 -5.0911632795239544e-08 -0.00025020835587148183 4.6048391832521533e-09 -1.6620695916737263e-10 -0.00025020158781292575 4.6048391832521285e-09 -1.6620695916737986e-10 -0.00025020158781292575 -1.7770674444979064e-08 -5.5703692189627358e-08 -0.00050025023544010897 1.240269243864021e-08 -4.2726602051985782e-08 -0.0002501845084915609 5.2810852298274845e-09 3.3949209962932722e-09 -0.00050024966825985254 -1.7770674444979064e-08 -5.5703692189627372e-08 -0.00050025023544010908 -5.0940742438021181e-08 3.0293919836787966e-09 -0.00050025215855928958 5.2810852298274845e-09 3.3949209962932722e-09 -0.00050024966825985254 4.6048391832521285e-09 -1.6620695916737986e-10 -0.00025020158781292575 5.2810852298274845e-09 3.3949209962932722e-09 -0.00050024966825985254 -5.0940742438021181e-08 3.0293919836787966e-09 -0.00050025215855928958 -1.9842616120045239e-08 3.6183302736703932e-08 -0.00050024803703788265 -7.031883410406941e-09 4.0877189632862248e-08 -0.00025018427127070791 1.2957079443304358e-08 5.6986557809796989e-08 -0.0005002553719355156 5.2810852298274845e-09 3.3949209962932722e-09 -0.00050024966825985254 -1.9842616120045239e-08 3.6183302736703932e-08 -0.00050024803703788265 -7.031883410406941e-09 4.0877189632862248e-08 -0.00025018427127070791 4.6048391832521285e-09 -1.6620695916737986e-10 -0.00025020158781292575 3.710162612021125e-08 5.4395784754521514e-08 -0.00025021187414787634 -7.031883410406941e-09 4.0877189632862248e-08 -0.00025018427127070791 5.2810852298274845e-09 3.3949209962932722e-09 -0.00050024966825985254 5.2810852298274845e-09 3.3949209962932722e-09 -0.00050024966825985254 1.2957079443304346e-08 5.6986557809797002e-08 -0.0005002553719355156 3.7101626120211303e-08 5.4395784754521501e-08 -0.00025021187414787645 -7.0318834104069923e-09 4.0877189632862261e-08 -0.00025018427127070797 -7.031883410406941e-09 4.0877189632862248e-08 -0.00025018427127070791 1.2957079443304358e-08 5.6986557809796989e-08 -0.0005002553719355156 -5.5002406628714281e-10 8.0957551581911584e-08 -0.00025019480177759248 -1.9842616120045239e-08 3.6183302736703932e-08 -0.00050024803703788265 -7.031883410406941e-09 4.0877189632862248e-08 -0.00025018427127070791 3.7101626120211257e-08 5.4395784754521508e-08 -0.00025021187414787639 -5.5002406628714126e-10 8.0957551581911584e-08 -0.00025019480177759248 1.2957079443304358e-08 5.6986557809796989e-08 -0.0005002553719355156 4.6048391832521285e-09 -1.6620695916737986e-10 -0.00025020158781292575 -5.4681916162202818e-08 1.3876553528783805e-08 -0.00025020920504924667 -7.031883410406941e-09 4.0877189632862248e-08 -0.00025018427127070791 -6.1940202930580933e-09 8.8915704671812865e-09 -6.936175778676314e-08 3.7101626120211257e-08 5.4395784754521508e-08 -0.00025021187414787639 4.6048391832521285e-09 -1.6620695916737986e-10 -0.00025020158781292575 -7.031883410406941e-09 4.0877189632862248e-08 -0.00025018427127070791 -6.1940202930580933e-09 8.8915704671812865e-09 -6.936175778676314e-08 -4.0158908619492991e-08 -5.0911632795239524e-08 -0.00025020835587148194 -5.4681916162202818e-08 1.3876553528783805e-08 -0.00025020920504924667 4.6048391832521285e-09 -1.6620695916737986e-10 -0.00025020158781292575 3.7896767625158571e-09 2.5030088511346338e-09 -1.8649055724320294e-07 5.3191410639960233e-08 -2.6638905470421582e-08 -0.00025019976907319542 4.6048391832521285e-09 -1.6620695916737986e-10 -0.00025020158781292575 6.9849830345717846e-08 1.9623595522300325e-08 -0.00025024546619169838 -1.9809686497942667e-08 -1.3052831610347524e-08 -2.5384888101685842e-07 4.6048391832521285e-09 -1.6620695916737986e-10 -0.00025020158781292575 5.3191410639960233e-08 -2.6638905470421582e-08 -0.00025019976907319542 1.240269243864021e-08 -4.2726602051985782e-08 -0.0002501845084915609 5.7102190334683015e-09 -9.1894705582126005e-09 -7.2571482609018102e-08 3.7101626120211257e-08 5.4395784754521508e-08 -0.00025021187414787639 1.0163139556886141e-07 8.6138203648385029e-08 -0.00025026173832821676 6.9849830345717846e-08 1.9623595522300325e-08 -0.00025024546619169838 -1.9809686497942667e-08 -1.3052831610347524e-08 -2.5384888101685842e-07 4.6048391832521285e-09 -1.6620695916737986e-10 -0.00025020158781292575 3.7101626120211257e-08 5.4395784754521508e-08 -0.00025021187414787639 6.9849830345717833e-08 1.9623595522300325e-08 -0.00025024546619169832 -1.9809686497942667e-08 -1.3052831610347524e-08 -2.5384888101685842e-07 -6.1791811886796122e-10 -1.3447172714205968e-08 -1.8495013295993037e-07 4.6048391832521285e-09 -1.6620695916737986e-10 -0.00025020158781292575 -1.9809686497942667e-08 -1.3052831610347524e-08 -2.5384888101685842e-07 3.7101626120211257e-08 5.4395784754521508e-08 -0.00025021187414787639 -6.1791811886796122e-10 -1.3447172714205968e-08 -1.8495013295993037e-07 3.7896767625158571e-09 2.5030088511346338e-09 -1.8649055724320294e-07 -1.9809686497942667e-08 -1.3052831610347524e-08 -2.5384888101685842e-07 4.6048391832521285e-09 -1.6620695916737986e-10 -0.00025020158781292575 3.7896767625158571e-09 2.5030088511346338e-09 -1.8649055724320294e-07 -1.2600673062214614e-08 4.7779824252430675e-09 -1.7697884512078979e-07 -1.9809686497942667e-08 -1.3052831610347524e-08 -2.5384888101685842e-07 5.319141063996022e-08 -2.6638905470421576e-08 -0.00025019976907319537 5.3191410639960233e-08 -2.6638905470421582e-08 -0.00025019976907319542 4.6048391832521285e-09 -1.6620695916737986e-10 -0.00025020158781292575 3.7896767625158249e-09 2.5030088511346388e-09 -1.864905572432553e-07 5.7102190334683015e-09 -9.1894705582126005e-09 -7.2571482609018102e-08 3.7896767625158571e-09 2.5030088511346338e-09 -1.8649055724320294e-07 5.3191410639960187e-08 -2.6638905470421566e-08 -0.00025019976907319537 -1.9809686497942667e-08 -1.3052831610347524e-08 -2.5384888101685842e-07 4.6048391832521285e-09 -1.6620695916737986e-10 -0.00025020158781292575 -1.2600673062214614e-08 4.7779824252430675e-09 -1.7697884512078979e-07 3.7896767625158571e-09 2.5030088511346338e-09 -1.8649055724320294e-07 5.7102190334683015e-09 -9.1894705582126005e-09 -7.2571482609018102e-08 5.3191410639960233e-08 -2.6638905470421582e-08 -0.00025019976907319542 -5.4681916162202818e-08 1.3876553528783805e-08 -0.00025020920504924667 -4.0158908619492991e-08 -5.0911632795239524e-08 -0.00025020835587148194 -2.6316637500784291e-09 1.133178788228429e-08 -2.1468365887008751e-07 3.7896767625158629e-09 2.5030088511346164e-09 -1.8649055724320172e-07 -5.4681916162202818e-08 1.3876553528783805e-08 -0.00025020920504924667 4.6048391832521285e-09 -1.6620695916737986e-10 -0.00025020158781292575 3.7896767625158423e-09 2.5030088511346338e-09 -1.8649055724319227e-07 -6.1940202930580933e-09 8.8915704671812865e-09 -6.936175778676314e-08 3.7896767625158571e-09 2.5030088511346338e-09 -1.8649055724320294e-07 -4.0158908619492991e-08 -5.0911632795239524e-08 -0.00025020835587148189 5.7102190334683015e-09 -9.1894705582126005e-09 -7.2571482609018102e-08 4.6048391832521285e-09 -1.6620695916737986e-10 -0.00025020158781292575 4.6048391832521285e-09 -1.6620695916737986e-10 -0.00025020158781292575 3.7101626120211263e-08 5.4395784754521528e-08 -0.00025021187414787639 -6.1791811886796784e-10 -1.3447172714206016e-08 -1.8495013295995631e-07 -6.1940202930580734e-09 8.891570467181356e-09 -6.9361757786839201e-08 -6.1940202930580933e-09 8.8915704671812865e-09 -6.936175778676314e-08 -6.1791811886796122e-10 -1.3447172714205968e-08 -1.8495013295993037e-07 5.4296503198810129e-09 -1.6140109159332164e-08 -8.8469731301321172e-08 3.7101626120211257e-08 5.4395784754521508e-08 -0.00025021187414787639 -6.1940202930580933e-09 8.8915704671812865e-09 -6.936175778676314e-08 3.7101626120211257e-08 5.4395784754521508e-08 -0.00025021187414787639 5.4296503198810104e-09 -1.6140109159332164e-08 -8.8469731301324124e-08 -7.031883410406941e-09 4.0877189632862248e-08 -0.00025018427127070791 3.7896767625158571e-09 2.5030088511346338e-09 -1.8649055724320294e-07 -6.179181188679637e-10 -1.3447172714205963e-08 -1.8495013295993034e-07 -6.1940202930580933e-09 8.8915704671812865e-09 -6.936175778676314e-08 4.6048391832521285e-09 -1.6620695916737986e-10 -0.00025020158781292575 -5.4681916162202818e-08 1.3876553528783805e-08 -0.00025020920504924667 -7.031883410406941e-09 4.0877189632862248e-08 -0.00025018427127070791 -6.1940202930580933e-09 8.8915704671812865e-09 -6.936175778676314e-08 1.3274155400275322e-08 -1.1032470878588152e-08 -1.0743386856947395e-07 9.3684547928553608e-09 -6.9490204017491402e-09 -2.3280779328883667e-07 -6.1940202930580933e-09 8.8915704671812865e-09 -6.936175778676314e-08 1.3274155400275322e-08 -1.1032470878588152e-08 -1.0743386856947395e-07 -5.4681916162202818e-08 1.3876553528783805e-08 -0.00025020920504924667 -8.5145097111083865e-08 1.063627621953482e-07 -0.00025022994564360913 -5.4681916162202818e-08 1.3876553528783805e-08 -0.00025020920504924667 9.3684547928553608e-09 -6.9490204017491402e-09 -2.3280779328883667e-07 1.3274155400275322e-08 -1.1032470878588152e-08 -1.0743386856947395e-07 -6.1940202930580933e-09 8.8915704671812865e-09 -6.936175778676314e-08 5.4296503198810129e-09 -1.6140109159332164e-08 -8.8469731301321172e-08 1.3274155400275322e-08 -1.1032470878588152e-08 -1.0743386856947395e-07 -7.031883410406941e-09 4.0877189632862248e-08 -0.00025018427127070791 -7.031883410406941e-09 4.0877189632862248e-08 -0.00025018427127070791 -5.4681916162202818e-08 1.3876553528783805e-08 -0.00025020920504924667 -3.5776755508246392e-08 6.6275533332473988e-08 -0.00025019803290177764 1.3274155400275322e-08 -1.1032470878588152e-08 -1.0743386856947395e-07 -5.4681916162202818e-08 1.3876553528783805e-08 -0.00025020920504924667 -8.5145097111083852e-08 1.063627621953482e-07 -0.00025022994564360913 -3.5776755508246392e-08 6.6275533332473988e-08 -0.00025019803290177764 1.3274155400275322e-08 -1.1032470878588152e-08 -1.0743386856947395e-07 -5.5002406628714126e-10 8.0957551581911584e-08 -0.00025019480177759248 -7.031883410406941e-09 4.0877189632862248e-08 -0.00025018427127070791 -3.5776755508246392e-08 6.6275533332473988e-08 -0.00025019803290177764 1.3274155400275322e-08 -1.1032470878588152e-08 -1.0743386856947395e-07 -2.6316637500784287e-09 1.1331787882284237e-08 -2.1468365887016163e-07 9.3684547928553541e-09 -6.949020401749146e-09 -2.3280779328883669e-07 2.4514538911149493e-08 1.6152160978948574e-08 -1.8749904757849739e-07 -5.4681916162202851e-08 1.3876553528783815e-08 -0.00025020920504924678 9.3684547928553608e-09 -6.9490204017491402e-09 -2.3280779328883667e-07 3.7896767625158571e-09 2.5030088511346338e-09 -1.8649055724320294e-07 -6.1940202930580933e-09 8.8915704671812865e-09 -6.936175778676314e-08 -5.4681916162202818e-08 1.3876553528783805e-08 -0.00025020920504924667 9.3684547928553608e-09 -6.9490204017491402e-09 -2.3280779328883667e-07 -2.6316637500784287e-09 1.1331787882284237e-08 -2.1468365887016163e-07 3.7896767625158571e-09 2.5030088511346338e-09 -1.8649055724320294e-07 -5.4681916162202818e-08 1.3876553528783805e-08 -0.00025020920504924667 -5.2294344670229777e-08 -4.3712990444001387e-09 -2.4536026217811442e-07 -1.3342883229842183e-07 -1.9516434925411288e-08 -0.00025022324047550338 2.4514538911149477e-08 1.6152160978948551e-08 -1.8749904757848673e-07 -1.2759411541877062e-07 4.9914851297164003e-08 -0.00025024279164036125 9.3684547928553608e-09 -6.9490204017491402e-09 -2.3280779328883667e-07 -1.2759411541877062e-07 4.9914851297164003e-08 -0.00025024279164036125 2.4514538911149493e-08 1.6152160978948574e-08 -1.8749904757848919e-07 -5.4681916162202818e-08 1.3876553528783805e-08 -0.00025020920504924667 9.3684547928553608e-09 -6.9490204017491402e-09 -2.3280779328883667e-07 -5.2294344670229777e-08 -4.3712990444001387e-09 -2.4536026217811442e-07 2.4514538911149493e-08 1.6152160978948574e-08 -1.8749904757849739e-07 -1.2759411541877062e-07 4.9914851297164003e-08 -0.00025024279164036125 -1.2759411541877062e-07 4.9914851297164003e-08 -0.00025024279164036125 -5.4681916162202818e-08 1.3876553528783805e-08 -0.00025020920504924667 -8.4334397898222672e-08 -2.3212081678539829e-08 -0.00025022252745755081 2.4514538911149493e-08 1.6152160978948574e-08 -1.8749904757849739e-07 -1.2759411541877062e-07 4.9914851297164003e-08 -0.00025024279164036125 -8.5145097111083865e-08 1.063627621953482e-07 -0.00025022994564360913 -5.4681916162202818e-08 1.3876553528783805e-08 -0.00025020920504924667 9.3684547928553608e-09 -6.9490204017491402e-09 -2.3280779328883667e-07 -4.648266236529864e-08 2.5655834586287058e-08 -2.4541170462097903e-07 -5.2294344670229777e-08 -4.3712990444001338e-09 -2.4536026217813909e-07 9.3684547928553608e-09 -6.9490204017491402e-09 -2.3280779328883667e-07 -1.2759411541877062e-07 4.9914851297164003e-08 -0.00025024279164036125 -4.648266236529864e-08 2.5655834586287058e-08 -2.4541170462097903e-07 -1.2759411541877062e-07 4.9914851297164003e-08 -0.00025024279164036125 9.3684547928553608e-09 -6.9490204017491402e-09 -2.3280779328883667e-07 -8.5145097111083865e-08 1.063627621953482e-07 -0.00025022994564360913 -4.648266236529864e-08 2.5655834586287058e-08 -2.4541170462097903e-07 9.3684547928553608e-09 -6.9490204017491402e-09 -2.3280779328883667e-07 1.3274155400275322e-08 -1.1032470878588152e-08 -1.0743386856947395e-07 -8.5145097111083865e-08 1.063627621953482e-07 -0.00025022994564360913 -2.9778787340998094e-08 4.4553085721499567e-08 -1.461257832327011e-07 -4.648266236529864e-08 2.5655834586287058e-08 -2.4541170462097903e-07 1.3274155400275322e-08 -1.1032470878588152e-08 -1.0743386856947395e-07 -8.5145097111083865e-08 1.063627621953482e-07 -0.00025022994564360913 -7.031883410406941e-09 4.0877189632862248e-08 -0.00025018427127070791 -5.500240662871425e-10 8.0957551581911584e-08 -0.00025019480177759248 5.4296503198810129e-09 -1.6140109159332164e-08 -8.8469731301321172e-08 1.3274155400275322e-08 -1.1032470878588152e-08 -1.0743386856947395e-07 -2.9778787340998094e-08 4.4553085721499567e-08 -1.461257832327011e-07 -8.5145097111083825e-08 1.063627621953482e-07 -0.00025022994564360919 1.3274155400275322e-08 -1.1032470878588152e-08 -1.0743386856947395e-07 -1.9502604128843011e-08 1.3539033847354878e-07 -0.00025020661796963331 5.4296503198810129e-09 -1.6140109159332164e-08 -8.8469731301321172e-08 -2.9778787340998094e-08 4.4553085721499567e-08 -1.461257832327011e-07 1.3274155400275322e-08 -1.1032470878588152e-08 -1.0743386856947395e-07 -1.9502604128843011e-08 1.3539033847354878e-07 -0.00025020661796963331 5.4296503198810129e-09 -1.6140109159332164e-08 -8.8469731301321172e-08 -1.9502604128843011e-08 1.3539033847354878e-07 -0.00025020661796963331 1.3274155400275322e-08 -1.1032470878588152e-08 -1.0743386856947395e-07 -5.5002406628714126e-10 8.0957551581911584e-08 -0.00025019480177759248 -3.9994439432499779e-09 5.3149551057615289e-08 -2.0220345746519761e-07 -2.9778787340998094e-08 4.4553085721499567e-08 -1.461257832327011e-07 5.4296503198810129e-09 -1.6140109159332164e-08 -8.8469731301321172e-08 -1.9502604128843011e-08 1.3539033847354878e-07 -0.00025020661796963331 -1.9502604128843011e-08 1.3539033847354878e-07 -0.00025020661796963331 -5.5002406628714126e-10 8.0957551581911584e-08 -0.00025019480177759248 -3.5776755508246392e-08 6.6275533332473988e-08 -0.00025019803290177764 1.3274155400275322e-08 -1.1032470878588152e-08 -1.0743386856947395e-07 -8.5145097111083865e-08 1.063627621953482e-07 -0.00025022994564360913 -1.9502604128843011e-08 1.3539033847354878e-07 -0.00025020661796963331 -3.5776755508246392e-08 6.6275533332473988e-08 -0.00025019803290177764 1.3274155400275322e-08 -1.1032470878588152e-08 -1.0743386856947395e-07 -1.9502604128843011e-08 1.3539033847354878e-07 -0.00025020661796963331 -8.5145097111083865e-08 1.063627621953482e-07 -0.00025022994564360913 -3.5776755508246392e-08 6.6275533332473988e-08 -0.00025019803290177764 -1.0132193106690861e-07 4.3161875770134422e-08 -0.00050025767852552314 5.2025756387784204e-08 1.2723061738268342e-07 -0.00025022792682922161 -1.9502604128843011e-08 1.3539033847354878e-07 -0.00025020661796963331 -5.5002406628714126e-10 8.0957551581911584e-08 -0.00025019480177759248 -6.6336135358803215e-08 8.7946379801997354e-08 -0.00050025053236873334 -1.9842616120045239e-08 3.6183302736703932e-08 -0.00050024803703788265 -2.5387428524520152e-08 6.9262181772528588e-08 -0.00050025006255158006 -5.5002406628714126e-10 8.0957551581911584e-08 -0.00025019480177759248 -3.5776755508246392e-08 6.6275533332473988e-08 -0.00025019803290177764 -1.9502604128843011e-08 1.3539033847354878e-07 -0.00025020661796963331 -1.0132193106690861e-07 4.3161875770134409e-08 -0.00050025767852552325 -3.5776755508246392e-08 6.6275533332473988e-08 -0.00025019803290177764 -6.6336135358803215e-08 8.7946379801997354e-08 -0.00050025053236873334 -1.0132193106690861e-07 4.3161875770134422e-08 -0.00050025767852552314 -6.6336135358803215e-08 8.7946379801997354e-08 -0.00050025053236873334 -5.1293301280460267e-08 5.0049584698290588e-08 -0.00050024921562088977 -3.5776755508246392e-08 6.6275533332473988e-08 -0.00025019803290177764 -6.6336135358803215e-08 8.7946379801997354e-08 -0.00050025053236873334 -2.5387428524520158e-08 6.9262181772528588e-08 -0.00050025006255158006 -5.1293301280460267e-08 5.0049584698290588e-08 -0.00050024921562088977 -3.5776755508246392e-08 6.6275533332473988e-08 -0.00025019803290177764 -5.5002406628714126e-10 8.0957551581911584e-08 -0.00025019480177759248 -1.9502604128843011e-08 1.3539033847354878e-07 -0.00025020661796963331 -3.5776755508246392e-08 6.6275533332473988e-08 -0.00025019803290177764 -6.6336135358803215e-08 8.7946379801997354e-08 -0.00050025053236873334 -5.5002406628714126e-10 8.0957551581911584e-08 -0.00025019480177759248 -6.6336135358803215e-08 8.7946379801997354e-08 -0.00050025053236873334 -3.5776755508246392e-08 6.6275533332473988e-08 -0.00025019803290177764 -2.5387428524520158e-08 6.9262181772528588e-08 -0.00050025006255158006 -1.346180670937006e-08 1.0927504649956782e-07 -0.00050025988864610524 -6.6336135358803215e-08 8.7946379801997354e-08 -0.00050025053236873334 -2.5387428524520158e-08 6.9262181772528588e-08 -0.00050025006255158006 -5.406225900484222e-08 9.7714785298882656e-08 -0.00075029217270028989 -2.5387428524520158e-08 6.9262181772528588e-08 -0.00050025006255158006 -6.6336135358803215e-08 8.7946379801997354e-08 -0.00050025053236873334 -5.1293301280460267e-08 5.0049584698290588e-08 -0.00050024921562088977 -5.406225900484222e-08 9.7714785298882656e-08 -0.00075029217270028989 -6.6336135358803215e-08 8.7946379801997354e-08 -0.00050025053236873334 -1.0132193106690861e-07 4.3161875770134422e-08 -0.00050025767852552314 -5.1293301280460267e-08 5.0049584698290588e-08 -0.00050024921562088977 -9.5740061019157508e-08 5.7465164599475821e-08 -0.00075029432990317117 5.2025756387784204e-08 1.2723061738268342e-07 -0.00025022792682922161 -6.6336135358803228e-08 8.7946379801997328e-08 -0.00050025053236873323 -5.5002406628714126e-10 8.0957551581911584e-08 -0.00025019480177759248 -1.346180670937006e-08 1.0927504649956782e-07 -0.00050025988864610524 4.4876223365015613e-08 1.0090576477400094e-07 -0.00050027506367549067 -1.346180670937006e-08 1.0927504649956782e-07 -0.00050025988864610524 1.2957079443304358e-08 5.6986557809796989e-08 -0.0005002553719355156 1.9987280705383234e-09 1.1165116465982089e-07 -0.00075029583400267736 4.4876223365015613e-08 1.0090576477400094e-07 -0.00050027506367549067 1.2957079443304363e-08 5.6986557809796982e-08 -0.0005002553719355156 5.724752719908296e-08 3.4703563917878049e-08 -0.00050026517545948576 5.7204849642697826e-08 9.5791305094319046e-08 -0.00075030177996527226 1.2957079443304358e-08 5.6986557809796989e-08 -0.0005002553719355156 -1.346180670937006e-08 1.0927504649956782e-07 -0.00050025988864610524 -2.5387428524520158e-08 6.9262181772528588e-08 -0.00050025006255158006 1.9987280705383276e-09 1.1165116465982089e-07 -0.00075029583400267746 1.2957079443304358e-08 5.6986557809796989e-08 -0.0005002553719355156 -1.9842616120045243e-08 3.6183302736703932e-08 -0.00050024803703788265 -2.5387428524520158e-08 6.9262181772528588e-08 -0.00050025006255158006 -5.5002406628714126e-10 8.0957551581911584e-08 -0.00025019480177759248 3.7101626120211257e-08 5.4395784754521508e-08 -0.00025021187414787639 -1.346180670937007e-08 1.0927504649956782e-07 -0.00050025988864610524 -5.5002406628714126e-10 8.0957551581911584e-08 -0.00025019480177759248 1.2957079443304358e-08 5.6986557809796989e-08 -0.0005002553719355156 3.7101626120211257e-08 5.4395784754521508e-08 -0.00025021187414787639 5.2025756387784204e-08 1.2723061738268342e-07 -0.00025022792682922161 -5.5002406628714126e-10 8.0957551581911584e-08 -0.00025019480177759248 -1.346180670937006e-08 1.0927504649956782e-07 -0.00050025988864610524 -6.6336135358803215e-08 8.7946379801997354e-08 -0.00050025053236873334 -1.3461806709370057e-08 1.0927504649956783e-07 -0.00050025988864610524 -2.5387428524520158e-08 6.9262181772528588e-08 -0.00050025006255158006 -5.5002406628714126e-10 8.0957551581911584e-08 -0.00025019480177759248 -1.346180670937006e-08 1.0927504649956782e-07 -0.00050025988864610524 1.2957079443304358e-08 5.6986557809796989e-08 -0.0005002553719355156 -2.5387428524520158e-08 6.9262181772528588e-08 -0.00050025006255158006 -5.5002406628714126e-10 8.0957551581911584e-08 -0.00025019480177759248 1.0163139556886141e-07 8.6138203648385029e-08 -0.00025026173832821676 3.7101626120211257e-08 5.4395784754521501e-08 -0.00025021187414787639 6.9849830345717846e-08 1.9623595522300325e-08 -0.00025024546619169838 4.4876223365015613e-08 1.0090576477400094e-07 -0.00050027506367549067 -1.346180670937006e-08 1.0927504649956782e-07 -0.00050025988864610524 4.4876223365015613e-08 1.0090576477400094e-07 -0.00050027506367549067 1.2957079443304358e-08 5.6986557809796989e-08 -0.0005002553719355156 3.7101626120211257e-08 5.4395784754521508e-08 -0.00025021187414787639 1.0163139556886141e-07 8.6138203648385029e-08 -0.00025026173832821676 5.2025756387784204e-08 1.2723061738268342e-07 -0.00025022792682922161 3.7101626120211257e-08 5.4395784754521508e-08 -0.00025021187414787639 -1.3461806709370044e-08 1.0927504649956783e-07 -0.00050025988864610524 1.0163139556886141e-07 8.6138203648385029e-08 -0.00025026173832821676 -1.3461806709370047e-08 1.0927504649956782e-07 -0.00050025988864610513 3.7101626120211257e-08 5.4395784754521508e-08 -0.00025021187414787639 4.4876223365015613e-08 1.0090576477400094e-07 -0.00050027506367549067 4.4876223365015613e-08 1.0090576477400094e-07 -0.00050027506367549067 1.295707944330436e-08 5.6986557809796989e-08 -0.00050025537193551549 3.710162612021125e-08 5.4395784754521541e-08 -0.00025021187414787628 6.9849830345717846e-08 1.9623595522300325e-08 -0.00025024546619169838 5.2025756387784204e-08 1.2723061738268342e-07 -0.00025022792682922161 1.0163139556886141e-07 8.6138203648385029e-08 -0.00025026173832821676 3.7101626120211257e-08 5.4395784754521508e-08 -0.00025021187414787639 -6.1791811886796122e-10 -1.3447172714205968e-08 -1.8495013295993037e-07 -1.9502604128843011e-08 1.3539033847354878e-07 -0.00025020661796963331 5.2025756387784217e-08 1.2723061738268342e-07 -0.00025022792682922161 -5.5002406628714126e-10 8.0957551581911584e-08 -0.00025019480177759248 5.4296503198810129e-09 -1.6140109159332164e-08 -8.8469731301321172e-08 3.7101626120211257e-08 5.4395784754521508e-08 -0.00025021187414787639 -7.0318834104069452e-09 4.0877189632862248e-08 -0.00025018427127070791 -5.5002406628714126e-10 8.0957551581911584e-08 -0.00025019480177759248 5.4296503198810129e-09 -1.6140109159332164e-08 -8.8469731301321172e-08 5.2025756387784204e-08 1.2723061738268342e-07 -0.00025022792682922161 3.7101626120211257e-08 5.4395784754521508e-08 -0.00025021187414787639 -5.5002406628714126e-10 8.0957551581911584e-08 -0.00025019480177759248 5.4296503198810129e-09 -1.6140109159332164e-08 -8.8469731301321172e-08 -6.1791811886796122e-10 -1.3447172714205968e-08 -1.8495013295993037e-07 5.2025756387784204e-08 1.2723061738268342e-07 -0.00025022792682922161 5.4296503198810129e-09 -1.6140109159332164e-08 -8.8469731301321172e-08 3.7101626120211257e-08 5.4395784754521508e-08 -0.00025021187414787639 -6.1791811886796122e-10 -1.3447172714205968e-08 -1.8495013295993037e-07 -3.9994439432499779e-09 5.3149551057615289e-08 -2.0220345746519761e-07 5.4296503198810129e-09 -1.6140109159332164e-08 -8.8469731301321172e-08 5.2025756387784204e-08 1.2723061738268342e-07 -0.00025022792682922161 -3.9994439432499779e-09 5.3149551057615289e-08 -2.0220345746519761e-07 -1.9502604128842955e-08 1.3539033847354878e-07 -0.00025020661796963331 5.4296503198810129e-09 -1.6140109159332164e-08 -8.8469731301321172e-08 5.2025756387784204e-08 1.2723061738268342e-07 -0.00025022792682922161 2.4286652026182449e-08 4.6340204402343405e-08 -2.7341363363791026e-07 5.2025756387784197e-08 1.2723061738268339e-07 -0.00025022792682922155 -6.1791811886796122e-10 -1.3447172714205968e-08 -1.8495013295993037e-07 1.0163139556886141e-07 8.6138203648385029e-08 -0.00025026173832821676 1.0163139556886141e-07 8.6138203648385029e-08 -0.00025026173832821676 3.710162612021125e-08 5.4395784754521501e-08 -0.00025021187414787634 -6.1791811886794447e-10 -1.3447172714205987e-08 -1.849501329598282e-07 -1.9809686497942667e-08 -1.3052831610347524e-08 -2.5384888101685842e-07 2.4286652026182449e-08 4.6340204402343405e-08 -2.7341363363791026e-07 -6.1791811886796649e-10 -1.3447172714205972e-08 -1.8495013295993037e-07 -1.9809686497942667e-08 -1.3052831610347524e-08 -2.5384888101685842e-07 1.0163139556886141e-07 8.6138203648385029e-08 -0.00025026173832821676 2.4286652026182449e-08 4.6340204402343405e-08 -2.7341363363791026e-07 -3.9994439432499779e-09 5.3149551057615289e-08 -2.0220345746519761e-07 -6.1791811886796122e-10 -1.3447172714205968e-08 -1.8495013295993037e-07 5.2025756387784191e-08 1.2723061738268342e-07 -0.00025022792682922155 5.3713800406816269e-08 3.4991048853546956e-08 -1.8640979810211379e-07 1.0163139556886141e-07 8.6138203648385029e-08 -0.00025026173832821676 -1.9809686497942667e-08 -1.3052831610347524e-08 -2.5384888101685842e-07 1.3376849931721473e-07 1.9291665229413974e-08 -0.00025025160386652975 5.3713800406816269e-08 3.4991048853546956e-08 -1.8640979810211379e-07 2.4286652026182449e-08 4.6340204402343405e-08 -2.7341363363791026e-07 -1.9809686497942667e-08 -1.3052831610347524e-08 -2.5384888101685842e-07 1.0163139556886141e-07 8.6138203648385029e-08 -0.00025026173832821676 1.3376849931721473e-07 1.9291665229413974e-08 -0.00025025160386652975 4.4876223365015613e-08 1.0090576477400094e-07 -0.00050027506367549067 6.9849830345717846e-08 1.9623595522300325e-08 -0.00025024546619169838 8.7880080985053686e-08 6.6378878726742459e-08 -0.00050027196445773139 1.3376849931721473e-07 1.9291665229413974e-08 -0.00025025160386652975 1.0163139556886141e-07 8.6138203648385029e-08 -0.00025026173832821676 6.9849830345717846e-08 1.9623595522300325e-08 -0.00025024546619169838 4.4876223365015613e-08 1.0090576477400094e-07 -0.00050027506367549067 8.7880080985053686e-08 6.6378878726742459e-08 -0.00050027196445773139 4.4876223365015613e-08 1.0090576477400094e-07 -0.00050027506367549067 5.724752719908296e-08 3.4703563917878049e-08 -0.00050026517545948576 5.7204849642697826e-08 9.5791305094319046e-08 -0.00075030177996527226 2.9117656673290376e-08 -4.4972329630568704e-08 -1.3795291065128073e-07 8.4818095921280228e-08 -1.0695756791266658e-07 -0.0002502223367467464 -1.27012042919164e-08 1.1314637939762252e-08 -9.8543622808716344e-08 1.9423600154076716e-08 -1.3542081044891272e-07 -0.00025020184729806773 8.4818095921280295e-08 -1.0695756791266658e-07 -0.00025022233674674635 1.9423600154076716e-08 -1.3542081044891272e-07 -0.00025020184729806773 3.6406066461811419e-08 -7.0372027676066264e-08 -0.00025019283072037063 -1.27012042919164e-08 1.1314637939762252e-08 -9.8543622808716344e-08 5.3191410639960233e-08 -2.6638905470421582e-08 -0.00025019976907319542 8.4818095921280295e-08 -1.0695756791266658e-07 -0.00025022233674674635 3.6406066461811419e-08 -7.0372027676066264e-08 -0.00025019283072037063 -1.27012042919164e-08 1.1314637939762252e-08 -9.8543622808716344e-08 2.9117656673290376e-08 -4.4972329630568704e-08 -1.3795291065128073e-07 4.7288220553514746e-08 -2.4814714930555517e-08 -2.021290547991154e-07 -1.27012042919164e-08 1.1314637939762252e-08 -9.8543622808716344e-08 8.4818095921280295e-08 -1.0695756791266658e-07 -0.00025022233674674635 8.4818095921280295e-08 -1.0695756791266658e-07 -0.00025022233674674635 5.3191410639960227e-08 -2.6638905470421562e-08 -0.00025019976907319542 -1.2600673062214614e-08 4.7779824252430675e-09 -1.7697884512078979e-07 -1.27012042919164e-08 1.1314637939762252e-08 -9.8543622808716344e-08 4.7288220553514746e-08 -2.4814714930555517e-08 -2.021290547991154e-07 -1.2600673062214623e-08 4.7779824252430724e-09 -1.7697884512078976e-07 -1.27012042919164e-08 1.1314637939762252e-08 -9.8543622808716344e-08 8.4818095921280295e-08 -1.0695756791266658e-07 -0.00025022233674674635 4.7288220553514746e-08 -2.4814714930555517e-08 -2.021290547991154e-07 1.2751428334724768e-07 -4.947781512615021e-08 -0.00025025689278751663 -1.2600673062214613e-08 4.7779824252430708e-09 -1.7697884512078082e-07 8.4818095921280295e-08 -1.0695756791266658e-07 -0.00025022233674674635 4.7288220553514746e-08 -2.4814714930555517e-08 -2.021290547991154e-07 5.208142396596274e-08 4.0615342273630832e-09 -2.7385087130177107e-07 -1.2600673062214614e-08 4.7779824252430675e-09 -1.7697884512078979e-07 1.2751428334724768e-07 -4.947781512615021e-08 -0.00025025689278751663 -1.2600673062214614e-08 4.7779824252430675e-09 -1.7697884512078979e-07 5.208142396596274e-08 4.0615342273630832e-09 -2.7385087130177107e-07 -1.9809686497942667e-08 -1.3052831610347524e-08 -2.5384888101685842e-07 1.275142833472477e-07 -4.947781512615023e-08 -0.00025025689278751674 -1.2600673062214614e-08 4.7779824252430675e-09 -1.7697884512078979e-07 1.275142833472477e-07 -4.9477815126150217e-08 -0.00025025689278751663 -1.9809686497942667e-08 -1.3052831610347524e-08 -2.5384888101685842e-07 5.3191410639960233e-08 -2.6638905470421582e-08 -0.00025019976907319542 5.208142396596274e-08 4.0615342273630832e-09 -2.7385087130177107e-07 5.3713800406816276e-08 3.4991048853546949e-08 -1.8640979810213846e-07 -1.9809686497942667e-08 -1.3052831610347524e-08 -2.5384888101685842e-07 1.3376849931721473e-07 1.9291665229413974e-08 -0.00025025160386652975 5.208142396596274e-08 4.0615342273630832e-09 -2.7385087130177107e-07 1.3376849931721473e-07 1.9291665229413974e-08 -0.00025025160386652975 -1.9809686497942667e-08 -1.3052831610347524e-08 -2.5384888101685842e-07 1.2751428334724768e-07 -4.947781512615021e-08 -0.00025025689278751663 1.0163139556886141e-07 8.6138203648385029e-08 -0.00025026173832821676 1.3376849931721473e-07 1.9291665229413974e-08 -0.00025025160386652975 6.9849830345717846e-08 1.9623595522300325e-08 -0.00025024546619169838 -1.9809686497942667e-08 -1.3052831610347524e-08 -2.5384888101685842e-07 1.3376849931721473e-07 1.9291665229413974e-08 -0.00025025160386652975 1.2751428334724768e-07 -4.947781512615021e-08 -0.00025025689278751663 6.9849830345717846e-08 1.9623595522300325e-08 -0.00025024546619169838 -1.9809686497942667e-08 -1.3052831610347524e-08 -2.5384888101685842e-07 1.2751428334724768e-07 -4.947781512615021e-08 -0.00025025689278751663 8.4818095921280295e-08 -1.0695756791266658e-07 -0.00025022233674674635 5.3191410639960233e-08 -2.6638905470421582e-08 -0.00025019976907319542 -1.2600673062214643e-08 4.7779824252430782e-09 -1.7697884512067391e-07 1.2751428334724768e-07 -4.947781512615021e-08 -0.00025025689278751663 5.3191410639960233e-08 -2.6638905470421582e-08 -0.00025019976907319542 6.9849830345717846e-08 1.9623595522300325e-08 -0.00025024546619169838 -1.9809686497942667e-08 -1.3052831610347524e-08 -2.5384888101685842e-07 1.0921577631603106e-07 1.3357100770764047e-08 -0.00050027132875007355 1.0146466785291296e-07 -4.2924642402225785e-08 -0.00050025652539557625 5.4743602147412184e-08 -1.5674011990448154e-08 -0.00050025146488591205 5.319141063996024e-08 -2.6638905470421589e-08 -0.00025019976907319531 8.4818095921280295e-08 -1.0695756791266658e-07 -0.00025022233674674635 1.2751428334724768e-07 -4.947781512615021e-08 -0.00025025689278751663 5.3191410639960233e-08 -2.6638905470421582e-08 -0.00025019976907319542 1.0921577631603106e-07 1.3357100770764047e-08 -0.00050027132875007355 5.3191410639960233e-08 -2.6638905470421582e-08 -0.00025019976907319542 1.0921577631603109e-07 1.3357100770764051e-08 -0.00050027132875007365 6.9849830345717846e-08 1.9623595522300325e-08 -0.00025024546619169838 5.4743602147412184e-08 -1.5674011990448154e-08 -0.00050025146488591205 1.0921577631603106e-07 1.3357100770764047e-08 -0.00050027132875007355 5.4743602147412184e-08 -1.5674011990448154e-08 -0.00050025146488591205 5.724752719908296e-08 3.4703563917878049e-08 -0.00050026517545948576 6.9849830345717846e-08 1.9623595522300325e-08 -0.00025024546619169838 5.3191410639960233e-08 -2.6638905470421582e-08 -0.00025019976907319542 1.2751428334724768e-07 -4.947781512615021e-08 -0.00025025689278751663 6.9849830345717846e-08 1.9623595522300325e-08 -0.00025024546619169838 1.0921577631603106e-07 1.3357100770764076e-08 -0.00050027132875007365 4.4876223365015613e-08 1.0090576477400094e-07 -0.00050027506367549067 8.7880080985053686e-08 6.6378878726742459e-08 -0.00050027196445773139 5.724752719908296e-08 3.4703563917878049e-08 -0.00050026517545948576 6.9849830345717846e-08 1.9623595522300325e-08 -0.00025024546619169838 1.2751428334724768e-07 -4.947781512615021e-08 -0.00025025689278751663 8.7880080985053686e-08 6.6378878726742459e-08 -0.00050027196445773139 6.9849830345717846e-08 1.9623595522300325e-08 -0.00025024546619169838 1.0921577631603106e-07 1.3357100770764047e-08 -0.00050027132875007355 1.2751428334724768e-07 -4.947781512615021e-08 -0.00025025689278751663 1.3376849931721471e-07 1.9291665229413978e-08 -0.00025025160386652975 6.9849830345717846e-08 1.9623595522300325e-08 -0.00025024546619169838 8.7880080985053686e-08 6.6378878726742459e-08 -0.00050027196445773139 8.7880080985053686e-08 6.6378878726742459e-08 -0.00050027196445773139 1.0921577631603106e-07 1.3357100770764047e-08 -0.00050027132875007355 5.724752719908296e-08 3.4703563917878049e-08 -0.00050026517545948576 6.9849830345717846e-08 1.9623595522300325e-08 -0.00025024546619169838 1.0921577631603106e-07 1.3357100770764047e-08 -0.00050027132875007355 8.7880080985053686e-08 6.6378878726742446e-08 -0.00050027196445773139 5.724752719908296e-08 3.4703563917878049e-08 -0.00050026517545948576 9.7725408453259725e-08 5.4129545112906659e-08 -0.00075030055553151854 1.0146466785291296e-07 -4.2924642402225785e-08 -0.00050025652539557625 1.0921577631603106e-07 1.3357100770764047e-08 -0.00050027132875007355 5.4743602147412184e-08 -1.5674011990448154e-08 -0.00050025146488591205 1.1165622839117693e-07 -1.8631402915496357e-09 -0.00075030023595583372 5.4743602147412184e-08 -1.5674011990448154e-08 -0.00050025146488591205 1.0921577631603106e-07 1.3357100770764047e-08 -0.00050027132875007355 5.724752719908296e-08 3.4703563917878049e-08 -0.00050026517545948576 1.1165622839117693e-07 -1.8631402915496427e-09 -0.00075030023595583383 1.0146466785291296e-07 -4.2924642402225785e-08 -0.00050025652539557625 5.4743602147412177e-08 -1.5674011990448157e-08 -0.00050025146488591194 5.1807258871773415e-08 -5.3008049376357186e-08 -0.00050024689752642653 9.5725992482902857e-08 -5.748457235490125e-08 -0.0007502945557710675 6.6418059559279108e-08 -8.7906635211201611e-08 -0.00050024757942731353 1.0146466785291296e-07 -4.2924642402225785e-08 -0.00050025652539557625 5.1807258871773415e-08 -5.3008049376357186e-08 -0.00050024689752642653 9.5725992482902857e-08 -5.748457235490125e-08 -0.0007502945557710675 8.4818095921280295e-08 -1.0695756791266658e-07 -0.00025022233674674635 5.319141063996022e-08 -2.6638905470421582e-08 -0.00025019976907319537 3.6406066461811419e-08 -7.0372027676066264e-08 -0.00025019283072037063 1.0146466785291296e-07 -4.2924642402225785e-08 -0.00050025652539557625 5.4743602147412184e-08 -1.5674011990448154e-08 -0.00050025146488591205 1.0146466785291296e-07 -4.2924642402225785e-08 -0.00050025652539557625 5.1807258871773415e-08 -5.3008049376357186e-08 -0.00050024689752642653 3.6406066461811419e-08 -7.0372027676066264e-08 -0.00025019283072037063 8.4818095921280295e-08 -1.0695756791266658e-07 -0.00025022233674674635 1.0921577631603106e-07 1.3357100770764047e-08 -0.00050027132875007355 5.3191410639960233e-08 -2.6638905470421585e-08 -0.00025019976907319542 1.0146466785291296e-07 -4.2924642402225785e-08 -0.00050025652539557625 1.0146466785291296e-07 -4.2924642402225785e-08 -0.00050025652539557625 5.4743602147412171e-08 -1.5674011990448157e-08 -0.00050025146488591205 5.3191410639960233e-08 -2.6638905470421582e-08 -0.00025019976907319542 3.6406066461811419e-08 -7.0372027676066264e-08 -0.00025019283072037063 1.0146466785291296e-07 -4.2924642402225785e-08 -0.00050025652539557625 6.6418059559279108e-08 -8.7906635211201611e-08 -0.00050024757942731353 5.1807258871773415e-08 -5.3008049376357186e-08 -0.00050024689752642653 3.6406066461811419e-08 -7.0372027676066264e-08 -0.00025019283072037063 1.9423600154076716e-08 -1.3542081044891272e-07 -0.00025020184729806773 8.4818095921280295e-08 -1.0695756791266658e-07 -0.00025022233674674635 3.6406066461811419e-08 -7.0372027676066264e-08 -0.00025019283072037063 1.0146466785291296e-07 -4.2924642402225785e-08 -0.00050025652539557625 1.9423600154076716e-08 -1.3542081044891272e-07 -0.00025020184729806773 1.0146466785291297e-07 -4.2924642402225758e-08 -0.00050025652539557625 3.6406066461811419e-08 -7.0372027676066264e-08 -0.00025019283072037063 6.6418059559279108e-08 -8.7906635211201611e-08 -0.00050024757942731353 6.6418059559279108e-08 -8.7906635211201611e-08 -0.00050024757942731353 9.5725992482902831e-08 -5.7484572354901244e-08 -0.0007502945557710676 5.1807258871773415e-08 -5.3008049376357186e-08 -0.00050024689752642653 5.4068082169524781e-08 -9.7708429033403576e-08 -0.00075029061775707328 5.4068082169524781e-08 -9.7708429033403576e-08 -0.00075029061775707328 9.6696801616547502e-08 -5.571935190870005e-08 -0.0010003350270180471 4.9140781236469526e-08 -5.6869697914480393e-08 -0.00075029118030118754 5.5897159782873949e-08 -9.6588377062450583e-08 -0.0010003331373500933 9.6696801616547515e-08 -5.5719351908700056e-08 -0.0010003350270180471 5.3563347138367156e-08 -2.0503506510055713e-08 -0.0010003349216327589 5.3666718251463445e-08 -1.9718420579080394e-08 -0.00075029328865685045 4.9140781236469526e-08 -5.6869697914480393e-08 -0.00075029118030118754 9.5725992482902857e-08 -5.748457235490125e-08 -0.0007502945557710675 5.3666718251463438e-08 -1.9718420579080397e-08 -0.00075029328865685045 4.9140781236469526e-08 -5.6869697914480393e-08 -0.00075029118030118754 9.6696801616547515e-08 -5.5719351908700056e-08 -0.0010003350270180471 9.5725992482902857e-08 -5.748457235490125e-08 -0.0007502945557710675 1.1160023408662841e-07 1.0343984506313859e-10 -0.0010003375443198245 5.3666718251463445e-08 -1.9718420579080394e-08 -0.00075029328865685045 9.6696801616547515e-08 -5.5719351908700056e-08 -0.0010003350270180471 5.4068082169524781e-08 -9.7708429033403576e-08 -0.00075029061775707328 9.5725992482902857e-08 -5.748457235490125e-08 -0.0007502945557710675 4.9140781236469526e-08 -5.6869697914480393e-08 -0.00075029118030118754 9.6696801616547515e-08 -5.5719351908700056e-08 -0.0010003350270180471 9.5725992482902857e-08 -5.748457235490125e-08 -0.0007502945557710675 5.4068082169524781e-08 -9.7708429033403576e-08 -0.00075029061775707328 4.9140781236469526e-08 -5.6869697914480393e-08 -0.00075029118030118754 5.1807258871773415e-08 -5.3008049376357186e-08 -0.00050024689752642653 5.3666718251463445e-08 -1.9718420579080394e-08 -0.00075029328865685045 9.5725992482902857e-08 -5.748457235490125e-08 -0.0007502945557710675 4.9140781236469526e-08 -5.6869697914480393e-08 -0.00075029118030118754 5.1807258871773415e-08 -5.3008049376357186e-08 -0.00050024689752642653 1.0146466785291296e-07 -4.2924642402225785e-08 -0.00050025652539557625 1.1165622839117693e-07 -1.8631402915496357e-09 -0.00075030023595583372 5.4743602147412184e-08 -1.5674011990448154e-08 -0.00050025146488591205 9.5725992482902857e-08 -5.748457235490125e-08 -0.0007502945557710675 9.5725992482902857e-08 -5.748457235490125e-08 -0.0007502945557710675 5.3666718251463438e-08 -1.9718420579080394e-08 -0.00075029328865685045 5.4743602147412184e-08 -1.5674011990448154e-08 -0.00050025146488591205 5.1807258871773415e-08 -5.3008049376357186e-08 -0.00050024689752642653 5.4743602147412184e-08 -1.5674011990448154e-08 -0.00050025146488591205 1.1165622839117695e-07 -1.8631402915496382e-09 -0.00075030023595583372 5.724752719908296e-08 3.4703563917878049e-08 -0.00050026517545948576 5.3666718251463445e-08 -1.9718420579080394e-08 -0.00075029328865685045 1.1165622839117693e-07 -1.8631402915496357e-09 -0.00075030023595583372 9.5725992482902857e-08 -5.748457235490125e-08 -0.0007502945557710675 5.3666718251463445e-08 -1.9718420579080394e-08 -0.00075029328865685045 5.474360214741219e-08 -1.5674011990448154e-08 -0.00050025146488591194 1.1165622839117693e-07 -1.8631402915496357e-09 -0.00075030023595583372 5.3666718251463445e-08 -1.9718420579080394e-08 -0.00075029328865685045 5.6594815555109443e-08 3.2006367488992547e-08 -0.00075029824391419162 5.724752719908296e-08 3.4703563917878049e-08 -0.00050026517545948576 1.0921577631603106e-07 1.3357100770764047e-08 -0.00050027132875007355 9.7725408453259725e-08 5.4129545112906659e-08 -0.00075030055553151854 5.724752719908296e-08 3.4703563917878049e-08 -0.00050026517545948576 1.1165622839117693e-07 -1.8631402915496357e-09 -0.00075030023595583372 9.7725408453259725e-08 5.4129545112906659e-08 -0.00075030055553151854 1.1165622839117693e-07 -1.8631402915496357e-09 -0.00075030023595583372 5.6594815555109443e-08 3.2006367488992547e-08 -0.00075029824391419162 5.724752719908296e-08 3.4703563917878049e-08 -0.00050026517545948576 5.7204849642697826e-08 9.5791305094319046e-08 -0.00075030177996527226 9.7725408453259725e-08 5.4129545112906659e-08 -0.00075030055553151854 5.6594815555109443e-08 3.2006367488992547e-08 -0.00075029824391419162 5.724752719908296e-08 3.4703563917878049e-08 -0.00050026517545948576 1.1165622839117693e-07 -1.8631402915496357e-09 -0.00075030023595583372 9.6574278851796863e-08 5.5889508351797653e-08 -0.001000337917844865 5.6594815555109443e-08 3.2006367488992547e-08 -0.00075029824391419162 1.1160023408662841e-07 1.0343984506313859e-10 -0.0010003375443198245 1.1165622839117693e-07 -1.8631402915496357e-09 -0.00075030023595583372 9.7725408453259725e-08 5.4129545112906659e-08 -0.00075030055553151854 5.6594815555109443e-08 3.2006367488992547e-08 -0.00075029824391419162 9.6574278851796863e-08 5.5889508351797653e-08 -0.001000337917844865 5.3666718251463445e-08 -1.9718420579080394e-08 -0.00075029328865685045 1.1165622839117693e-07 -1.8631402915496357e-09 -0.00075030023595583372 5.6594815555109443e-08 3.2006367488992547e-08 -0.00075029824391419162 1.1160023408662841e-07 1.034398450631395e-10 -0.0010003375443198245 5.3666718251463445e-08 -1.9718420579080394e-08 -0.00075029328865685045 1.1160023408662844e-07 1.0343984506313695e-10 -0.0010003375443198245 5.6594815555109443e-08 3.2006367488992547e-08 -0.00075029824391419162 5.3563347138367162e-08 -2.0503506510055713e-08 -0.0010003349216327589 9.5725992482902857e-08 -5.748457235490125e-08 -0.0007502945557710675 1.1165622839117693e-07 -1.8631402915496357e-09 -0.00075030023595583372 5.3666718251463445e-08 -1.9718420579080394e-08 -0.00075029328865685045 1.1160023408662841e-07 1.0343984506313859e-10 -0.0010003375443198245 1.1160023408662841e-07 1.0343984506313859e-10 -0.0010003375443198245 5.3563347138367162e-08 -2.0503506510055713e-08 -0.0010003349216327589 5.5610822971984558e-08 3.1828832716320351e-08 -0.0010003371487856503 5.6594815555109443e-08 3.2006367488992547e-08 -0.00075029824391419162 5.3563347138367162e-08 -2.0503506510055713e-08 -0.0010003349216327589 1.1160023408662841e-07 1.0343984506313859e-10 -0.0010003375443198245 5.5610822971984558e-08 3.1828832716320351e-08 -0.0010003371487856503 1.1151819721158913e-07 6.6189977499238318e-11 -0.0012503797490560221 9.6696801616547515e-08 -5.5719351908700056e-08 -0.0010003350270180471 1.1160023408662841e-07 1.0343984506313859e-10 -0.0010003375443198245 5.3563347138367162e-08 -2.0503506510055713e-08 -0.0010003349216327589 1.1151819721158913e-07 6.6189977499238344e-11 -0.0012503797490560219 1.1160023408662841e-07 1.0343984506313859e-10 -0.0010003375443198245 9.6696801616547515e-08 -5.5719351908700056e-08 -0.0010003350270180471 5.3563347138367162e-08 -2.0503506510055713e-08 -0.0010003349216327589 5.3666718251463452e-08 -1.9718420579080397e-08 -0.00075029328865685034 1.1160023408662841e-07 1.0343984506313859e-10 -0.0010003375443198245 9.6574278851796863e-08 5.5889508351797653e-08 -0.001000337917844865 5.5610822971984558e-08 3.1828832716320351e-08 -0.0010003371487856503 9.6556748834986254e-08 5.5805224496641941e-08 -0.0012503802317175483 9.6574278851796863e-08 5.5889508351797653e-08 -0.001000337917844865 1.1160023408662841e-07 1.0343984506313859e-10 -0.0010003375443198245 5.5610822971984558e-08 3.1828832716320351e-08 -0.0010003371487856503 5.6594815555109443e-08 3.2006367488992547e-08 -0.00075029824391419162 5.5754124104947082e-08 9.6685151420300846e-08 -0.0010003382666913334 9.6574278851796863e-08 5.5889508351797653e-08 -0.001000337917844865 5.5610822971984558e-08 3.1828832716320351e-08 -0.0010003371487856503 5.6594815555109443e-08 3.2006367488992547e-08 -0.00075029824391419162 5.5730071908320939e-08 9.659492593773197e-08 -0.0012503802285971318 9.6556748834986254e-08 5.5805224496641941e-08 -0.0012503802317175483 5.5695798244896687e-08 3.2013298244563352e-08 -0.0012503801404901737 5.5610822971984558e-08 3.1828832716320351e-08 -0.0010003371487856503 1.1160023408662841e-07 1.0343984506313859e-10 -0.0010003375443198245 9.6556748834986254e-08 5.5805224496641941e-08 -0.0012503802317175483 5.5610822971984558e-08 3.1828832716320351e-08 -0.0010003371487856503 1.1151819721158913e-07 6.6189977499238344e-11 -0.0012503797490560219 9.6556748834986254e-08 5.5805224496641941e-08 -0.0012503802317175483 1.1151819721158913e-07 6.6189977499238344e-11 -0.0012503797490560219 5.5695798244896687e-08 3.2013298244563352e-08 -0.0012503801404901737 5.5610822971984558e-08 3.1828832716320351e-08 -0.0010003371487856503 1.1151819721158913e-07 6.6189977499238344e-11 -0.0012503797490560219 9.6613815676373726e-08 -5.569619788740458e-08 -0.0012503781634735809 5.3708001588802894e-08 -2.0309754788946332e-08 -0.0012503782876837383 5.3563347138367169e-08 -2.0503506510055716e-08 -0.0010003349216327587 1.1151819721158913e-07 6.6189977499238344e-11 -0.0012503797490560219 5.3708001588802894e-08 -2.0309754788946332e-08 -0.0012503782876837383 5.5695798244896687e-08 3.2013298244563352e-08 -0.0012503801404901737 5.5610822971984558e-08 3.1828832716320351e-08 -0.0010003371487856503 5.3563347138367162e-08 -2.0503506510055713e-08 -0.0010003349216327589 1.1151819721158915e-07 6.6189977499236418e-11 -0.0012503797490560219 5.5610822971984558e-08 3.1828832716320351e-08 -0.0010003371487856503 5.3708001588802894e-08 -2.0309754788946332e-08 -0.0012503782876837383 9.6613815676373726e-08 -5.569619788740458e-08 -0.0012503781634735809 5.580288792829582e-08 -9.6552821074412841e-08 -0.0012503768558452268 4.9712165234667558e-08 -5.6798163017958309e-08 -0.001250377640453426 4.9532905518041814e-08 -5.7040184976932768e-08 -0.001000333698025997 5.3708001588802894e-08 -2.0309754788946332e-08 -0.0012503782876837383 9.6613815676373726e-08 -5.569619788740458e-08 -0.0012503781634735809 4.9712165234667558e-08 -5.6798163017958309e-08 -0.001250377640453426 4.9532905518041814e-08 -5.7040184976932768e-08 -0.001000333698025997 9.6613815676373726e-08 -5.569619788740458e-08 -0.0012503781634735809 5.3708001588802887e-08 -2.0309754788946332e-08 -0.0012503782876837383 5.3563347138367162e-08 -2.0503506510055713e-08 -0.0010003349216327589 4.9532905518041814e-08 -5.7040184976932768e-08 -0.001000333698025997 9.6696801616547515e-08 -5.5719351908700056e-08 -0.0010003350270180471 1.1151819721158913e-07 6.6189977499238344e-11 -0.0012503797490560219 5.3563347138367162e-08 -2.0503506510055713e-08 -0.0010003349216327589 9.6613815676373726e-08 -5.569619788740458e-08 -0.0012503781634735809 9.6696801616547515e-08 -5.5719351908700056e-08 -0.0010003350270180471 5.5897159782873949e-08 -9.6588377062450583e-08 -0.0010003331373500933 4.9532905518041814e-08 -5.7040184976932768e-08 -0.001000333698025997 4.9140781236469526e-08 -5.6869697914480393e-08 -0.00075029118030118754 9.6696801616547515e-08 -5.5719351908700056e-08 -0.0010003350270180471 5.3563347138367156e-08 -2.0503506510055716e-08 -0.0010003349216327587 4.9532905518041814e-08 -5.7040184976932768e-08 -0.001000333698025997 9.6613815676373726e-08 -5.569619788740458e-08 -0.0012503781634735809 5.3563347138367162e-08 -2.0503506510055713e-08 -0.0010003349216327589 9.6696801616547515e-08 -5.5719351908700056e-08 -0.0010003350270180471 4.9532905518041814e-08 -5.7040184976932768e-08 -0.001000333698025997 4.9140781236469526e-08 -5.6869697914480393e-08 -0.00075029118030118754 5.5897159782873949e-08 -9.6588377062450583e-08 -0.0010003331373500933 9.6696801616547515e-08 -5.5719351908700056e-08 -0.0010003350270180471 4.9532905518041814e-08 -5.7040184976932768e-08 -0.001000333698025997 9.6613815676373726e-08 -5.569619788740458e-08 -0.0012503781634735809 5.5897159782873949e-08 -9.6588377062450583e-08 -0.0010003331373500933 9.6613815676373713e-08 -5.5696197887404574e-08 -0.0012503781634735809 4.9532905518041814e-08 -5.7040184976932768e-08 -0.001000333698025997 5.580288792829582e-08 -9.6552821074412841e-08 -0.0012503768558452268 8.7880080985053686e-08 6.6378878726742459e-08 -0.00050027196445773139 5.7204849642697826e-08 9.5791305094319046e-08 -0.00075030177996527226 5.724752719908296e-08 3.4703563917878049e-08 -0.00050026517545948576 9.7725408453259725e-08 5.4129545112906659e-08 -0.00075030055553151854 9.7725408453259725e-08 5.4129545112906659e-08 -0.00075030055553151854 5.7204849642697826e-08 9.5791305094319046e-08 -0.00075030177996527226 5.6594815555109443e-08 3.2006367488992547e-08 -0.00075029824391419162 5.5754124104947082e-08 9.6685151420300846e-08 -0.0010003382666913334 9.7725408453259725e-08 5.4129545112906659e-08 -0.00075030055553151854 5.5754124104947082e-08 9.6685151420300846e-08 -0.0010003382666913334 5.6594815555109443e-08 3.2006367488992547e-08 -0.00075029824391419162 9.6574278851796863e-08 5.5889508351797653e-08 -0.001000337917844865 9.6574278851796863e-08 5.5889508351797653e-08 -0.001000337917844865 5.5754124104947082e-08 9.6685151420300846e-08 -0.0010003382666913334 5.5610822971984558e-08 3.1828832716320351e-08 -0.0010003371487856503 5.5730071908320939e-08 9.659492593773197e-08 -0.0012503802285971318 9.6574278851796863e-08 5.5889508351797653e-08 -0.001000337917844865 5.5730071908320939e-08 9.659492593773197e-08 -0.0012503802285971318 5.5610822971984558e-08 3.1828832716320351e-08 -0.0010003371487856503 9.6556748834986254e-08 5.5805224496641941e-08 -0.0012503802317175483 -1.5515427118288232e-11 1.1151465752236748e-07 -0.0012503785789277776 5.5730071908320939e-08 9.659492593773197e-08 -0.0012503802285971318 9.2334690093080828e-09 5.7042122798715258e-08 -0.0012503788313319992 9.2281526237983872e-09 5.6971193966852673e-08 -0.0010003357428562422 5.5730071908320939e-08 9.659492593773197e-08 -0.0012503802285971318 9.2334690093080828e-09 5.7042122798715258e-08 -0.001250378831331999 9.2281526237983674e-09 5.6971193966852706e-08 -0.0010003357428562422 5.5610822971984558e-08 3.1828832716320351e-08 -0.0010003371487856503 5.5754124104947082e-08 9.6685151420300846e-08 -0.0010003382666913334 -1.5515427118282038e-11 1.1151465752236748e-07 -0.0012503785789277776 9.2281526237983872e-09 5.6971193966852673e-08 -0.0010003357428562422 5.5730071908320939e-08 9.659492593773197e-08 -0.0012503802285971318 -8.3059099348651858e-11 1.1159795275937555e-07 -0.0010003356787847463 -5.5771046010242857e-08 9.6569463055402263e-08 -0.0012503776280491279 -2.4312981742489164e-08 7.1359223257605178e-08 -0.0010003347448895585 -1.5515427118288232e-11 1.1151465752236748e-07 -0.0012503785789277776 -1.5515427118288232e-11 1.1151465752236748e-07 -0.0012503785789277776 9.2334690093080828e-09 5.7042122798715258e-08 -0.0012503788313319992 -2.4209134381638048e-08 7.1410470600940044e-08 -0.0012503782879258131 -2.4312981742489164e-08 7.1359223257605178e-08 -0.0010003347448895585 -5.5771046010242877e-08 9.6569463055402276e-08 -0.0012503776280491279 -1.5515427118282422e-11 1.115146575223675e-07 -0.0012503785789277776 -2.4209134381638048e-08 7.1410470600940044e-08 -0.0012503782879258131 -2.4312981742489164e-08 7.1359223257605178e-08 -0.0010003347448895585 9.2281526237983872e-09 5.6971193966852673e-08 -0.0010003357428562422 -1.5515427118296187e-11 1.1151465752236748e-07 -0.0012503785789277776 -2.4312981742489164e-08 7.1359223257605178e-08 -0.0010003347448895585 9.2334690093080828e-09 5.7042122798715258e-08 -0.0012503788313319992 9.2334690093080828e-09 5.7042122798715258e-08 -0.0012503788313319992 -1.9825315436601109e-08 3.5883516372632859e-08 -0.0012503779917084313 -2.4209134381638048e-08 7.1410470600940044e-08 -0.0012503782879258131 -2.4312981742489164e-08 7.1359223257605178e-08 -0.0010003347448895585 9.2281526237983872e-09 5.6971193966852673e-08 -0.0010003357428562422 -8.3059099348651858e-11 1.1159795275937555e-07 -0.0010003356787847463 -2.4312981742489164e-08 7.1359223257605178e-08 -0.0010003347448895585 -1.5515427118288232e-11 1.1151465752236748e-07 -0.0012503785789277776 5.5754124104947082e-08 9.6685151420300846e-08 -0.0010003382666913334 -8.3059099348651858e-11 1.1159795275937555e-07 -0.0010003356787847463 9.2281526237983872e-09 5.6971193966852673e-08 -0.0010003357428562422 -1.5515427118288251e-11 1.1151465752236748e-07 -0.0012503785789277776 5.5754124104947082e-08 9.6685151420300846e-08 -0.0010003382666913334 9.2281526237983922e-09 5.6971193966852666e-08 -0.0010003357428562422 5.5610822971984558e-08 3.1828832716320351e-08 -0.0010003371487856503 5.5730071908320939e-08 9.659492593773197e-08 -0.0012503802285971318 5.5754124104947082e-08 9.6685151420300846e-08 -0.0010003382666913334 9.2281526237983872e-09 5.6971193966852673e-08 -0.001000335742856242 1.0865503860700935e-08 5.7032936647683417e-08 -0.00075029507568270392 5.6594815555109443e-08 3.2006367488992547e-08 -0.00075029824391419162 5.7204849642697826e-08 9.5791305094319046e-08 -0.00075030177996527226 1.086550386070096e-08 5.7032936647683384e-08 -0.00075029507568270403 5.6594815555109443e-08 3.2006367488992547e-08 -0.00075029824391419162 5.5754124104947082e-08 9.6685151420300846e-08 -0.0010003382666913334 5.7204849642697826e-08 9.5791305094319046e-08 -0.00075030177996527226 -8.3059099348645499e-11 1.1159795275937555e-07 -0.0010003356787847461 1.0865503860700955e-08 5.703293664768339e-08 -0.00075029507568270403 5.5754124104947082e-08 9.6685151420300846e-08 -0.0010003382666913334 5.7204849642697826e-08 9.5791305094319046e-08 -0.00075030177996527226 1.9987280705383276e-09 1.1165116465982089e-07 -0.00075029583400267746 1.0865503860700955e-08 5.703293664768339e-08 -0.00075029507568270403 -8.3059099348651315e-11 1.1159795275937555e-07 -0.0010003356787847463 -8.3059099348651858e-11 1.1159795275937555e-07 -0.0010003356787847463 5.5754124104947082e-08 9.6685151420300846e-08 -0.0010003382666913334 9.2281526237983872e-09 5.6971193966852673e-08 -0.0010003357428562422 1.0865503860700955e-08 5.703293664768339e-08 -0.00075029507568270403 9.2281526237983872e-09 5.6971193966852673e-08 -0.0010003357428562422 -2.0021590687678224e-08 3.5777763647033405e-08 -0.0010003343508977857 -2.4312981742489164e-08 7.1359223257605178e-08 -0.0010003347448895585 -2.3149312350484682e-08 7.1592022109796709e-08 -0.00075029298275383009 -8.3059099348651858e-11 1.1159795275937555e-07 -0.0010003356787847463 9.2281526237983872e-09 5.6971193966852673e-08 -0.0010003357428562422 -2.4312981742489164e-08 7.1359223257605178e-08 -0.0010003347448895585 -2.3149312350484682e-08 7.1592022109796709e-08 -0.00075029298275383009 1.0865503860700955e-08 5.703293664768339e-08 -0.00075029507568270403 1.9987280705383276e-09 1.1165116465982089e-07 -0.00075029583400267746 -2.3149312350484682e-08 7.1592022109796709e-08 -0.00075029298275383009 -8.3059099348651858e-11 1.1159795275937555e-07 -0.0010003356787847463 1.0865503860700955e-08 5.703293664768339e-08 -0.00075029507568270403 -8.3059099348660065e-11 1.1159795275937555e-07 -0.0010003356787847463 -2.3149312350484682e-08 7.1592022109796709e-08 -0.00075029298275383009 9.2281526237983872e-09 5.6971193966852673e-08 -0.0010003357428562422 -5.5879228208086468e-08 9.6599516793105201e-08 -0.0010003341147624897 -8.3059099348646029e-11 1.1159795275937556e-07 -0.0010003356787847463 -2.4312981742489164e-08 7.1359223257605178e-08 -0.0010003347448895585 -2.3149312350484682e-08 7.1592022109796709e-08 -0.00075029298275383009 1.9987280705383276e-09 1.1165116465982089e-07 -0.00075029583400267746 1.0865503860700955e-08 5.703293664768339e-08 -0.00075029507568270403 -2.3149312350484682e-08 7.1592022109796709e-08 -0.00075029298275383009 -2.5387428524520158e-08 6.9262181772528588e-08 -0.00050025006255158006 -5.406225900484222e-08 9.7714785298882656e-08 -0.00075029217270028989 1.9987280705383338e-09 1.116511646598209e-07 -0.00075029583400267757 -2.3149312350484682e-08 7.1592022109796709e-08 -0.00075029298275383009 -2.5387428524520158e-08 6.9262181772528588e-08 -0.00050025006255158006 1.2957079443304358e-08 5.6986557809796989e-08 -0.0005002553719355156 1.998728070538318e-09 1.1165116465982089e-07 -0.00075029583400267757 -2.5387428524520158e-08 6.9262181772528588e-08 -0.00050025006255158006 1.0865503860700955e-08 5.703293664768339e-08 -0.00075029507568270403 1.0865503860700955e-08 5.703293664768339e-08 -0.00075029507568270403 -1.9293162792987489e-08 3.6136375971017564e-08 -0.00075029216184420986 -2.3149312350484682e-08 7.1592022109796709e-08 -0.00075029298275383009 -2.5387428524520158e-08 6.9262181772528588e-08 -0.00050025006255158006 4.4876223365015613e-08 1.0090576477400094e-07 -0.00050027506367549067 1.9987280705383321e-09 1.1165116465982089e-07 -0.00075029583400267746 1.2957079443304358e-08 5.6986557809796989e-08 -0.0005002553719355156 5.7204849642697826e-08 9.5791305094319046e-08 -0.00075030177996527226 1.9987280705383276e-09 1.1165116465982089e-07 -0.00075029583400267746 5.7204849642697826e-08 9.5791305094319046e-08 -0.00075030177996527226 1.0865503860700955e-08 5.703293664768339e-08 -0.00075029507568270403 1.2957079443304358e-08 5.6986557809796989e-08 -0.0005002553719355156 5.7204849642697826e-08 9.5791305094319046e-08 -0.00075030177996527226 1.0865503860700955e-08 5.703293664768339e-08 -0.00075029507568270392 1.295707944330434e-08 5.6986557809797015e-08 -0.00050025537193551549 5.724752719908296e-08 3.4703563917878049e-08 -0.00050026517545948576 -1.346180670937006e-08 1.0927504649956782e-07 -0.00050025988864610524 -5.4062259004842194e-08 9.7714785298882642e-08 -0.00075029217270028989 -2.5387428524520158e-08 6.9262181772528588e-08 -0.00050025006255158006 1.9987280705383276e-09 1.1165116465982089e-07 -0.00075029583400267746 1.9987280705383276e-09 1.1165116465982089e-07 -0.00075029583400267746 -5.5879228208086448e-08 9.6599516793105188e-08 -0.0010003341147624897 -2.3149312350484682e-08 7.1592022109796709e-08 -0.00075029298275383009 -8.3059099348651858e-11 1.1159795275937555e-07 -0.0010003356787847463 -5.406225900484222e-08 9.7714785298882656e-08 -0.00075029217270028989 -2.3149312350484682e-08 7.1592022109796709e-08 -0.00075029298275383009 -4.8840244801516736e-08 5.3218742381547677e-08 -0.00075029218034464173 -5.1293301280460267e-08 5.0049584698290588e-08 -0.00050024921562088977 -1.9293162792987485e-08 3.6136375971017564e-08 -0.00075029216184420986 -2.3149312350484679e-08 7.1592022109796709e-08 -0.00075029298275383009 -2.5387428524520158e-08 6.9262181772528588e-08 -0.00050025006255158006 -5.1293301280460267e-08 5.0049584698290588e-08 -0.00050024921562088977 -2.5387428524520158e-08 6.9262181772528588e-08 -0.00050025006255158006 -5.406225900484222e-08 9.7714785298882656e-08 -0.00075029217270028989 -5.1293301280460267e-08 5.0049584698290588e-08 -0.00050024921562088977 -2.3149312350484682e-08 7.1592022109796709e-08 -0.00075029298275383009 -6.6336135358803215e-08 8.7946379801997354e-08 -0.00050025053236873334 -9.5740061019157495e-08 5.7465164599475821e-08 -0.00075029432990317128 -5.1293301280460267e-08 5.0049584698290588e-08 -0.00050024921562088977 -5.406225900484222e-08 9.7714785298882656e-08 -0.00075029217270028989 -9.5740061019157508e-08 5.7465164599475821e-08 -0.00075029432990317117 -5.406225900484222e-08 9.7714785298882656e-08 -0.00075029217270028989 -4.8840244801516736e-08 5.3218742381547677e-08 -0.00075029218034464173 -5.1293301280460267e-08 5.0049584698290588e-08 -0.00050024921562088977 -2.0021590687678221e-08 3.5777763647033405e-08 -0.0010003343508977857 -2.4312981742489161e-08 7.1359223257605178e-08 -0.0010003347448895585 -2.3149312350484682e-08 7.1592022109796709e-08 -0.00075029298275383009 -4.8840244801516736e-08 5.3218742381547677e-08 -0.00075029218034464173 -2.3149312350484682e-08 7.1592022109796709e-08 -0.00075029298275383009 -5.406225900484222e-08 9.7714785298882656e-08 -0.00075029217270028989 -4.8840244801516736e-08 5.3218742381547677e-08 -0.00075029218034464173 -5.5879228208086468e-08 9.6599516793105201e-08 -0.0010003341147624897 1.9987280705383276e-09 1.1165116465982089e-07 -0.00075029583400267746 -5.406225900484222e-08 9.7714785298882656e-08 -0.00075029217270028989 -2.3149312350484682e-08 7.1592022109796709e-08 -0.00075029298275383009 -5.5879228208086468e-08 9.6599516793105201e-08 -0.0010003341147624897 -5.5879228208086468e-08 9.6599516793105201e-08 -0.0010003341147624897 -2.4312981742489164e-08 7.1359223257605178e-08 -0.0010003347448895585 -4.9468006014718784e-08 5.2943200592931332e-08 -0.0010003341750288313 -4.8840244801516736e-08 5.3218742381547677e-08 -0.00075029218034464173 -2.3149312350484682e-08 7.1592022109796709e-08 -0.00075029298275383009 -5.5879228208086468e-08 9.6599516793105201e-08 -0.0010003341147624897 -4.8840244801516736e-08 5.3218742381547677e-08 -0.00075029218034464173 -2.4312981742489164e-08 7.1359223257605178e-08 -0.0010003347448895585 -5.406225900484222e-08 9.7714785298882656e-08 -0.00075029217270028989 -9.66898862625638e-08 5.5731279039701007e-08 -0.001000334501511241 -4.8840244801516736e-08 5.3218742381547677e-08 -0.00075029218034464173 -5.5879228208086468e-08 9.6599516793105201e-08 -0.0010003341147624897 -9.6689886262563813e-08 5.5731279039701001e-08 -0.001000334501511241 -5.5879228208086468e-08 9.6599516793105201e-08 -0.0010003341147624897 -4.9468006014718784e-08 5.2943200592931332e-08 -0.0010003341750288313 -4.8840244801516736e-08 5.3218742381547677e-08 -0.00075029218034464173 -5.406225900484222e-08 9.7714785298882656e-08 -0.00075029217270028989 -9.5740061019157508e-08 5.7465164599475821e-08 -0.00075029432990317117 -4.8840244801516736e-08 5.3218742381547677e-08 -0.00075029218034464173 -9.6689886262563813e-08 5.5731279039701001e-08 -0.001000334501511241 -5.5879228208086468e-08 9.6599516793105201e-08 -0.0010003341147624897 -9.6689886262563813e-08 5.5731279039701001e-08 -0.001000334501511241 -4.9468006014718784e-08 5.2943200592931332e-08 -0.0010003341750288313 -9.6590057716323166e-08 5.5732621617623889e-08 -0.0012503775569540155 -2.4312981742489164e-08 7.1359223257605178e-08 -0.0010003347448895585 -5.5879228208086468e-08 9.6599516793105201e-08 -0.0010003341147624897 -4.9468006014718784e-08 5.2943200592931332e-08 -0.0010003341750288313 -5.5771046010242877e-08 9.6569463055402276e-08 -0.0012503776280491279 -8.3059099348651858e-11 1.1159795275937555e-07 -0.0010003356787847463 -5.5879228208086468e-08 9.6599516793105201e-08 -0.0010003341147624897 -2.4312981742489164e-08 7.1359223257605178e-08 -0.0010003347448895585 -5.5771046010242877e-08 9.6569463055402276e-08 -0.0012503776280491279 -9.6590057716323166e-08 5.5732621617623889e-08 -0.0012503775569540155 -5.5771046010242877e-08 9.6569463055402276e-08 -0.0012503776280491279 -4.9266937924386342e-08 5.3038441987564997e-08 -0.0012503779526893285 -4.9468006014718784e-08 5.2943200592931332e-08 -0.0010003341750288313 -1.9825315436601106e-08 3.5883516372632859e-08 -0.0012503779917084313 -2.4209134381638045e-08 7.1410470600940044e-08 -0.0012503782879258131 -2.4312981742489164e-08 7.1359223257605178e-08 -0.0010003347448895585 -4.9468006014718784e-08 5.2943200592931332e-08 -0.0010003341750288313 -5.5879228208086468e-08 9.6599516793105201e-08 -0.0010003341147624897 -9.6590057716323152e-08 5.5732621617623896e-08 -0.0012503775569540157 -4.9468006014718784e-08 5.2943200592931332e-08 -0.0010003341750288313 -5.5771046010242877e-08 9.6569463055402276e-08 -0.0012503776280491279 -2.4312981742489164e-08 7.1359223257605178e-08 -0.0010003347448895585 -5.5771046010242877e-08 9.6569463055402276e-08 -0.0012503776280491279 -4.9468006014718784e-08 5.2943200592931332e-08 -0.0010003341750288313 -2.4209134381638048e-08 7.1410470600940044e-08 -0.0012503782879258131 -5.5771046010242877e-08 9.6569463055402276e-08 -0.0012503776280491279 -2.4209134381638048e-08 7.1410470600940044e-08 -0.0012503782879258131 -4.9266937924386342e-08 5.3038441987564997e-08 -0.0012503779526893285 -4.9468006014718784e-08 5.2943200592931332e-08 -0.0010003341750288313 -1.1151548460793071e-07 -1.8583785453371822e-11 -0.0012503773339889229 -9.6590057716323166e-08 5.5732621617623889e-08 -0.0012503775569540155 -5.0393911044252346e-08 5.4715184187648615e-09 -0.0012503773388995441 -5.0604726454497585e-08 5.2418193329721217e-09 -0.0010003339196024068 -9.6689886262563813e-08 5.5731279039701001e-08 -0.001000334501511241 -1.1151548460793071e-07 -1.8583785453371822e-11 -0.0012503773339889229 -5.0604726454497585e-08 5.2418193329721217e-09 -0.0010003339196024068 -9.6590057716323166e-08 5.5732621617623889e-08 -0.0012503775569540155 -9.6689886262563813e-08 5.5731279039701001e-08 -0.001000334501511241 -5.0604726454497585e-08 5.2418193329721217e-09 -0.0010003339196024068 -4.9468006014718784e-08 5.2943200592931332e-08 -0.0010003341750288313 -9.6590057716323166e-08 5.5732621617623889e-08 -0.0012503775569540155 -9.6689886262563813e-08 5.5731279039701001e-08 -0.001000334501511241 -1.1159496125669908e-07 -1.037646634539215e-10 -0.0010003346238452704 -5.0604726454497585e-08 5.2418193329721217e-09 -0.0010003339196024068 -1.1151548460793071e-07 -1.8583785453371822e-11 -0.0012503773339889229 -5.0604726454497585e-08 5.2418193329721217e-09 -0.0010003339196024068 -1.1159496125669908e-07 -1.0376466345392163e-10 -0.0010003346238452702 -6.6091706701625355e-08 -4.0499578676303673e-08 -0.0010003336191060899 -1.1151548460793071e-07 -1.8583785453371822e-11 -0.0012503773339889229 -1.1159496125669908e-07 -1.0376466345392163e-10 -0.0010003346238452702 -9.6567897216192579e-08 -5.5785632608375514e-08 -0.0012503766934011979 -6.6091706701625368e-08 -4.0499578676303679e-08 -0.0010003336191060899 -1.1151548460793071e-07 -1.8583785453371822e-11 -0.0012503773339889229 -5.0604726454497585e-08 5.2418193329721217e-09 -0.0010003339196024068 -1.1151548460793071e-07 -1.8583785453366668e-11 -0.0012503773339889229 -6.6091706701625355e-08 -4.0499578676303673e-08 -0.0010003336191060899 -5.0393911044252346e-08 5.4715184187648615e-09 -0.0012503773388995441 -1.1151548460793071e-07 -1.8583785453371822e-11 -0.0012503773339889229 -5.0393911044252346e-08 5.4715184187648615e-09 -0.0012503773388995441 -6.586439913801415e-08 -4.0337756034917327e-08 -0.0012503772925678267 -6.6091706701625355e-08 -4.0499578676303673e-08 -0.0010003336191060899 -1.5299712033964892e-08 -5.5533957144354587e-08 -0.0010003332340291146 -5.0604726454497578e-08 5.2418193329721291e-09 -0.0010003339196024068 -6.6091706701625355e-08 -4.0499578676303673e-08 -0.0010003336191060899 -5.0393911044252339e-08 5.4715184187648615e-09 -0.0012503773388995443 -5.0604726454497585e-08 5.2418193329721217e-09 -0.0010003339196024068 -1.5299712033964892e-08 -5.5533957144354587e-08 -0.0010003332340291146 4.8236507250497547e-09 1.3921777354033124e-09 -0.0010003340168337101 -5.0393911044252346e-08 5.4715184187648615e-09 -0.0012503773388995441 -5.0604726454497585e-08 5.2418193329721217e-09 -0.0010003339196024068 4.8236507250497547e-09 1.3921777354033124e-09 -0.0010003340168337101 -2.0021590687678221e-08 3.5777763647033405e-08 -0.0010003343508977857 -5.0393911044252346e-08 5.4715184187648615e-09 -0.0012503773388995441 -5.0604726454497585e-08 5.2418193329721217e-09 -0.0010003339196024068 -2.0021590687678221e-08 3.5777763647033405e-08 -0.0010003343508977857 -4.9468006014718784e-08 5.2943200592931332e-08 -0.0010003341750288313 -5.0393911044252346e-08 5.4715184187648615e-09 -0.0012503773388995441 -2.0021590687678221e-08 3.5777763647033405e-08 -0.0010003343508977857 -2.4312981742489164e-08 7.1359223257605178e-08 -0.0010003347448895585 -4.9468006014718784e-08 5.2943200592931332e-08 -0.0010003341750288313 -1.9825315436601106e-08 3.5883516372632859e-08 -0.0012503779917084313 -5.0393911044252346e-08 5.4715184187648615e-09 -0.0012503773388995441 -1.9825315436601106e-08 3.5883516372632859e-08 -0.0012503779917084313 -2.0021590687678221e-08 3.5777763647033405e-08 -0.0010003343508977857 -4.9468006014718784e-08 5.2943200592931332e-08 -0.0010003341750288313 -2.4209134381638048e-08 7.1410470600940044e-08 -0.0012503782879258131 -1.9825315436601106e-08 3.5883516372632859e-08 -0.0012503779917084313 -4.9266937924386342e-08 5.3038441987564997e-08 -0.0012503779526893285 -4.9468006014718784e-08 5.2943200592931332e-08 -0.0010003341750288313 -9.6590057716323166e-08 5.5732621617623889e-08 -0.0012503775569540155 -5.0393911044252346e-08 5.4715184187648615e-09 -0.0012503773388995441 -5.0604726454497585e-08 5.2418193329721217e-09 -0.0010003339196024068 -4.9468006014718784e-08 5.2943200592931332e-08 -0.0010003341750288313 -1.9825315436601106e-08 3.5883516372632859e-08 -0.0012503779917084313 -5.0393911044252346e-08 5.4715184187648615e-09 -0.0012503773388995441 -4.9266937924386342e-08 5.3038441987564997e-08 -0.0012503779526893285 -4.9468006014718784e-08 5.2943200592931332e-08 -0.0010003341750288313 -5.0393911044252346e-08 5.4715184187648615e-09 -0.0012503773388995441 -9.6590057716323152e-08 5.5732621617623896e-08 -0.0012503775569540155 -4.9266937924386342e-08 5.3038441987564997e-08 -0.0012503779526893285 -4.9468006014718784e-08 5.2943200592931332e-08 -0.0010003341750288313 -2.0021590687678221e-08 3.5777763647033405e-08 -0.0010003343508977857 9.2334690093080828e-09 5.7042122798715258e-08 -0.0012503788313319992 -2.4312981742489164e-08 7.1359223257605178e-08 -0.0010003347448895583 -1.9825315436601106e-08 3.5883516372632859e-08 -0.0012503779917084313 9.2334690093080828e-09 5.7042122798715258e-08 -0.0012503788313319992 5.0621206508774555e-09 1.5788179405797333e-09 -0.0012503776618331777 -1.9825315436601106e-08 3.5883516372632859e-08 -0.0012503779917084313 -2.0021590687678221e-08 3.5777763647033405e-08 -0.0010003343508977857 5.0621206508774555e-09 1.5788179405797333e-09 -0.0012503776618331777 -5.0393911044252346e-08 5.4715184187648615e-09 -0.0012503773388995441 -1.9825315436601106e-08 3.5883516372632859e-08 -0.0012503779917084313 -2.0021590687678221e-08 3.5777763647033405e-08 -0.0010003343508977857 5.0621206508774555e-09 1.5788179405797333e-09 -0.0012503776618331777 9.2334690093080728e-09 5.7042122798715264e-08 -0.0012503788313319992 9.2281526237984187e-09 5.6971193966852673e-08 -0.0010003357428562424 -2.0021590687678251e-08 3.5777763647033405e-08 -0.0010003343508977857 -1.4907536275672926e-08 -5.5343728038899745e-08 -0.0012503768571416121 -5.0393911044252346e-08 5.4715184187648615e-09 -0.0012503773388995441 5.0621206508774555e-09 1.5788179405797333e-09 -0.0012503776618331777 4.8236507250497547e-09 1.3921777354033124e-09 -0.0010003340168337101 -5.0393911044252346e-08 5.4715184187648615e-09 -0.0012503773388995441 5.0621206508774555e-09 1.5788179405797333e-09 -0.0012503776618331777 4.8236507250497539e-09 1.3921777354032853e-09 -0.0010003340168337101 -2.0021590687678221e-08 3.5777763647033405e-08 -0.0010003343508977857 4.8236507250497547e-09 1.3921777354033124e-09 -0.0010003340168337101 -1.4907536275672929e-08 -5.5343728038899732e-08 -0.0012503768571416121 2.1346749307409977e-08 -3.6555241804165172e-08 -0.0010003336183874874 5.0621206508774555e-09 1.5788179405797333e-09 -0.0012503776618331777 -5.0393911044252346e-08 5.4715184187648615e-09 -0.0012503773388995441 -1.4907536275672926e-08 -5.5343728038899745e-08 -0.0012503768571416121 -1.5299712033964922e-08 -5.5533957144354606e-08 -0.0010003332340291144 4.8236507250497713e-09 1.3921777354033217e-09 -0.0010003340168337101 5.0621206508774555e-09 1.5788179405797333e-09 -0.0012503776618331777 5.3708001588802894e-08 -2.0309754788946332e-08 -0.0012503782876837383 2.1628415976381155e-08 -3.632442837858467e-08 -0.0012503775393100114 2.1346749307409977e-08 -3.6555241804165172e-08 -0.0010003336183874874 5.3708001588802894e-08 -2.0309754788946332e-08 -0.0012503782876837383 5.0621206508774555e-09 1.5788179405797333e-09 -0.0012503776618331777 4.823650725049739e-09 1.3921777354032842e-09 -0.0010003340168337101 2.1346749307409977e-08 -3.6555241804165172e-08 -0.0010003336183874874 4.8236507250497547e-09 1.3921777354033124e-09 -0.0010003340168337101 5.370800158880288e-08 -2.0309754788946305e-08 -0.0012503782876837385 5.5610822971984558e-08 3.1828832716320351e-08 -0.0010003371487856503 5.0621206508774555e-09 1.5788179405797333e-09 -0.0012503776618331777 5.3708001588802894e-08 -2.0309754788946332e-08 -0.0012503782876837383 5.0621206508774555e-09 1.5788179405797333e-09 -0.0012503776618331777 5.5695798244896687e-08 3.2013298244563352e-08 -0.0012503801404901737 5.5610822971984558e-08 3.1828832716320351e-08 -0.0010003371487856503 9.2334690093080828e-09 5.7042122798715258e-08 -0.0012503788313319992 5.5730071908320939e-08 9.659492593773197e-08 -0.0012503802285971318 5.5695798244896687e-08 3.2013298244563352e-08 -0.0012503801404901737 5.5610822971984558e-08 3.1828832716320351e-08 -0.0010003371487856503 9.2281526237983872e-09 5.6971193966852673e-08 -0.0010003357428562422 5.0621206508774555e-09 1.5788179405797333e-09 -0.0012503776618331777 5.5610822971984558e-08 3.1828832716320351e-08 -0.0010003371487856503 9.2334690093080828e-09 5.7042122798715258e-08 -0.0012503788313319992 5.0621206508774555e-09 1.5788179405797333e-09 -0.0012503776618331777 9.2334690093080828e-09 5.7042122798715258e-08 -0.0012503788313319992 5.569579824489668e-08 3.2013298244563352e-08 -0.0012503801404901735 5.5610822971984558e-08 3.1828832716320351e-08 -0.0010003371487856503 9.2281526237983872e-09 5.6971193966852673e-08 -0.0010003357428562422 4.8236507250497547e-09 1.3921777354033124e-09 -0.0010003340168337101 5.5610822971984558e-08 3.1828832716320351e-08 -0.0010003371487856503 5.0621206508774555e-09 1.5788179405797333e-09 -0.0012503776618331777 4.8236507250497547e-09 1.3921777354033124e-09 -0.0010003340168337101 5.3563347138367162e-08 -2.0503506510055713e-08 -0.0010003349216327589 5.5610822971984558e-08 3.1828832716320351e-08 -0.0010003371487856503 5.3708001588802887e-08 -2.0309754788946332e-08 -0.0012503782876837383 5.3563347138367162e-08 -2.0503506510055713e-08 -0.0010003349216327589 4.8236507250497547e-09 1.3921777354033124e-09 -0.0010003340168337101 2.1346749307409977e-08 -3.6555241804165172e-08 -0.0010003336183874874 5.3708001588802894e-08 -2.0309754788946332e-08 -0.0012503782876837383 -2.0021590687678221e-08 3.5777763647033405e-08 -0.0010003343508977857 9.2281526237983872e-09 5.6971193966852673e-08 -0.0010003357428562422 -2.4312981742489164e-08 7.1359223257605178e-08 -0.0010003347448895585 9.2334690093080828e-09 5.7042122798715258e-08 -0.0012503788313319992 4.8236507250497547e-09 1.3921777354033124e-09 -0.0010003340168337101 9.2281526237983773e-09 5.6971193966852679e-08 -0.001000335742856242 -2.0021590687678221e-08 3.5777763647033405e-08 -0.0010003343508977857 5.0621206508774555e-09 1.5788179405797333e-09 -0.0012503776618331777 4.8236507250497547e-09 1.3921777354033124e-09 -0.0010003340168337101 9.228152623798379e-09 5.6971193966852679e-08 -0.0010003357428562422 1.0865503860700988e-08 5.7032936647683384e-08 -0.00075029507568270413 -1.9293162792987515e-08 3.6136375971017564e-08 -0.00075029216184420997 4.8940057649573297e-09 1.8421228681301404e-09 -0.00075029192001347506 1.0865503860700947e-08 5.7032936647683397e-08 -0.00075029507568270403 -1.9293162792987485e-08 3.6136375971017564e-08 -0.00075029216184420986 4.8236507250497547e-09 1.3921777354033124e-09 -0.0010003340168337101 -1.9293162792987485e-08 3.6136375971017564e-08 -0.00075029216184420986 1.0865503860700955e-08 5.703293664768339e-08 -0.00075029507568270403 -2.3149312350484682e-08 7.1592022109796709e-08 -0.00075029298275383009 9.2281526237983872e-09 5.6971193966852673e-08 -0.0010003357428562422 4.8236507250497547e-09 1.3921777354033124e-09 -0.0010003340168337101 -5.0604726454497585e-08 5.2418193329721217e-09 -0.0010003339196024068 -2.0021590687678221e-08 3.5777763647033405e-08 -0.0010003343508977857 -1.9293162792987485e-08 3.6136375971017564e-08 -0.00075029216184420986 -1.9293162792987485e-08 3.6136375971017564e-08 -0.00075029216184420986 9.2281526237983872e-09 5.6971193966852673e-08 -0.0010003357428562422 -2.3149312350484682e-08 7.1592022109796709e-08 -0.00075029298275383009 -2.0021590687678221e-08 3.5777763647033405e-08 -0.0010003343508977857 9.2281526237983872e-09 5.6971193966852673e-08 -0.0010003357428562422 4.8236507250497547e-09 1.3921777354033124e-09 -0.0010003340168337101 -2.0021590687678221e-08 3.5777763647033405e-08 -0.0010003343508977857 -1.9293162792987485e-08 3.6136375971017564e-08 -0.00075029216184420986 4.8940057649573297e-09 1.8421228681301404e-09 -0.00075029192001347506 -1.5299712033964895e-08 -5.5533957144354573e-08 -0.0010003332340291144 2.0971467277597479e-08 -3.6315859659846776e-08 -0.00075029098355236859 4.8236507250497547e-09 1.3921777354033124e-09 -0.0010003340168337101 -5.0604726454497585e-08 5.2418193329721217e-09 -0.0010003339196024068 -1.5299712033964892e-08 -5.5533957144354587e-08 -0.0010003332340291146 -1.652407982858201e-08 -5.5263222251799133e-08 -0.00075029142827252361 4.8940057649573462e-09 1.84212286813015e-09 -0.00075029192001347506 -1.5299712033964892e-08 -5.5533957144354587e-08 -0.0010003332340291146 -5.0604726454497585e-08 5.2418193329721217e-09 -0.0010003339196024068 4.8236507250497547e-09 1.3921777354033124e-09 -0.0010003340168337101 4.8940057649573297e-09 1.8421228681301404e-09 -0.00075029192001347506 -5.0604726454497585e-08 5.2418193329721217e-09 -0.0010003339196024068 4.8236507250497547e-09 1.3921777354033124e-09 -0.0010003340168337101 4.894005764957328e-09 1.8421228681301134e-09 -0.00075029192001347506 -1.9293162792987485e-08 3.6136375971017564e-08 -0.00075029216184420986 5.3563347138367162e-08 -2.0503506510055713e-08 -0.0010003349216327589 4.8236507250497547e-09 1.3921777354033124e-09 -0.0010003340168337101 4.8940057649573131e-09 1.8421228681301117e-09 -0.00075029192001347517 2.0971467277597479e-08 -3.6315859659846776e-08 -0.00075029098355236859 5.3666718251463445e-08 -1.9718420579080394e-08 -0.00075029328865685045 4.8940057649573297e-09 1.8421228681301404e-09 -0.00075029192001347506 2.0971467277597479e-08 -3.6315859659846776e-08 -0.00075029098355236859 5.3563347138367162e-08 -2.0503506510055713e-08 -0.0010003349216327589 4.8236507250497547e-09 1.3921777354033124e-09 -0.0010003340168337101 5.3563347138367162e-08 -2.0503506510055713e-08 -0.0010003349216327589 2.1346749307409977e-08 -3.6555241804165172e-08 -0.0010003336183874874 2.0971467277597479e-08 -3.6315859659846776e-08 -0.00075029098355236859 4.8940057649573297e-09 1.8421228681301404e-09 -0.00075029192001347506 5.3563347138367149e-08 -2.0503506510055687e-08 -0.0010003349216327587 5.6594815555109443e-08 3.2006367488992547e-08 -0.00075029824391419162 4.8236507250497547e-09 1.3921777354033124e-09 -0.0010003340168337101 4.8940057649573297e-09 1.8421228681301404e-09 -0.00075029192001347506 5.3666718251463445e-08 -1.9718420579080394e-08 -0.00075029328865685045 5.6594815555109443e-08 3.2006367488992547e-08 -0.00075029824391419162 5.3563347138367156e-08 -2.0503506510055713e-08 -0.0010003349216327589 5.3563347138367162e-08 -2.0503506510055713e-08 -0.0010003349216327589 4.8236507250497547e-09 1.3921777354033124e-09 -0.0010003340168337101 5.5610822971984558e-08 3.1828832716320351e-08 -0.0010003371487856503 5.6594815555109443e-08 3.2006367488992547e-08 -0.00075029824391419162 9.2281526237983872e-09 5.6971193966852673e-08 -0.0010003357428562422 5.5754124104947082e-08 9.6685151420300846e-08 -0.0010003382666913334 5.5610822971984558e-08 3.1828832716320351e-08 -0.0010003371487856503 5.6594815555109443e-08 3.2006367488992547e-08 -0.00075029824391419162 1.0865503860700955e-08 5.703293664768339e-08 -0.00075029507568270403 4.8236507250497547e-09 1.3921777354033124e-09 -0.0010003340168337101 5.6594815555109443e-08 3.2006367488992547e-08 -0.00075029824391419162 9.2281526237983872e-09 5.6971193966852673e-08 -0.0010003357428562422 1.0865503860700955e-08 5.703293664768339e-08 -0.00075029507568270403 4.8940057649573297e-09 1.8421228681301404e-09 -0.00075029192001347506 5.6594815555109443e-08 3.2006367488992547e-08 -0.00075029824391419162 4.8236507250497547e-09 1.3921777354033124e-09 -0.0010003340168337101 4.8236507250497547e-09 1.3921777354033124e-09 -0.0010003340168337101 9.2281526237983872e-09 5.6971193966852673e-08 -0.0010003357428562422 5.5610822971984551e-08 3.1828832716320351e-08 -0.00100033714878565 5.6594815555109443e-08 3.2006367488992547e-08 -0.00075029824391419162 1.2957079443304358e-08 5.6986557809796989e-08 -0.0005002553719355156 4.8940057649573297e-09 1.8421228681301404e-09 -0.00075029192001347506 5.724752719908296e-08 3.4703563917878049e-08 -0.00050026517545948576 1.0865503860700955e-08 5.703293664768339e-08 -0.00075029507568270403 1.0865503860700955e-08 5.703293664768339e-08 -0.00075029507568270403 5.7204849642697826e-08 9.5791305094319046e-08 -0.00075030177996527226 5.6594815555109443e-08 3.2006367488992547e-08 -0.00075029824391419162 5.724752719908296e-08 3.4703563917878049e-08 -0.00050026517545948576 4.8940057649573297e-09 1.8421228681301404e-09 -0.00075029192001347506 1.0865503860700955e-08 5.703293664768339e-08 -0.00075029507568270403 5.6594815555109437e-08 3.2006367488992554e-08 -0.00075029824391419152 5.724752719908296e-08 3.4703563917878049e-08 -0.00050026517545948576 5.3666718251463445e-08 -1.9718420579080394e-08 -0.00075029328865685045 4.8940057649573297e-09 1.8421228681301404e-09 -0.00075029192001347506 5.2810852298274688e-09 3.394920996293244e-09 -0.00050024966825985254 2.1894127013188268e-08 -3.3947674169561606e-08 -0.00050024567292928236 4.8940057649573297e-09 1.8421228681301404e-09 -0.00075029192001347506 5.3666718251463445e-08 -1.9718420579080394e-08 -0.00075029328865685045 2.0971467277597479e-08 -3.6315859659846776e-08 -0.00075029098355236859 2.1894127013188268e-08 -3.3947674169561606e-08 -0.00050024567292928236 5.2810852298274845e-09 3.3949209962932722e-09 -0.00050024966825985254 5.3666718251463432e-08 -1.9718420579080367e-08 -0.00075029328865685056 5.724752719908296e-08 3.4703563917878049e-08 -0.00050026517545948576 4.8940057649573297e-09 1.8421228681301404e-09 -0.00075029192001347506 5.3666718251463445e-08 -1.9718420579080394e-08 -0.00075029328865685045 4.8940057649573297e-09 1.8421228681301404e-09 -0.00075029192001347506 5.6594815555109443e-08 3.2006367488992547e-08 -0.00075029824391419162 5.724752719908296e-08 3.4703563917878049e-08 -0.00050026517545948576 -5.0707614727823174e-08 5.2361287571130768e-09 -0.00075029248740899029 4.8940057649573297e-09 1.8421228681301404e-09 -0.00075029192001347506 5.2810852298274845e-09 3.3949209962932461e-09 -0.00050024966825985254 -1.9842616120045239e-08 3.6183302736703932e-08 -0.00050024803703788265 -1.6524079828581977e-08 -5.5263222251799113e-08 -0.00075029142827252372 -5.0707614727823174e-08 5.2361287571130768e-09 -0.00075029248740899029 4.8940057649573297e-09 1.8421228681301404e-09 -0.00075029192001347506 5.2810852298274845e-09 3.3949209962932722e-09 -0.00050024966825985254 -5.0707614727823174e-08 5.2361287571130768e-09 -0.00075029248740899029 -1.6524079828581977e-08 -5.5263222251799113e-08 -0.00075029142827252372 -1.7770674444979097e-08 -5.5703692189627392e-08 -0.00050025023544010897 5.2810852298275019e-09 3.3949209962932825e-09 -0.00050024966825985254 5.2810852298274845e-09 3.3949209962932722e-09 -0.00050024966825985254 -1.6524079828581981e-08 -5.5263222251799107e-08 -0.00075029142827252372 2.1894127013188268e-08 -3.3947674169561606e-08 -0.00050024567292928236 4.8940057649573297e-09 1.8421228681301404e-09 -0.00075029192001347506 -1.9842616120045239e-08 3.6183302736703932e-08 -0.00050024803703788265 1.0865503860700955e-08 5.703293664768339e-08 -0.00075029507568270403 -2.5387428524520158e-08 6.9262181772528588e-08 -0.00050025006255157995 -1.9293162792987485e-08 3.6136375971017564e-08 -0.00075029216184420986 4.8940057649573297e-09 1.8421228681301404e-09 -0.00075029192001347506 -5.0707614727823174e-08 5.2361287571130768e-09 -0.00075029248740899029 -1.9293162792987485e-08 3.6136375971017564e-08 -0.00075029216184420986 -1.9842616120045239e-08 3.6183302736703932e-08 -0.00050024803703788265 4.8940057649573297e-09 1.8421228681301404e-09 -0.00075029192001347506 1.0865503860700945e-08 5.7032936647683397e-08 -0.00075029507568270403 1.2957079443304394e-08 5.6986557809796989e-08 -0.00050025537193551571 -1.9842616120045276e-08 3.6183302736703932e-08 -0.00050024803703788276 1.0865503860700955e-08 5.703293664768339e-08 -0.00075029507568270403 4.8940057649573297e-09 1.8421228681301404e-09 -0.00075029192001347506 -1.9293162792987485e-08 3.6136375971017564e-08 -0.00075029216184420986 -1.9842616120045239e-08 3.6183302736703932e-08 -0.00050024803703788265 -5.0707614727823174e-08 5.2361287571130768e-09 -0.00075029248740899029 -9.5740061019157495e-08 5.7465164599475827e-08 -0.00075029432990317117 -4.8840244801516736e-08 5.3218742381547677e-08 -0.00075029218034464173 -5.1293301280460267e-08 5.0049584698290588e-08 -0.00050024921562088977 -2.3149312350484682e-08 7.1592022109796709e-08 -0.00075029298275383009 -1.9293162792987485e-08 3.6136375971017564e-08 -0.00075029216184420986 -4.8840244801516736e-08 5.3218742381547677e-08 -0.00075029218034464173 -5.1293301280460267e-08 5.0049584698290588e-08 -0.00050024921562088977 -9.5740061019157508e-08 5.7465164599475821e-08 -0.00075029432990317117 -5.0707614727823174e-08 5.2361287571130768e-09 -0.00075029248740899029 -5.0940742438021181e-08 3.0293919836787966e-09 -0.00050025215855928958 -5.1293301280460267e-08 5.0049584698290588e-08 -0.00050024921562088977 -5.0707614727823174e-08 5.2361287571130768e-09 -0.00075029248740899029 -1.9293162792987485e-08 3.6136375971017564e-08 -0.00075029216184420986 -1.9842616120045239e-08 3.6183302736703932e-08 -0.00050024803703788265 -5.1293301280460267e-08 5.0049584698290588e-08 -0.00050024921562088977 -1.9293162792987485e-08 3.6136375971017564e-08 -0.00075029216184420986 -5.0707614727823174e-08 5.2361287571130768e-09 -0.00075029248740899029 -4.8840244801516736e-08 5.3218742381547677e-08 -0.00075029218034464173 -5.1293301280460267e-08 5.0049584698290588e-08 -0.00050024921562088977 -1.1167141577120347e-07 1.937403769117409e-09 -0.0007502956053227212 -9.5740061019157508e-08 5.7465164599475821e-08 -0.00075029432990317117 -5.0707614727823174e-08 5.2361287571130768e-09 -0.00075029248740899029 -5.0940742438021181e-08 3.0293919836787966e-09 -0.00050025215855928958 -1.0132193106690861e-07 4.3161875770134422e-08 -0.00050025767852552314 -1.1167141577120347e-07 1.937403769117409e-09 -0.0007502956053227212 -5.0940742438021181e-08 3.0293919836787966e-09 -0.00050025215855928958 -9.5740061019157508e-08 5.7465164599475821e-08 -0.00075029432990317117 -1.1159496125669908e-07 -1.0376466345392163e-10 -0.0010003346238452702 -9.6689886262563813e-08 5.5731279039701001e-08 -0.001000334501511241 -5.0604726454497585e-08 5.2418193329721217e-09 -0.0010003339196024068 -5.0707614727823174e-08 5.2361287571130768e-09 -0.00075029248740899029 -9.5740061019157508e-08 5.7465164599475821e-08 -0.00075029432990317117 -5.0707614727823174e-08 5.2361287571130768e-09 -0.00075029248740899029 -4.8840244801516736e-08 5.3218742381547677e-08 -0.00075029218034464173 -9.6689886262563813e-08 5.5731279039701001e-08 -0.001000334501511241 -9.5740061019157508e-08 5.7465164599475821e-08 -0.00075029432990317117 -1.1167141577120347e-07 1.937403769117409e-09 -0.0007502956053227212 -5.0707614727823174e-08 5.2361287571130768e-09 -0.00075029248740899029 -1.1159496125669908e-07 -1.0376466345392163e-10 -0.0010003346238452702 -9.5740061019157508e-08 5.7465164599475821e-08 -0.00075029432990317117 -1.1159496125669908e-07 -1.0376466345392163e-10 -0.0010003346238452702 -5.0707614727823174e-08 5.2361287571130768e-09 -0.00075029248740899029 -9.6689886262563813e-08 5.5731279039701001e-08 -0.001000334501511241 -2.4312981742489164e-08 7.1359223257605178e-08 -0.0010003347448895585 -2.0021590687678221e-08 3.5777763647033405e-08 -0.0010003343508977857 -4.9468006014718784e-08 5.2943200592931332e-08 -0.0010003341750288313 -4.8840244801516736e-08 5.3218742381547677e-08 -0.00075029218034464173 -5.0604726454497585e-08 5.2418193329721217e-09 -0.0010003339196024068 -9.66898862625638e-08 5.5731279039701007e-08 -0.001000334501511241 -4.9468006014718784e-08 5.2943200592931332e-08 -0.0010003341750288313 -4.8840244801516736e-08 5.3218742381547677e-08 -0.00075029218034464173 -1.9293162792987485e-08 3.6136375971017564e-08 -0.00075029216184420986 -2.3149312350484682e-08 7.1592022109796709e-08 -0.0007502929827538302 -4.8840244801516736e-08 5.3218742381547677e-08 -0.00075029218034464173 -2.0021590687678221e-08 3.5777763647033405e-08 -0.0010003343508977857 -2.0021590687678221e-08 3.5777763647033405e-08 -0.0010003343508977857 -5.0604726454497585e-08 5.2418193329721217e-09 -0.0010003339196024068 -4.9468006014718784e-08 5.2943200592931332e-08 -0.0010003341750288313 -4.8840244801516736e-08 5.3218742381547677e-08 -0.00075029218034464173 -5.0707614727823174e-08 5.2361287571130768e-09 -0.00075029248740899029 -1.9293162792987485e-08 3.6136375971017564e-08 -0.00075029216184420986 -4.8840244801516736e-08 5.3218742381547677e-08 -0.00075029218034464173 -5.0604726454497585e-08 5.2418193329721217e-09 -0.0010003339196024068 -5.0604726454497585e-08 5.2418193329721217e-09 -0.0010003339196024068 -2.0021590687678221e-08 3.5777763647033405e-08 -0.0010003343508977857 -1.9293162792987485e-08 3.6136375971017564e-08 -0.00075029216184420986 -4.8840244801516736e-08 5.3218742381547677e-08 -0.00075029218034464173 -9.6689886262563813e-08 5.5731279039701001e-08 -0.001000334501511241 -5.0604726454497585e-08 5.2418193329721217e-09 -0.0010003339196024068 -5.0707614727823174e-08 5.2361287571130768e-09 -0.00075029248740899029 -4.8840244801516736e-08 5.3218742381547677e-08 -0.00075029218034464173 -5.0707614727823174e-08 5.2361287571130768e-09 -0.00075029248740899029 -1.6524079828581977e-08 -5.5263222251799113e-08 -0.00075029142827252372 4.8940057649573297e-09 1.8421228681301404e-09 -0.00075029192001347506 -5.0604726454497585e-08 5.2418193329721217e-09 -0.0010003339196024068 -5.0707614727823174e-08 5.2361287571130768e-09 -0.00075029248740899029 4.8940057649573297e-09 1.8421228681301404e-09 -0.00075029192001347506 -1.9293162792987485e-08 3.6136375971017564e-08 -0.00075029216184420986 -5.0604726454497585e-08 5.2418193329721217e-09 -0.0010003339196024068 -1.6524079828581977e-08 -5.5263222251799113e-08 -0.00075029142827252372 -5.0707614727823167e-08 5.2361287571130843e-09 -0.0007502924874089904 -6.6857972660591539e-08 -4.0017654949092414e-08 -0.00075029280349687847 -5.0604726454497578e-08 5.2418193329721217e-09 -0.0010003339196024068 -1.1167141577120347e-07 1.937403769117409e-09 -0.0007502956053227212 -9.6572610642718809e-08 -5.5891375809245151e-08 -0.0010003333668506459 -6.6857972660591552e-08 -4.0017654949092421e-08 -0.00075029280349687847 -1.1159496125669908e-07 -1.0376466345392163e-10 -0.0010003346238452702 -1.1159496125669908e-07 -1.0376466345392163e-10 -0.0010003346238452702 -5.0604726454497585e-08 5.2418193329721217e-09 -0.0010003339196024068 -6.6091706701625355e-08 -4.0499578676303673e-08 -0.0010003336191060899 -6.6857972660591539e-08 -4.0017654949092414e-08 -0.00075029280349687847 -5.0707614727823174e-08 5.2361287571130768e-09 -0.00075029248740899029 -1.1167141577120347e-07 1.937403769117409e-09 -0.0007502956053227212 -6.6857972660591539e-08 -4.0017654949092414e-08 -0.00075029280349687847 -1.1159496125669908e-07 -1.0376466345392163e-10 -0.0010003346238452702 -5.0707614727823174e-08 5.2361287571130768e-09 -0.00075029248740899029 -1.1159496125669908e-07 -1.0376466345391652e-10 -0.0010003346238452704 -6.6857972660591539e-08 -4.0017654949092414e-08 -0.00075029280349687847 -5.0604726454497585e-08 5.2418193329721217e-09 -0.0010003339196024068 -1.0916144251666503e-07 -1.3238102718692381e-08 -0.00050026339463872776 -9.7764005716457636e-08 -5.4075409610679541e-08 -0.00075029249193320831 -6.5687181550285402e-08 -4.3493119571988775e-08 -0.00050025491969184687 -1.1167141577120347e-07 1.937403769117409e-09 -0.0007502956053227212 -5.0940742438021181e-08 3.0293919836787966e-09 -0.00050025215855928958 -1.1167141577120347e-07 1.9374037691174144e-09 -0.0007502956053227212 -6.5687181550285389e-08 -4.3493119571988769e-08 -0.00050025491969184687 -5.0707614727823174e-08 5.2361287571130768e-09 -0.00075029248740899029 -1.1167141577120347e-07 1.937403769117409e-09 -0.0007502956053227212 -5.0707614727823174e-08 5.2361287571130768e-09 -0.00075029248740899029 -6.6857972660591539e-08 -4.0017654949092414e-08 -0.00075029280349687847 -6.5687181550285389e-08 -4.3493119571988769e-08 -0.00050025491969184687 -1.7770674444979064e-08 -5.5703692189627372e-08 -0.00050025023544010908 -5.0707614727823174e-08 5.2361287571131e-09 -0.00075029248740899029 -6.5687181550285389e-08 -4.3493119571988769e-08 -0.00050025491969184687 -1.6524079828581977e-08 -5.5263222251799113e-08 -0.00075029142827252372 -5.0707614727823174e-08 5.2361287571130768e-09 -0.00075029248740899029 -1.6524079828581977e-08 -5.5263222251799113e-08 -0.00075029142827252372 -6.6857972660591539e-08 -4.0017654949092414e-08 -0.00075029280349687847 -6.5687181550285389e-08 -4.3493119571988769e-08 -0.00050025491969184687 -5.7166336231667262e-08 -9.5803185446926754e-08 -0.00075029410285296929 -1.6524079828581977e-08 -5.526322225179912e-08 -0.00075029142827252372 -1.7770674444979064e-08 -5.5703692189627372e-08 -0.00050025023544010908 -6.5687181550285389e-08 -4.3493119571988769e-08 -0.00050025491969184687 -1.6524079828581977e-08 -5.5263222251799113e-08 -0.00075029142827252372 -5.7166336231667268e-08 -9.5803185446926754e-08 -0.00075029410285296929 -6.6857972660591539e-08 -4.0017654949092407e-08 -0.00075029280349687836 -6.5687181550285389e-08 -4.3493119571988769e-08 -0.00050025491969184687 -5.7166336231667262e-08 -9.5803185446926754e-08 -0.00075029410285296929 -9.7764005716457676e-08 -5.4075409610679581e-08 -0.0007502924919332082 -6.6857972660591539e-08 -4.0017654949092414e-08 -0.00075029280349687847 -6.5687181550285389e-08 -4.3493119571988769e-08 -0.00050025491969184687 -9.7764005716457676e-08 -5.4075409610679581e-08 -0.0007502924919332082 -1.1167141577120347e-07 1.9374037691174094e-09 -0.0007502956053227212 -6.6857972660591539e-08 -4.0017654949092414e-08 -0.00075029280349687847 -6.5687181550285389e-08 -4.3493119571988769e-08 -0.00050025491969184687 -8.7983094825961068e-08 -6.6307467335059989e-08 -0.00050025621488750149 -5.7166336231667255e-08 -9.5803185446926767e-08 -0.00075029410285296929 -6.5687181550285389e-08 -4.3493119571988769e-08 -0.00050025491969184687 -9.7764005716457676e-08 -5.4075409610679581e-08 -0.0007502924919332082 -9.7764005716457676e-08 -5.4075409610679581e-08 -0.0007502924919332082 -5.5759341530345125e-08 -9.6685672410241202e-08 -0.001000333699466051 -6.6857972660591539e-08 -4.0017654949092414e-08 -0.00075029280349687847 -9.6572610642718848e-08 -5.5891375809245171e-08 -0.0010003333668506457 -1.1167141577120347e-07 1.937403769117409e-09 -0.0007502956053227212 -9.7764005716457676e-08 -5.4075409610679581e-08 -0.0007502924919332082 -6.6857972660591539e-08 -4.0017654949092414e-08 -0.00075029280349687847 -9.6572610642718848e-08 -5.5891375809245171e-08 -0.0010003333668506457 -9.6572610642718848e-08 -5.5891375809245171e-08 -0.0010003333668506457 -1.1159496125669908e-07 -1.0376466345392088e-10 -0.0010003346238452702 -6.6091706701625355e-08 -4.0499578676303673e-08 -0.0010003336191060899 -6.6857972660591539e-08 -4.0017654949092414e-08 -0.00075029280349687847 -5.5759341530345132e-08 -9.6685672410241175e-08 -0.0010003336994660512 -9.6572610642718848e-08 -5.5891375809245171e-08 -0.0010003333668506457 -6.6091706701625355e-08 -4.0499578676303673e-08 -0.0010003336191060899 -6.6857972660591539e-08 -4.0017654949092414e-08 -0.00075029280349687847 -1.5299712033964892e-08 -5.5533957144354587e-08 -0.0010003332340291146 -5.5759341530345139e-08 -9.6685672410241175e-08 -0.0010003336994660512 -6.6091706701625355e-08 -4.0499578676303666e-08 -0.0010003336191060897 -6.6857972660591539e-08 -4.0017654949092414e-08 -0.00075029280349687847 -5.0604726454497585e-08 5.2418193329721217e-09 -0.0010003339196024068 -1.5299712033964892e-08 -5.5533957144354587e-08 -0.0010003332340291146 -6.6091706701625355e-08 -4.0499578676303673e-08 -0.0010003336191060899 -6.6857972660591539e-08 -4.0017654949092414e-08 -0.00075029280349687847 -5.5759341530345132e-08 -9.6685672410241175e-08 -0.0010003336994660512 -1.5299712033964892e-08 -5.5533957144354593e-08 -0.0010003332340291148 -1.6524079828581977e-08 -5.5263222251799113e-08 -0.00075029142827252372 -6.6857972660591539e-08 -4.0017654949092414e-08 -0.00075029280349687847 -1.6524079828581977e-08 -5.5263222251799113e-08 -0.00075029142827252372 -5.0604726454497585e-08 5.2418193329721432e-09 -0.0010003339196024068 -6.6857972660591539e-08 -4.0017654949092414e-08 -0.00075029280349687847 -1.5299712033964892e-08 -5.5533957144354587e-08 -0.0010003332340291146 -5.7166336231667262e-08 -9.5803185446926754e-08 -0.00075029410285296929 -1.6524079828581977e-08 -5.5263222251799113e-08 -0.00075029142827252372 -6.6857972660591539e-08 -4.0017654949092414e-08 -0.00075029280349687847 -5.5759341530345132e-08 -9.6685672410241175e-08 -0.0010003336994660512 -9.7764005716457676e-08 -5.4075409610679581e-08 -0.0007502924919332082 -5.7166336231667262e-08 -9.5803185446926754e-08 -0.00075029410285296929 -6.6857972660591539e-08 -4.0017654949092414e-08 -0.00075029280349687847 -5.5759341530345132e-08 -9.6685672410241175e-08 -0.0010003336994660512 -5.7166336231667262e-08 -9.5803185446926754e-08 -0.00075029410285296929 8.7915893735445345e-11 -1.1159957696967374e-07 -0.0010003327595192128 -1.6524079828581977e-08 -5.5263222251799113e-08 -0.00075029142827252372 -5.5759341530345132e-08 -9.6685672410241175e-08 -0.0010003336994660512 -4.4956565020267745e-08 -1.0091432974825901e-07 -0.00050026097659897452 -1.9360357159294035e-09 -1.1164543170585769e-07 -0.00075029093582458831 -1.7770674444979064e-08 -5.5703692189627372e-08 -0.00050025023544010908 -5.7166336231667262e-08 -9.5803185446926754e-08 -0.00075029410285296929 -1.7770674444979064e-08 -5.5703692189627372e-08 -0.00050025023544010908 -1.9360357159294242e-09 -1.1164543170585772e-07 -0.00075029093582458831 2.1580871205805668e-08 -7.3846275974637339e-08 -0.0005002465547416429 -1.6524079828581977e-08 -5.5263222251799113e-08 -0.00075029142827252372 -1.936035715929413e-09 -1.1164543170585769e-07 -0.00075029093582458821 -5.7166336231667262e-08 -9.5803185446926741e-08 -0.00075029410285296929 -1.6524079828581977e-08 -5.5263222251799113e-08 -0.00075029142827252372 -1.777067444497906e-08 -5.5703692189627372e-08 -0.00050025023544010897 -1.936035715929413e-09 -1.1164543170585769e-07 -0.00075029093582458821 -1.6524079828581977e-08 -5.5263222251799113e-08 -0.00075029142827252372 1.943231220346929e-08 -7.5936896817676817e-08 -0.00075029061674943269 2.1580871205805665e-08 -7.3846275974637352e-08 -0.0005002465547416429 2.1894127013188268e-08 -3.3947674169561606e-08 -0.00050024567292928236 -1.6524079828581954e-08 -5.5263222251799107e-08 -0.00075029142827252372 2.1580871205805668e-08 -7.3846275974637352e-08 -0.0005002465547416429 1.943231220346929e-08 -7.5936896817676817e-08 -0.00075029061674943269 -1.6524079828581977e-08 -5.5263222251799113e-08 -0.00075029142827252372 4.8940057649573297e-09 1.8421228681301404e-09 -0.00075029192001347506 2.0971467277597479e-08 -3.6315859659846776e-08 -0.00075029098355236859 2.1894127013188268e-08 -3.3947674169561606e-08 -0.00050024567292928236 -1.6524079828581977e-08 -5.5263222251799113e-08 -0.00075029142827252372 2.0971467277597479e-08 -3.6315859659846776e-08 -0.00075029098355236859 1.943231220346929e-08 -7.5936896817676817e-08 -0.00075029061674943269 2.1894127013188268e-08 -3.3947674169561606e-08 -0.00050024567292928236 2.0971467277597479e-08 -3.6315859659846776e-08 -0.00075029098355236859 5.3666718251463452e-08 -1.9718420579080397e-08 -0.00075029328865685045 4.9140781236469526e-08 -5.6869697914480393e-08 -0.00075029118030118754 5.1807258871773415e-08 -5.3008049376357186e-08 -0.00050024689752642653 5.3666718251463445e-08 -1.9718420579080394e-08 -0.00075029328865685045 2.0971467277597482e-08 -3.6315859659846776e-08 -0.00075029098355236848 2.1894127013188268e-08 -3.3947674169561606e-08 -0.00050024567292928236 5.1807258871773415e-08 -5.3008049376357186e-08 -0.00050024689752642653 1.943231220346929e-08 -7.5936896817676817e-08 -0.00075029061674943269 2.0971467277597479e-08 -3.6315859659846776e-08 -0.00075029098355236859 4.9140781236469526e-08 -5.6869697914480393e-08 -0.00075029118030118754 5.1807258871773415e-08 -5.3008049376357186e-08 -0.00050024689752642653 2.1894127013188268e-08 -3.3947674169561606e-08 -0.00050024567292928236 1.943231220346929e-08 -7.5936896817676817e-08 -0.00075029061674943269 5.1807258871773415e-08 -5.3008049376357186e-08 -0.00050024689752642653 2.0971467277597479e-08 -3.6315859659846776e-08 -0.00075029098355236859 1.3425891901158788e-08 -1.0927714585556064e-07 -0.00050025136626898916 5.4068082169524795e-08 -9.7708429033403576e-08 -0.00075029061775707339 2.1580871205805665e-08 -7.3846275974637352e-08 -0.0005002465547416429 -1.936035715929413e-09 -1.1164543170585769e-07 -0.00075029093582458821 5.4068082169524781e-08 -9.7708429033403576e-08 -0.00075029061775707328 -1.9360357159294159e-09 -1.1164543170585769e-07 -0.00075029093582458821 1.943231220346929e-08 -7.5936896817676817e-08 -0.00075029061674943269 2.1580871205805665e-08 -7.3846275974637352e-08 -0.0005002465547416429 5.4068082169524781e-08 -9.7708429033403576e-08 -0.00075029061775707328 1.943231220346929e-08 -7.5936896817676817e-08 -0.00075029061674943269 4.9140781236469526e-08 -5.6869697914480393e-08 -0.00075029118030118754 5.1807258871773415e-08 -5.3008049376357186e-08 -0.00050024689752642653 2.1580871205805665e-08 -7.3846275974637352e-08 -0.0005002465547416429 5.4068082169524781e-08 -9.7708429033403576e-08 -0.00075029061775707328 5.1807258871773415e-08 -5.3008049376357186e-08 -0.00050024689752642653 1.943231220346929e-08 -7.5936896817676817e-08 -0.00075029061674943269 5.5897159782873949e-08 -9.6588377062450583e-08 -0.0010003331373500933 8.791589373542937e-11 -1.1159957696967374e-07 -0.0010003327595192125 2.0276169988945128e-08 -7.6029200003862162e-08 -0.0010003330585678944 1.943231220346929e-08 -7.5936896817676817e-08 -0.00075029061674943269 1.943231220346929e-08 -7.5936896817676817e-08 -0.00075029061674943269 5.4068082169524775e-08 -9.770842903340359e-08 -0.00075029061775707328 4.9140781236469526e-08 -5.6869697914480393e-08 -0.00075029118030118754 5.5897159782873949e-08 -9.6588377062450583e-08 -0.0010003331373500933 1.943231220346929e-08 -7.5936896817676817e-08 -0.00075029061674943269 5.5897159782873949e-08 -9.6588377062450583e-08 -0.0010003331373500933 4.9140781236469526e-08 -5.6869697914480393e-08 -0.00075029118030118765 2.0276169988945128e-08 -7.6029200003862162e-08 -0.0010003330585678944 5.5897159782873949e-08 -9.6588377062450583e-08 -0.0010003331373500933 2.0276169988945128e-08 -7.6029200003862162e-08 -0.0010003330585678944 4.9532905518041814e-08 -5.7040184976932768e-08 -0.001000333698025997 4.9140781236469526e-08 -5.6869697914480393e-08 -0.00075029118030118754 -1.936035715929413e-09 -1.1164543170585769e-07 -0.00075029093582458821 5.4068082169524788e-08 -9.7708429033403576e-08 -0.00075029061775707328 1.943231220346929e-08 -7.5936896817676817e-08 -0.00075029061674943269 5.5897159782873949e-08 -9.6588377062450583e-08 -0.0010003331373500933 -1.936035715929413e-09 -1.1164543170585769e-07 -0.00075029093582458821 5.5897159782873962e-08 -9.6588377062450583e-08 -0.0010003331373500933 1.943231220346929e-08 -7.5936896817676817e-08 -0.00075029061674943269 8.7915893735432627e-11 -1.1159957696967374e-07 -0.0010003327595192128 2.0971467277597479e-08 -3.6315859659846776e-08 -0.00075029098355236859 2.0276169988945128e-08 -7.6029200003862162e-08 -0.0010003330585678944 4.9140781236469526e-08 -5.6869697914480393e-08 -0.00075029118030118754 2.1346749307409977e-08 -3.6555241804165172e-08 -0.0010003336183874874 5.3563347138367162e-08 -2.0503506510055713e-08 -0.0010003349216327589 2.134674930740998e-08 -3.6555241804165172e-08 -0.0010003336183874877 2.0971467277597479e-08 -3.6315859659846776e-08 -0.00075029098355236859 4.9140781236469526e-08 -5.6869697914480393e-08 -0.00075029118030118754 5.3666718251463445e-08 -1.9718420579080394e-08 -0.00075029328865685045 2.0971467277597479e-08 -3.6315859659846783e-08 -0.00075029098355236859 4.9140781236469526e-08 -5.6869697914480393e-08 -0.00075029118030118754 5.3563347138367162e-08 -2.0503506510055713e-08 -0.0010003349216327589 2.1346749307409977e-08 -3.6555241804165172e-08 -0.0010003336183874874 5.3563347138367169e-08 -2.0503506510055716e-08 -0.0010003349216327589 4.9532905518041814e-08 -5.7040184976932768e-08 -0.001000333698025997 4.9140781236469526e-08 -5.6869697914480393e-08 -0.00075029118030118754 2.0276169988945128e-08 -7.6029200003862162e-08 -0.0010003330585678944 2.1346749307409977e-08 -3.6555241804165172e-08 -0.0010003336183874874 4.9532905518041814e-08 -5.7040184976932768e-08 -0.001000333698025997 4.9140781236469526e-08 -5.6869697914480393e-08 -0.00075029118030118754 2.0971467277597479e-08 -3.6315859659846776e-08 -0.00075029098355236859 1.943231220346929e-08 -7.5936896817676817e-08 -0.00075029061674943269 4.9140781236469526e-08 -5.6869697914480393e-08 -0.00075029118030118754 2.0276169988945128e-08 -7.6029200003862162e-08 -0.0010003330585678944 -1.5299712033964892e-08 -5.5533957144354587e-08 -0.0010003332340291146 4.8236507250497547e-09 1.3921777354033124e-09 -0.0010003340168337101 2.1346749307409977e-08 -3.6555241804165172e-08 -0.0010003336183874874 2.0971467277597479e-08 -3.6315859659846776e-08 -0.00075029098355236859 4.8940057649573297e-09 1.8421228681301404e-09 -0.00075029192001347506 -1.6524079828581977e-08 -5.5263222251799113e-08 -0.00075029142827252372 2.0971467277597479e-08 -3.6315859659846776e-08 -0.00075029098355236859 -1.5299712033964892e-08 -5.5533957144354587e-08 -0.0010003332340291146 -1.5299712033964892e-08 -5.5533957144354587e-08 -0.0010003332340291146 2.1346749307409977e-08 -3.6555241804165172e-08 -0.0010003336183874874 2.0276169988945128e-08 -7.6029200003862162e-08 -0.0010003330585678944 2.0971467277597479e-08 -3.6315859659846776e-08 -0.00075029098355236859 2.0971467277597479e-08 -3.6315859659846776e-08 -0.00075029098355236859 -1.6524079828581977e-08 -5.5263222251799113e-08 -0.00075029142827252372 1.943231220346929e-08 -7.5936896817676817e-08 -0.00075029061674943269 -1.5299712033964892e-08 -5.5533957144354587e-08 -0.0010003332340291146 2.0971467277597479e-08 -3.6315859659846776e-08 -0.00075029098355236859 -1.5299712033964865e-08 -5.553395714435458e-08 -0.0010003332340291148 1.9432312203469293e-08 -7.5936896817676817e-08 -0.00075029061674943259 2.0276169988945128e-08 -7.6029200003862162e-08 -0.0010003330585678944 8.7915893735432627e-11 -1.1159957696967374e-07 -0.0010003327595192128 -1.5299712033964892e-08 -5.5533957144354587e-08 -0.0010003332340291146 2.0276169988945128e-08 -7.6029200003862162e-08 -0.0010003330585678944 1.943231220346929e-08 -7.5936896817676817e-08 -0.00075029061674943269 -1.6524079828581977e-08 -5.5263222251799113e-08 -0.00075029142827252372 -1.936035715929413e-09 -1.1164543170585769e-07 -0.00075029093582458821 1.943231220346929e-08 -7.5936896817676817e-08 -0.00075029061674943269 8.791589373543317e-11 -1.1159957696967374e-07 -0.0010003327595192128 -1.6524079828581977e-08 -5.5263222251799113e-08 -0.00075029142827252372 8.7915893735423735e-11 -1.1159957696967377e-07 -0.0010003327595192128 1.943231220346929e-08 -7.5936896817676804e-08 -0.00075029061674943269 -1.5299712033964892e-08 -5.5533957144354587e-08 -0.0010003332340291146 -5.7166336231667262e-08 -9.5803185446926754e-08 -0.00075029410285296929 -1.9360357159294097e-09 -1.1164543170585768e-07 -0.00075029093582458821 -1.6524079828581977e-08 -5.5263222251799113e-08 -0.00075029142827252372 8.791589373543317e-11 -1.1159957696967374e-07 -0.0010003327595192128 8.7915893735432627e-11 -1.1159957696967374e-07 -0.0010003327595192128 -5.5759341530345132e-08 -9.6685672410241162e-08 -0.0010003336994660512 -1.5299712033964892e-08 -5.5533957144354587e-08 -0.0010003332340291146 -1.6524079828581974e-08 -5.5263222251799113e-08 -0.00075029142827252372 -1.5299712033964892e-08 -5.5533957144354587e-08 -0.0010003332340291146 8.7915893735432627e-11 -1.1159957696967374e-07 -0.0010003327595192128 2.0276169988945128e-08 -7.6029200003862162e-08 -0.0010003330585678944 4.6867545337652477e-11 -1.1151488935169726e-07 -0.0012503762455711573 -5.5759341530345132e-08 -9.6685672410241175e-08 -0.0010003336994660512 8.7915893735435496e-11 -1.1159957696967373e-07 -0.0010003327595192128 -1.5299712033964892e-08 -5.5533957144354587e-08 -0.0010003332340291146 4.6867545337652477e-11 -1.1151488935169726e-07 -0.0012503762455711573 2.1346749307409977e-08 -3.6555241804165172e-08 -0.0010003336183874874 -1.5299712033964892e-08 -5.5533957144354587e-08 -0.0010003332340291146 2.0276169988945128e-08 -7.6029200003862162e-08 -0.0010003330585678944 -1.4907536275672926e-08 -5.5343728038899745e-08 -0.0012503768571416121 4.8236507250497547e-09 1.3921777354033124e-09 -0.0010003340168337101 -1.5299712033964892e-08 -5.5533957144354587e-08 -0.0010003332340291146 2.1346749307409977e-08 -3.6555241804165172e-08 -0.0010003336183874874 -1.4907536275672926e-08 -5.5343728038899745e-08 -0.0012503768571416121 5.3563347138367162e-08 -2.0503506510055713e-08 -0.0010003349216327589 2.1346749307409977e-08 -3.6555241804165178e-08 -0.0010003336183874874 4.9532905518041814e-08 -5.7040184976932768e-08 -0.001000333698025997 5.3708001588802894e-08 -2.0309754788946332e-08 -0.0012503782876837383 2.1346749307409977e-08 -3.6555241804165172e-08 -0.0010003336183874874 2.0276169988945128e-08 -7.6029200003862162e-08 -0.0010003330585678944 4.9532905518041814e-08 -5.7040184976932768e-08 -0.001000333698025997 2.0546122901955589e-08 -7.5801344913333719e-08 -0.0012503768942871364 2.0276169988945128e-08 -7.6029200003862162e-08 -0.0010003330585678944 5.5897159782873942e-08 -9.6588377062450596e-08 -0.0010003331373500933 4.9532905518041814e-08 -5.7040184976932768e-08 -0.001000333698025997 5.580288792829582e-08 -9.6552821074412841e-08 -0.0012503768558452268 8.7915893735432627e-11 -1.1159957696967374e-07 -0.0010003327595192128 5.5897159782873955e-08 -9.6588377062450583e-08 -0.0010003331373500933 2.0276169988945128e-08 -7.6029200003862162e-08 -0.0010003330585678944 5.580288792829582e-08 -9.6552821074412841e-08 -0.0012503768558452268 5.580288792829582e-08 -9.6552821074412841e-08 -0.0012503768558452268 2.0546122901955589e-08 -7.5801344913333719e-08 -0.0012503768942871364 4.9712165234667558e-08 -5.6798163017958309e-08 -0.001250377640453426 4.9532905518041814e-08 -5.7040184976932768e-08 -0.001000333698025997 2.0276169988945128e-08 -7.6029200003862162e-08 -0.0010003330585678944 5.580288792829582e-08 -9.6552821074412841e-08 -0.0012503768558452268 4.9532905518041814e-08 -5.7040184976932768e-08 -0.001000333698025997 2.0546122901955589e-08 -7.5801344913333719e-08 -0.0012503768942871364 5.580288792829582e-08 -9.6552821074412841e-08 -0.0012503768558452268 4.6867545337649329e-11 -1.1151488935169726e-07 -0.0012503762455711573 2.0546122901955589e-08 -7.5801344913333719e-08 -0.0012503768942871364 2.0276169988945128e-08 -7.6029200003862162e-08 -0.0010003330585678944 8.7915893735432627e-11 -1.1159957696967374e-07 -0.0010003327595192128 5.5802887928295833e-08 -9.6552821074412841e-08 -0.0012503768558452268 2.0276169988945128e-08 -7.6029200003862162e-08 -0.0010003330585678944 4.686754533765249e-11 -1.1151488935169726e-07 -0.0012503762455711573 2.0546122901955589e-08 -7.5801344913333719e-08 -0.0012503768942871364 2.1628415976381155e-08 -3.632442837858467e-08 -0.0012503775393100114 4.9712165234667558e-08 -5.6798163017958309e-08 -0.001250377640453426 4.9532905518041814e-08 -5.7040184976932768e-08 -0.001000333698025997 2.1346749307409977e-08 -3.6555241804165172e-08 -0.0010003336183874874 2.0546122901955589e-08 -7.5801344913333719e-08 -0.0012503768942871364 4.9532905518041814e-08 -5.7040184976932768e-08 -0.001000333698025997 2.1628415976381155e-08 -3.632442837858467e-08 -0.0012503775393100114 2.1628415976381155e-08 -3.632442837858467e-08 -0.0012503775393100114 5.37080015888029e-08 -2.0309754788946335e-08 -0.0012503782876837383 4.9712165234667558e-08 -5.6798163017958309e-08 -0.001250377640453426 4.9532905518041814e-08 -5.7040184976932768e-08 -0.001000333698025997 5.3708001588802894e-08 -2.0309754788946332e-08 -0.0012503782876837383 2.1628415976381158e-08 -3.632442837858467e-08 -0.0012503775393100114 2.1346749307409977e-08 -3.6555241804165172e-08 -0.0010003336183874874 4.9532905518041814e-08 -5.7040184976932768e-08 -0.001000333698025997 2.1346749307409977e-08 -3.6555241804165172e-08 -0.0010003336183874874 -1.4907536275672902e-08 -5.5343728038899738e-08 -0.0012503768571416121 2.0276169988945132e-08 -7.6029200003862162e-08 -0.0010003330585678944 2.0546122901955589e-08 -7.5801344913333719e-08 -0.0012503768942871364 -1.4907536275672926e-08 -5.5343728038899745e-08 -0.0012503768571416121 2.1628415976381155e-08 -3.632442837858467e-08 -0.0012503775393100114 2.0546122901955589e-08 -7.5801344913333719e-08 -0.0012503768942871364 2.1346749307409977e-08 -3.6555241804165172e-08 -0.0010003336183874874 -1.4907536275672926e-08 -5.5343728038899745e-08 -0.0012503768571416121 5.0621206508774555e-09 1.5788179405797333e-09 -0.0012503776618331777 2.1628415976381155e-08 -3.632442837858467e-08 -0.0012503775393100114 2.1346749307409977e-08 -3.6555241804165172e-08 -0.0010003336183874874 4.686754533765249e-11 -1.1151488935169726e-07 -0.0012503762455711573 -5.5720948296947454e-08 -9.6597652438225688e-08 -0.0012503766318639334 -1.4907536275672926e-08 -5.5343728038899745e-08 -0.0012503768571416121 -1.5299712033964888e-08 -5.5533957144354587e-08 -0.0010003332340291146 -1.5299712033964892e-08 -5.5533957144354587e-08 -0.0010003332340291146 4.6867545337643565e-11 -1.1151488935169729e-07 -0.0012503762455711575 2.0276169988945128e-08 -7.6029200003862149e-08 -0.0010003330585678944 -1.4907536275672926e-08 -5.5343728038899745e-08 -0.0012503768571416121 4.686754533765249e-11 -1.1151488935169726e-07 -0.0012503762455711573 -1.4907536275672926e-08 -5.5343728038899745e-08 -0.0012503768571416121 2.0546122901955589e-08 -7.5801344913333719e-08 -0.0012503768942871364 2.0276169988945128e-08 -7.6029200003862162e-08 -0.0010003330585678944 -5.5759341530345132e-08 -9.6685672410241175e-08 -0.0010003336994660512 4.6867545337664884e-11 -1.1151488935169726e-07 -0.0012503762455711573 -1.5299712033964892e-08 -5.5533957144354587e-08 -0.0010003332340291146 -5.5720948296947454e-08 -9.6597652438225701e-08 -0.0012503766318639334 -5.5759341530345132e-08 -9.6685672410241175e-08 -0.0010003336994660512 -1.5299712033964892e-08 -5.5533957144354587e-08 -0.0010003332340291146 -6.6091706701625355e-08 -4.0499578676303673e-08 -0.0010003336191060899 -5.5720948296947454e-08 -9.6597652438225701e-08 -0.0012503766318639334 -9.6572610642718848e-08 -5.5891375809245171e-08 -0.0010003333668506457 -5.5759341530345132e-08 -9.6685672410241175e-08 -0.0010003336994660512 -6.6091706701625355e-08 -4.0499578676303673e-08 -0.0010003336191060899 -5.5720948296947454e-08 -9.6597652438225701e-08 -0.0012503766318639334 -5.5720948296947454e-08 -9.6597652438225701e-08 -0.0012503766318639334 -1.4907536275672926e-08 -5.5343728038899752e-08 -0.0012503768571416123 -1.5299712033964892e-08 -5.5533957144354587e-08 -0.0010003332340291146 -6.6091706701625355e-08 -4.0499578676303673e-08 -0.0010003336191060899 -1.4907536275672926e-08 -5.5343728038899745e-08 -0.0012503768571416121 -5.572094829694746e-08 -9.6597652438225701e-08 -0.0012503766318639334 -6.586439913801415e-08 -4.0337756034917321e-08 -0.0012503772925678265 -6.6091706701625355e-08 -4.0499578676303673e-08 -0.0010003336191060899 -1.5299712033964892e-08 -5.5533957144354587e-08 -0.0010003332340291146 -5.0393911044252346e-08 5.471518418764883e-09 -0.0012503773388995441 -6.6091706701625355e-08 -4.0499578676303673e-08 -0.0010003336191060899 -1.4907536275672926e-08 -5.5343728038899745e-08 -0.0012503768571416121 -5.0393911044252346e-08 5.4715184187648615e-09 -0.0012503773388995441 -1.4907536275672926e-08 -5.5343728038899745e-08 -0.0012503768571416121 -6.586439913801415e-08 -4.0337756034917327e-08 -0.0012503772925678267 -6.6091706701625355e-08 -4.0499578676303673e-08 -0.0010003336191060899 -9.6567897216192618e-08 -5.5785632608375534e-08 -0.0012503766934011979 -1.1151548460793071e-07 -1.8583785453371063e-11 -0.0012503773339889229 -6.586439913801415e-08 -4.0337756034917327e-08 -0.0012503772925678267 -6.6091706701625355e-08 -4.0499578676303673e-08 -0.0010003336191060899 -5.5720948296947454e-08 -9.6597652438225701e-08 -0.0012503766318639334 -9.6567897216192618e-08 -5.5785632608375534e-08 -0.0012503766934011979 -6.586439913801415e-08 -4.0337756034917327e-08 -0.0012503772925678267 -6.6091706701625355e-08 -4.0499578676303673e-08 -0.0010003336191060899 -9.6572610642718848e-08 -5.5891375809245171e-08 -0.0010003333668506457 -5.5720948296947447e-08 -9.6597652438225728e-08 -0.0012503766318639332 -6.6091706701625355e-08 -4.0499578676303673e-08 -0.0010003336191060899 -9.6567897216192618e-08 -5.5785632608375534e-08 -0.0012503766934011979 -1.1159496125669908e-07 -1.0376466345392163e-10 -0.0010003346238452702 -9.6572610642718848e-08 -5.5891375809245171e-08 -0.0010003333668506457 -6.6091706701625355e-08 -4.0499578676303673e-08 -0.0010003336191060899 -9.6567897216192618e-08 -5.5785632608375534e-08 -0.0012503766934011979 
</DataArray>
</PointData>
<CellData Scalars="" Vectors="" Tensors="stress,">
<DataArray type="Float64" Name="stress" NumberOfComponents="9" format="ascii">
-3329.1841286567819 -0.15912226621505593 -1.2965723358483956 -0.15912226621505593 -3329.713248001568 -0.79621092141042027 -1.2965723358483956 -0.79621092141042027 -9999.2252911636642 -3329.3186562068922 -0.077294856738560624 -1.5422783656349566 -0.077294856738560624 -3329.8902161876244 -0.2986878763867935 -1.5422783656349566 -0.2986878763867935 -9999.3031650977064 -3327.5865983328977 1.5864962409787529 -2.7502032806662555 1.5864962409787529 -3327.1704991731135 -1.1683939561357874 -2.7502032806662555 -1.1683939561357874 -10000.94445825637 -3328.0561924408044 1.6882750939491613 -2.1791208663783559 1.6882750939491613 -3330.495502284286 -2.324762246993441 -2.1791208663783559 -2.324762246993441 -10001.89310756114 -3334.1153263040424 -0.35681576281401622 -1.0816230570985681 -0.35681576281401622 -3330.6262611351431 -1.184273669002323 -1.0816230570985681 -1.184273669002323 -9999.3078039468564 -3332.7751511524984 1.4997020908921312 -0.71998919506449566 1.4997020908921312 -3331.3247598341154 0.032165509827516203 -0.71998919506449566 0.032165509827516203 -9999.1473848337118 -3330.412614136595 0.047851905286466767 -1.1551318333467862 0.047851905286466767 -3330.521050372467 -0.36309469405887285 -1.1551318333467862 -0.36309469405887285 -9999.7343631263429 -3330.1303979592594 0.22847886920186289 -1.1128508955557663 0.22847886920186289 -3329.9874520725475 -0.22087297577809295 -1.1128508955557663 -0.22087297577809295 -9999.5304095070278 -3329.712610981313 -0.4851784503357377 -0.60067593098619909 -0.4851784503357377 -3328.1235765992856 -0.51467062089113824 -0.60067593098619909 -0.51467062089113824 -9997.90364071763 -3333.107033328281 0.9618450082723804 -1.2826473950301764 0.9618450082723804 -3330.5172480849596 0.16730084376292487 -1.2826473950301764 0.16730084376292487 -9999.3506641757904 -3326.9395229468441 2.0303069626298074 -3.5401514443268516 2.0303069626298074 -3328.121404230807 -0.24177278440075689 -3.5401514443268516 -0.24177278440075689 -9997.209825616892 -3331.2451692698241 0.19321787156998788 0.0058357294276284444 0.19321787156998788 -3330.0472405163246 -1.3278081424659476 0.0058357294276284444 -1.3278081424659476 -9999.6959924155526 -3332.9475158850701 0.69273444729887612 2.3646101749372539 0.69273444729887612 -3330.1377113999833 -0.69577643003729628 2.3646101749372539 -0.69577643003729628 -10000.144196790277 -3331.5776555858383 1.1948370091582157 3.0337305823363749 1.1948370091582157 -3328.7277724748706 0.17804431741296867 3.0337305823363749 0.17804431741296867 -9998.198764102237 -3332.6493093730346 -0.48945914252645784 3.4766540484605795 -0.48945914252645784 -3332.9379197333551 -1.7514050512854156 3.4766540484605795 -1.7514050512854156 -9999.5192143636577 -3333.586086276448 0.035269013233278051 2.7400946448852039 0.035269013233278051 -3334.9113572675715 -0.33054804681692618 2.7400946448852039 -0.33054804681692618 -10000.246767973063 -3332.0841201975882 -0.94350018455442353 0.79444185078864393 -0.94350018455442353 -3335.2248662994079 -0.7882338700113678 0.79444185078864393 -0.7882338700113678 -10003.218183657409 -3333.6824044279165 1.9423606407360452 -0.49835012078276697 1.9423606407360452 -3334.883345395172 -0.12168544281682125 -0.49835012078276697 -0.12168544281682125 -10004.206004420837 -3335.4711457834428 0.55484442756451935 -1.1829931402654204 0.55484442756451935 -3334.816567776903 -2.1335347826996212 -1.1829931402654204 -2.1335347826996212 -10001.664935992578 -3334.7842891059836 1.7138406700594799 -0.6404531514745031 1.7138406700594799 -3332.3762594610844 -0.31854791940349969 -0.6404531514745031 -0.31854791940349969 -10003.854704106829 -3336.3547874623805 0.47299280703780622 -0.40595950065227093 0.47299280703780622 -3336.7314633714823 -0.76123830679628979 -0.40595950065227093 -0.76123830679628979 -10004.662499741627 -3332.0271649098622 -1.7927645564480692 -0.6788346567286565 -1.7927645564480692 -3330.4393536014018 -0.39872452467350561 -0.6788346567286565 -0.39872452467350561 -10001.079775875032 -3327.3017363271242 -1.7845155721599046 -1.2303371716379843 -1.7845155721599046 -3325.8469885033787 1.3797673879562353 -1.2303371716379843 1.3797673879562353 -9997.6600711766405 -3330.5960622212369 -0.96651703527969746 0.019024254843629462 -0.96651703527969746 -3327.6999060411008 0.8100025773005286 0.019024254843629462 0.8100025773005286 -10000.0371383128 -3332.9883487734569 -1.4611709326768494 -0.18085309298385255 -1.4611709326768494 -3331.5691854498791 -1.1080535471583062 -0.18085309298385255 -1.1080535471583062 -10002.530320588996 -3330.2518532518911 0.11874550262776784 0.010472392939846031 0.11874550262776784 -3329.451805922648 -0.77666808184403635 0.010472392939846031 -0.77666808184403635 -10001.316851826796 -3330.4069864430739 0.048878399860289301 0.43995603609573664 0.048878399860289301 -3329.4625720851313 -0.91874683855348849 0.43995603609573664 -0.91874683855348849 -10001.443626217449 -3330.5525726449951 0.21853162952236715 0.29516959752845651 0.21853162952236715 -3330.3475894643543 -1.2221951781693861 0.29516959752845651 -1.2221951781693861 -10001.701277112736 -3330.5498176795777 0.18360175533839085 0.47511242818382016 0.18360175533839085 -3330.7178949782806 -0.97291132324485829 0.47511242818382016 -0.97291132324485829 -10001.793164749863 -3330.575131232772 0.0832831671922456 0.62451783184997112 0.0832831671922456 -3330.8772982322271 -0.34699557493604516 0.62451783184997112 -0.34699557493604516 -10002.427674331313 -3330.5482348178557 0.058641903774390158 0.73632057315717248 0.058641903774390158 -3331.0255294902067 -0.56266821089002406 0.73632057315717248 -0.56266821089002406 -10002.458008042078 -3329.8517750434089 0.34534488882502101 0.60345761999178649 0.34534488882502101 -3329.8442875724018 -1.1190282622601444 0.60345761999178649 -1.1190282622601444 -10001.314952687113 -3329.4345489252414 0.076427007414550996 -0.041785852262364642 0.076427007414550996 -3328.9722617292286 -0.64603783358052169 -0.041785852262364642 -0.64603783358052169 -9997.7241097506758 -3329.1513730353759 0.34534488882502057 1.4780314456902488 0.34534488882502057 -3329.1438855643687 0.46305562499310327 1.4780314456902488 0.46305562499310327 -9999.2137466630138 -3330.7240677805021 -0.23189334802943984 0.47810974795902439 -0.23189334802943984 -3330.6541973291314 0.18815493344891365 0.47810974795902439 0.18815493344891365 -10000.581807019926 -3331.0268753431001 -0.71683384540554662 0.8757017257012194 -0.71683384540554662 -3330.9416056338323 0.10885725127081969 0.8757017257012194 0.10885725127081969 -10000.221439198473 -3330.4200270160636 -0.16480677952440187 0.46939192899435511 -0.16480677952440187 -3330.3748892527874 -1.3131430023349822e-05 0.46939192899435511 -1.3131430023349822e-05 -9999.9280480214493 -3330.0415588956503 0.076427007414551551 1.3301117619480465 0.076427007414551551 -3329.5792716996375 0.42342066489982244 1.3301117619480465 0.42342066489982244 -9999.545139661901 -3329.6141356135254 0.058641903774390602 0.94559738341558841 0.058641903774390602 -3330.0914302858764 -0.17940058289786975 0.94559738341558841 -0.17940058289786975 -9999.6557104290896 -3329.5311720810987 0.45682530708253832 0.51151148715325689 0.45682530708253832 -3330.06457073204 0.2460084429810081 0.51151148715325689 0.2460084429810081 -10000.1361764458 -3330.3611669156198 0.097805616345401969 0.25759958088565327 0.097805616345401969 -3330.4565772496499 0.080976618559361668 0.25759958088565327 0.080976618559361668 -10000.576583965365 -3329.6410320284413 0.083283167192245378 0.83379464210702281 0.083283167192245378 -3329.9431990278963 0.036272053056563891 0.83379464210702281 0.036272053056563891 -9999.6253767183225 -3330.2886658541256 0.050641551167192045 0.22969473590273992 0.050641551167192045 -3330.4440670121348 0.13480634941333847 0.22969473590273992 0.13480634941333847 -10000.555331140611 -3330.3537387682941 0.030322725304323894 0.093851980628642195 0.030322725304323894 -3330.3851309254264 0.13078413572839054 0.093851980628642195 0.13078413572839054 -10000.320277625293 -3329.9846888470593 0.21853162952236671 -0.3388981257571686 0.21853162952236671 -3329.7797056664185 0.013158943108464882 -0.3388981257571686 0.013158943108464882 -9999.9976257189282 -3330.4543624627131 0.072952990561738207 -0.076626982420293643 0.072952990561738207 -3329.8870272155937 0.2007017058058409 -0.076626982420293643 0.2007017058058409 -10000.457495343628 -3330.9764526174094 -0.22619940272835715 -0.11853983666878776 -0.22619940272835715 -3330.6564150447034 0.14263772048434475 -0.11853983666878776 0.14263772048434475 -10000.780364839575 -3330.0542193424244 0.18360175533839085 0.17620820910724433 0.18360175533839085 -3330.2222966411273 0.25354900500070698 0.17620820910724433 0.25354900500070698 -10000.306369738404 -3330.3353260447548 0.037200012016167072 0.1814447569049662 0.037200012016167072 -3330.3956605934345 0.2521308148639605 0.1814447569049662 0.2521308148639605 -10000.318306861411 -3329.6385734952364 0.11874550262776784 0.6401046614232655 0.11874550262776784 -3328.8385261659932 1.1993919191336317 0.6401046614232655 1.1993919191336317 -9999.4770125568321 -3330.4571790750574 -0.2145723935555286 0.3890452806876965 -0.2145723935555286 -3330.684198102284 0.23957632759447733 0.3890452806876965 0.23957632759447733 -10000.52258503685 -3330.9175283757922 0.87879783238888765 0.76136614265669778 0.87879783238888765 -3330.0678531660906 0.87682253056209447 0.76136614265669778 0.87682253056209447 -9999.8862773985493 -3329.863612997819 0.12812314585775264 0.2931191944207967 0.12812314585775264 -3330.9933128176208 0.07342747095390223 0.2931191944207967 0.07342747095390223 -10000.451472196375 -3329.7595868655253 0.048878399860288857 0.4117852181152557 0.048878399860288857 -3328.8151725075827 0.80393103949427314 0.4117852181152557 0.80393103949427314 -9999.5014274848018 -3330.1355754507349 -0.052376567928698936 0.18670733960789221 -0.052376567928698936 -3330.5850356686624 0.24402289868703519 0.18670733960789221 0.24402289868703519 -10000.31571298171 -3330.2694605081815 -0.21457239355552882 -0.13148047548247632 -0.21457239355552882 -3330.4964795354081 -0.028419043401299859 -0.13148047548247632 -0.028419043401299859 -9999.9594293362243 -3329.9885291001201 -0.052376567928698936 -0.18330825772318349 -0.052376567928698936 -3330.4379893180476 -0.11818739627233299 -0.18330825772318349 -0.11818739627233299 -9999.8745739298683 -3330.2019287345393 0.037200012016167294 -0.052551928589309682 0.037200012016167294 -3330.262263283219 -0.0072638403730707068 -0.052551928589309682 -0.0072638403730707068 -9999.918114930766 -3330.1904983000613 0.03032272530432345 -0.12585570345345332 0.03032272530432345 -3330.2218904571937 -0.15466102278332983 -0.12585570345345332 -0.15466102278332983 -9999.8305562205969 -3330.0223777833671 0.050641551167191601 0.11976353645968629 0.050641551167191601 -3330.1777789413763 0.023626910153325298 0.11976353645968629 0.023626910153325298 -9999.7564669283347 -3330.0948788448623 0.097805616345401969 0.14766838144350913 0.097805616345401969 -3330.1902891788923 -0.030202820701560995 0.14766838144350913 -0.030202820701560995 -9999.7777197530922 -3330.3892268423569 -0.16480677952440154 -0.033943561560136004 -0.16480677952440154 -3330.3440890790807 0.032303849158779485 -0.033943561560136004 0.032303849158779485 -9999.8356475003275 -3330.4900988914824 -0.23189334802944006 -0.08257534457516158 -0.23189334802944006 -3330.4202284401117 0.019273002076715784 -0.08257534457516158 0.019273002076715784 -9999.8799003528693 -3330.5001725878938 -0.12693822294921142 -0.04578513034266507 -0.12693822294921142 -3330.2127961832966 0.1858999054220476 -0.04578513034266507 0.1858999054220476 -9999.6157839926236 -3330.5897091626284 -0.0013685776465470756 -0.17198833360635035 -0.0013685776465470756 -3330.1786506709232 0.1630311082371918 -0.17198833360635035 0.1630311082371918 -9999.6296317582128 -3329.876625507959 0.36597448949392508 1.0009689325070212 0.36597448949392508 -3330.4764898077287 0.1914159388625194 1.0009689325070212 0.1914159388625194 -9999.1958293297303 -3329.9730393599516 0.228478869201863 1.0824002904751069 0.228478869201863 -3329.8300934732397 0.10998458082167417 1.0824002904751069 0.10998458082167417 -9999.0583337091048 -3329.1612976075835 -0.077294856738560402 0.65297282039682614 -0.077294856738560402 -3329.7328575883157 0.032169680213883112 0.65297282039682614 0.032169680213883112 -9998.8310892997833 -3330.3494107631354 0.059605462195164494 0.33784898618978332 0.059605462195164494 -3330.2481794861601 -0.24614863959232025 0.33784898618978332 -0.24614863959232025 -9999.5624720388605 -3330.4903856585775 -0.12693822294921153 0.36564137044933887 -0.12693822294921153 -3330.2030092539803 -0.15266252384208201 0.36564137044933887 -0.15266252384208201 -9999.5864232046752 -3330.5593155847037 -0.28547476731801369 0.54355142049780625 -0.28547476731801369 -3329.7529287316129 -0.074172622998958104 0.54355142049780625 -0.074172622998958104 -9999.8073800333186 -3330.90732776709 -0.31570916669111532 0.58902031641719077 -0.31570916669111532 -3331.033954813553 0.078772530150672537 0.58902031641719077 0.078772530150672537 -10000.2146395994 -3330.5799222333135 -0.0013685776465472976 0.23943816718383459 -0.0013685776465472976 -3330.1688637416082 -0.1755313210269378 0.23943816718383459 -0.1755313210269378 -9999.6002709702643 -3329.5386483256034 0.0042484162516068236 0.585418032855614 0.0042484162516068236 -3331.2031944172127 -0.54033166391127452 0.585418032855614 -0.54033166391127452 -9999.6179410856421 -3330.6970641250223 0.069803257568823884 0.33199725684607984 0.069803257568823884 -3330.3241485060257 -0.36295154906292737 0.33199725684607984 -0.36295154906292737 -9999.6683776342961 -3329.1567420171268 -0.15912226621505593 0.76068998790833575 -0.15912226621505593 -3329.6858613619129 -0.89523478477303797 0.76068998790833575 -0.89523478477303797 -9999.1431312446985 -3330.7488616104974 0.069803257568823884 -0.047044439668752602 0.069803257568823884 -3330.3759459915009 0.070556392508478893 -0.047044439668752602 0.070556392508478893 -9999.823770090723 -3330.2260832383608 0.1267021509160329 0.042995882418836118 0.1267021509160329 -3330.2383141334712 0.024670820557730622 0.042995882418836118 0.024670820557730622 -9999.7937276663179 -3330.4552323018643 0.059605462195164494 0.092327804351953091 0.059605462195164494 -3330.3540010248889 0.053688355966187373 0.092327804351953091 0.053688355966187373 -9999.8799366550484 -3330.2427665907271 0.082246083086708208 0.049219546922131485 0.082246083086708208 -3330.2610054613951 0.104665526876488 0.049219546922131485 0.104665526876488 -9999.8035713363897 -3330.3481235354056 0.1718556595820295 0.13145778011755738 0.1718556595820295 -3330.3494317972873 0.2014166776843922 0.13145778011755738 0.2014166776843922 -9999.5814116329566 -3330.3505442061082 0.17185565958202953 0.4135536414831904 0.17185565958202953 -3330.3518524679898 -0.2713372473972413 0.4135536414831904 -0.2713372473972413 -9999.5886736450611 -3329.5299610140619 -0.37582402720081143 0.73029682614094327 -0.37582402720081143 -3329.7788255982523 -0.74294255866971071 0.73029682614094327 -0.74294255866971071 -9998.8472965986257 -3330.7555547519091 0.48712806722729224 0.19718199553062732 0.48712806722729224 -3331.0862512316144 0.066671255952314823 0.19718199553062732 0.066671255952314823 -10000.22556849731 -3330.8514445704068 -1.0327757951689374 0.6319259948159015 -1.0327757951689374 -3331.0575875849017 -0.8534449436901923 0.6319259948159015 -0.8534449436901923 -9999.4973579843772 -3330.5182821375365 0.047851905286466767 0.34606964043359767 0.047851905286466767 -3330.6267183734085 0.017133054105670453 0.34606964043359767 0.017133054105670453 -10000.051367129166 -3329.9863060077123 0.25926488273414378 0.21712537537041499 0.25926488273414378 -3330.070828271721 0.42227509511303651 0.21712537537041499 0.42227509511303651 -9999.7794005712876 -3330.0888746468067 0.20709315854932064 0.17790936746769148 0.20709315854932064 -3330.3505201784005 -0.081780519169569743 0.17790936746769148 -0.081780519169569743 -9999.8749657077315 -3330.3468386116551 0.048719349301001857 -0.20054184479158721 0.048719349301001857 -3330.572645808385 -0.26602520823985287 -0.20054184479158721 -0.26602520823985287 -10000.269295075412 -3329.7008260080224 0.14051718651129153 0.58733384215065598 0.14051718651129153 -3329.8813174855886 0.052066630126319069 0.58733384215065598 0.052066630126319069 -9999.6606528748325 -3330.0619451828261 0.093458168525506036 0.1132136209471355 0.093458168525506036 -3330.2100946708538 -0.29073389079110257 0.1132136209471355 -0.29073389079110257 -10000.526868869245 -3330.3086399430713 0.071725778852851252 -0.13900843878946034 0.071725778852851252 -3330.4424874086317 -0.16287127250689082 -0.13900843878946034 -0.16287127250689082 -10000.227205808327 -3330.4111203493817 -0.097047568311154242 0.1376790055019228 -0.097047568311154242 -3330.0004615672838 -0.2497203849543439 0.1376790055019228 -0.2497203849543439 -10000.561754384991 -3330.2942042252357 0.15836861057536655 -0.042803587779417285 0.15836861057536655 -3330.4428926271753 -0.16504052287746163 -0.042803587779417285 -0.16504052287746163 -10000.223698183507 -3328.9216574212237 0.61799161327697572 0.37987106846503593 0.61799161327697572 -3329.6506615723797 0.056744551186966419 0.37987106846503593 0.056744551186966419 -9999.4081967498296 -3330.9428268675188 -0.64383981722475725 0.17352776695042849 -0.64383981722475725 -3329.9349428848418 -0.85551156013571017 0.17352776695042849 -0.85551156013571017 -9999.4772051685577 -3329.4303083657605 -0.21598260021981638 0.73228346757741747 -0.21598260021981638 -3329.3658155625981 -0.7668646046657841 0.73228346757741747 -0.7668646046657841 -9998.7191309276386 -3330.4596445957923 0.061653206809565556 0.21071332160954626 0.061653206809565556 -3330.4704949596689 -0.096265547270149909 0.21071332160954626 -0.096265547270149909 -9999.9976518902931 -3329.8302673123421 -0.36700352938702019 0.40313989783680881 -0.36700352938702019 -3329.75849816756 -0.64781799949923879 0.40313989783680881 -0.64781799949923879 -9999.1549541004424 -3330.3164069151326 0.061653206809565604 0.12736469522587868 0.061653206809565604 -3330.3272572790092 0.25070335983514269 0.12736469522587868 0.25070335983514269 -9999.567938848315 -3330.1004530057144 0.15836861057536633 0.23850862315339327 0.15836861057536633 -3330.249141407654 0.24201597663704888 0.23850862315339327 0.24201597663704888 -9999.6424445249431 -3330.2527331078554 0.048719349301001857 0.013671476532181259 0.048719349301001857 -3330.4785403045853 -0.05030491665934278 0.013671476532181259 -0.05030491665934278 -9999.9869785640149 -3330.1639216842523 0.071725778852851252 0.070987207642247085 0.071725778852851252 -3330.2977691498127 0.082897866261191666 0.070987207642247085 0.082897866261191666 -9999.7930510318729 -3330.1140692764602 0.066368779785957788 -0.17377043963097094 0.066368779785957788 -3330.357823278222 -0.099939958808135998 -0.17377043963097094 -0.099939958808135998 -9999.8596982594208 -3329.9532237711974 0.017007736060383749 -0.20231718596733117 0.017007736060383749 -3330.3526995979164 -0.07075822097431228 -0.20231718596733117 -0.07075822097431228 -9999.7332724152257 -3330.3062072605453 0.04630761667544378 -0.14943067294325374 0.04630761667544378 -3330.4171977193264 -0.28236004256177694 -0.14943067294325374 -0.28236004256177694 -9999.9083102762488 -3330.2518789793739 0.070670484346654128 -0.108187801512031 0.070670484346654128 -3330.2546785659752 -0.19019349013615283 -0.108187801512031 -0.19019349013615283 -9999.8540984176179 -3330.4020823278961 0.095893623416921869 -0.23340461760744802 0.095893623416921869 -3330.4580829794495 -0.095777242994358858 -0.23340461760744802 -0.095777242994358858 -9999.9567664475871 -3331.0411975728312 -0.11957102809784331 -0.98887379383540974 -0.11957102809784331 -3330.6393238601077 -0.0099063209845553502 -0.98887379383540974 -0.0099063209845553502 -10000.203389946211 -3330.4364351560685 -0.11444145253478649 -0.42730130244126485 -0.11444145253478649 -3330.1266546019519 0.068649961784103652 -0.42730130244126485 0.068649961784103652 -9999.1310813657492 -3330.1015158500941 0.09589362341692198 -0.39627426669721899 0.09589362341692198 -3330.1575165016475 0.12599297732162995 -0.39627426669721899 0.12599297732162995 -9999.0550670141783 -3330.4679264171409 0.270118770712029 -0.69605313431111426 0.270118770712029 -3330.4491839122511 -0.067426218824891748 -0.69605313431111426 -0.067426218824891748 -10000.165292479909 -3330.0153061756014 0.22193729864074141 -0.16346283943630624 0.22193729864074141 -3330.0535755034239 -0.33966442012479092 -0.16346283943630624 -0.33966442012479092 -10000.073747510312 -3329.8317467417378 0.39994317887762421 -0.25771245797022857 0.39994317887762421 -3329.759350777505 -0.47516998923219944 -0.25771245797022857 -0.47516998923219944 -9999.8337892773689 -3330.0113472185321 0.046307616675443725 -0.30310292962030871 0.046307616675443725 -3330.1223376773132 -0.027368349437892903 -0.30310292962030871 -0.027368349437892903 -9999.0237301502075 -3330.2316129400324 0.11951878338656896 -0.28881822507401012 0.11951878338656896 -3330.6520620305851 -0.61979946700284927 -0.28881822507401012 -0.61979946700284927 -10000.27744583321 -3330.2840591265326 0.18229572198276442 -0.33856586640649766 0.18229572198276442 -3330.9795972120828 -0.65585527249459119 -0.33856586640649766 -0.65585527249459119 -10000.251928982214 -3330.5097545364829 0.070670484346654239 0.032723111429731944 0.070670484346654239 -3330.5125541230841 -0.019215670521589345 0.032723111429731944 -0.019215670521589345 -10000.62772508894 -3330.0346110629225 0.46823492262283201 0.088465417146835534 0.46823492262283201 -3329.6591517328134 0.55122300587299833 0.088465417146835534 0.55122300587299833 -9999.8594555964955 -3329.2265356971484 0.20154743674693471 0.44344574554270366 0.20154743674693471 -3330.1408835259672 -0.0068559047285816632 0.44344574554270366 -0.0068559047285816632 -9999.5711737600177 -3330.9253164669412 0.032228196315462157 0.53206469348515384 0.032228196315462157 -3330.3850831694695 -0.12328977312881761 0.53206469348515384 -0.12328977312881761 -10000.263614806663 -3330.3294378680421 0.12670215091603276 0.048904126904744771 0.12670215091603276 -3330.3416687631525 0.042729369651169691 0.048904126904744771 0.042729369651169691 -10000.103791555361 -3330.5552588237142 0.08224608308670843 -0.12469859200814426 0.08224608308670843 -3330.5734976943822 0.012657211280384217 -0.12469859200814426 0.012657211280384217 -10000.74104803535 -3330.4009227904908 0.066368779785957788 -0.33941914956267283 0.066368779785957788 -3330.6446767922525 -0.14182114238178656 -0.33941914956267283 -0.14182114238178656 -10000.72025880151 -3329.9755906021196 0.20801129681073416 -0.7647720555696651 0.20801129681073416 -3330.2756280852054 -0.062629349816120339 -0.7647720555696651 -0.062629349816120339 -9999.9988195693913 -3329.0030336466398 -0.19751691241982461 -1.1528146723985628 -0.19751691241982461 -3329.9542451846719 0.0015374401416465844 -1.1528146723985628 0.0015374401416465844 -9999.5225792958045 -3330.7249779084077 0.17348065907600696 -0.20119871320093807 0.17348065907600696 -3330.3968384054401 -0.32847099884656927 -0.20119871320093807 -0.32847099884656927 -10000.739312984286 -3329.5120201175573 0.0048884986039436917 -0.92909436840182025 0.0048884986039436917 -3329.8787100052978 -0.30056956898442877 -0.92909436840182025 -0.30056956898442877 -9999.6309421186888 -3330.9457193794224 0.25926488273414422 0.15607155081670498 0.25926488273414422 -3331.0302416434311 0.99337883792304638 0.15607155081670498 0.99337883792304638 -10002.657640686417 -3330.8666448153781 0.20801129681073438 -0.78496017775523796 0.20801129681073438 -3331.1666822984639 0.31636386631953428 -0.78496017775523796 0.31636386631953428 -10002.671982209164 -3329.7174579220014 0.20709315854932042 0.13889588342226489 0.20709315854932042 -3329.9791034535951 0.027258757294475799 0.13889588342226489 0.027258757294475799 -9998.7607155333171 -3329.4305662462307 0.11951878338656888 0.8859461127412942 0.11951878338656888 -3329.8510153367833 -0.33031235163343808 0.8859461127412942 -0.33031235163343808 -9997.8743057518041 -3330.8185221254048 0.22193729864074146 -0.094925747465822496 0.22193729864074146 -3330.8567914532273 -0.93302475310792943 -0.094925747465822496 -0.93302475310792943 -10002.483395359721 -3329.7378098987256 0.25390906414292891 0.43676198477169237 0.25390906414292891 -3329.6253257810904 0.22166358316735568 0.43676198477169237 0.22166358316735568 -9997.8946942760049 -3329.7150846005366 0.27011877071202889 0.49039047631686117 0.27011877071202889 -3329.6963420956467 0.32077777020504072 0.49039047631686117 0.32077777020504072 -9997.9067670300956 -3333.104709630979 0.98551570492633722 -0.85326140472579937 0.98551570492633722 -3331.2607755006634 0.835115673202381 -0.85326140472579937 0.835115673202381 -10000.322171780126 -3334.9521627510603 -0.16847807726404312 -1.2469327586497241 -0.16847807726404312 -3334.6624481915778 0.076788693415399178 -1.2469327586497241 0.076788693415399178 -10001.240227925078 -3334.9850749090256 -0.20351615883796492 0.47284445075162607 -0.20351615883796492 -3334.8860063167654 -1.711252017226053 0.47284445075162607 -1.711252017226053 -10001.560777908935 -3330.2058876252436 -0.012406886671880127 -1.4529886277776569 -0.012406886671880127 -3332.2226119464044 -3.3812296726041131 -1.4529886277776569 -3.3812296726041131 -9999.4437000823291 -3332.3317072164323 -1.6323896308722252 -0.47451844921624797 -1.6323896308722252 -3332.6044989467732 -1.1946160864108606 -0.47451844921624797 -1.1946160864108606 -10000.070626730219 -3334.4679044983914 -0.017029087114282332 -0.41093199502807543 -0.017029087114282332 -3332.9315962465016 -3.686250975642432 -0.41093199502807543 -3.686250975642432 -10000.942882788711 -3331.974100522682 -1.184222036568688 -0.009376755473274212 -1.184222036568688 -3332.1239274072054 -0.55356755003989355 -0.009376755473274212 -0.55356755003989355 -9999.1469140695317 -3330.5510662707443 0.23076752104418669 0.39025315611524392 0.23076752104418669 -3332.5360492731102 3.2580323946596792 0.39025315611524392 3.2580323946596792 -9999.6083540753807 -3330.1030728629485 1.0439606373528458 3.5593094472396842 1.0439606373528458 -3330.8637466351579 -1.1480319578322451 3.5593094472396842 -1.1480319578322451 -9999.0782800639445 -3333.3914309801025 -0.87571911617045006 -3.1458820746994731 -0.87571911617045006 -3331.0080831082255 0.9951502144962654 -3.1458820746994731 0.9951502144962654 -10000.330679019296 -3334.455623053916 0.07310858109997681 -2.4628283053558073 0.07310858109997681 -3335.6768209058337 0.072769332466966041 -2.4628283053558073 0.072769332466966041 -10001.763911487151 -3332.2145343087282 1.22521930728714 -0.47307060955881752 1.22521930728714 -3335.3852861640721 -0.10480499024868095 -0.47307060955881752 -0.10480499024868095 -10004.063605548903 -3333.0406766907381 -0.61808543427795093 -3.7852987682083374 -0.61808543427795093 -3333.9497506118823 0.25397729042034278 -3.7852987682083374 0.25397729042034278 -10000.584182015074 -3334.2926367976779 1.9290786236269024 0.99113900549739942 1.9290786236269024 -3334.3625791888871 0.1583113872923172 0.99113900549739942 0.1583113872923172 -10004.327454427344 -3334.7378933568111 0.64050457951928752 1.6721262268939108 0.64050457951928752 -3333.8286298982862 2.5640272422130495 1.6721262268939108 2.5640272422130495 -9999.688206012368 -3331.0829966387291 -1.7792484629514305 2.0671922992595775 -1.7792484629514305 -3332.4664618944062 2.5551191963624582 2.0671922992595775 2.5551191963624582 -9998.4339398318771 -3336.8207891490788 0.48958088430935187 0.93499812250107794 0.48958088430935187 -3337.098023905141 0.064197418752482249 0.93499812250107794 0.064197418752482249 -10005.643353694259 -3330.3360996502256 0.1405171865112913 -0.11656061961821251 0.1405171865112913 -3330.5165911277918 1.2274688402085303 -0.11656061961821251 1.2274688402085303 -10001.566473801444 -3330.6684826629316 -0.36700352938701997 -0.035181128198928491 -0.36700352938701997 -3330.5967135181495 1.2256338756515106 -0.035181128198928491 1.2256338756515106 -10001.669600152209 -3330.4197220632723 0.093458168525506036 -0.36998875503741147 0.093458168525506036 -3330.5678715513 0.80262465730504573 -0.36998875503741147 0.80262465730504573 -10001.600199510582 -3334.9414026499467 -0.3243194691424609 -1.5265792319951799 -0.3243194691424609 -3334.6867542519244 -0.38384450460178954 -1.5265792319951799 -0.38384450460178954 -9999.953614424061 -3333.0779107004159 -0.16603260248942112 0.18808261643804561 -0.16603260248942112 -3332.2624638257357 4.0480708454688958 0.18808261643804561 4.0480708454688958 -9998.8816688301322 -3333.4459729735213 0.26716745010046811 -0.09102910495585137 0.26716745010046811 -3333.659417013735 0.4605605988042345 -0.09102910495585137 0.4605605988042345 -9999.3229226954081 -3325.4533596764772 2.477032853465968 0.11637476306987082 2.477032853465968 -3326.416819469579 0.71119939534946752 0.11637476306987082 0.71119939534946752 -9996.2152573926178 -3329.9257585753771 -1.1755851473592831 -0.27163478779675643 -1.1755851473592831 -3332.7431085056128 -0.8013921877741268 -0.27163478779675643 -0.8013921877741268 -9998.2137919688394 -3330.8833894915474 -0.61425265999758516 -0.73899306065478232 -0.61425265999758516 -3333.6972290595259 -0.24965641238658076 -0.73899306065478232 -0.24965641238658076 -9999.3928672438706 -3329.7222998354732 -0.37582402720081137 -0.96679130334553065 -0.37582402720081137 -3329.9711644196636 -0.42575974055853294 -0.96679130334553065 -0.42575974055853294 -9999.4243130628602 -3328.8408984669777 -0.2159826002198165 -0.36749045051783469 -0.2159826002198165 -3328.7764056638152 0.35284910128632418 -0.36749045051783469 0.35284910128632418 -9996.9509012312919 -3330.0452672268757 -0.23230495278985508 -0.81557529518092453 -0.23230495278985508 -3330.8765265392753 0.6725048307616851 -0.81557529518092453 0.6725048307616851 -9998.4781610476421 -3328.0472979490619 0.58047116014982314 -0.15107682274219769 0.58047116014982314 -3329.2262251968777 1.1839816533361045 -0.15107682274219769 1.1839816533361045 -9997.1361787527585 -3329.7717462703426 -0.65374188304340097 2.2512880649557019 -0.65374188304340097 -3332.1700329043238 3.3570189207677048 2.2512880649557019 3.3570189207677048 -9998.3032427599392 -3328.8140225606221 -1.355621310671058 2.0796941823451283 -1.355621310671058 -3328.905279841581 0.6509325062653446 2.0796941823451283 0.6509325062653446 -9997.2476235668237 -3334.9564762122131 -0.727265701052628 0.72163604339112686 -0.727265701052628 -3332.4282490602004 1.1285802929742903 0.72163604339112686 1.1285802929742903 -10003.723916194476 -3326.9845459524358 -1.0301183951165016 1.2757676423943849 -1.0301183951165016 -3328.8981820676886 0.58227062790433592 1.2757676423943849 0.58227062790433592 -9999.320421551718 -3332.1403159030074 -1.7537082962845059 1.2795471402733933 -1.7537082962845059 -3330.7981956205099 0.58279931925066508 1.2795471402733933 0.58279931925066508 -10001.084367427567 -3333.5316303870522 -1.3682424647241227 0.43817648825506694 -1.3682424647241227 -3331.9776903728821 1.5126916625040394 0.43817648825506694 1.5126916625040394 -10003.255065066354 -3330.7267023583299 -0.87830861613313216 -0.13015367746572004 -0.87830861613313216 -3328.3826457000264 -1.1403023278114284 -0.13015367746572004 -1.1403023278114284 -10000.127076561277 -3330.4348950681297 -0.0050285017106559415 -0.43219359472732322 -0.0050285017106559415 -3329.5916533399991 0.88691740994545398 -0.43219359472732322 0.88691740994545398 -10001.359938208971 -3330.3248856789432 -0.21166710164234503 -0.053298421423278342 -0.21166710164234503 -3329.6344967699238 0.93991878887936764 -0.053298421423278342 0.93991878887936764 -10001.343146719157 -3329.4866703283542 -0.21166710164234526 0.38502260461336846 -0.21166710164234526 -3328.7962814193347 -0.93353308627047227 0.38502260461336846 -0.93353308627047227 -9998.8285006673905 -3329.6096646896458 0.068150623868351801 -0.79751119774482504 0.068150623868351801 -3328.9628775932774 -1.2591139944570386 -0.79751119774482504 -1.2591139944570386 -9999.4402822073989 -3329.4996126271744 -0.063470979402986405 -0.19072310288720473 -0.063470979402986405 -3330.3741688020027 -0.18952261432730211 -0.19072310288720473 -0.18952261432730211 -10000.143804490215 -3331.4236174900307 0.00823351450952714 -0.33400160630662867 0.00823351450952714 -3329.4730655199855 -0.76684228505405372 -0.33400160630662867 -0.76684228505405372 -10000.021317389172 -3330.3994306832365 0.0064647298157761712 -0.046333629170476343 0.0064647298157761712 -3330.6839990492908 -0.2207103224209277 -0.046333629170476343 -0.2207103224209277 -10000.310281403536 -3330.0922793228619 -0.053209245955424644 -0.21642421057731553 -0.053209245955424644 -3330.6093987046697 -0.24450327623344492 -0.21642421057731553 -0.24450327623344492 -10000.214843477288 -3329.8124332800212 -0.0050285017106559415 -0.40262853234617069 -0.0050285017106559415 -3328.9691915518906 -0.77644209515528928 -0.40262853234617069 -0.77644209515528928 -9999.4925528446456 -3329.724631131015 0.075938741663443388 -0.26395550494908093 0.075938741663443388 -3330.8010147805703 -0.090286593738710508 -0.26395550494908093 -0.090286593738710508 -10000.306770610816 -3330.2973809568775 -0.17975891204839423 0.054215022432344995 -0.17975891204839423 -3330.5354400782026 -0.020021050881041447 0.054215022432344995 -0.020021050881041447 -9999.9295496439845 -3329.9650474887876 -0.053209245955424422 0.15411475110704487 -0.053209245955424422 -3330.4821668705954 0.10208811218217306 0.15411475110704487 0.10208811218217306 -9999.8331479750632 -3330.2056794637156 0.0064647298157761712 0.2349785817641532 0.0064647298157761712 -3330.4902478297699 0.1863461770954018 0.2349785817641532 0.1863461770954018 -9999.729027744972 -3330.8671944743787 0.85128912831311521 -0.81744341316334612 0.85128912831311521 -3330.1977000217153 -1.0060624045881923 -0.81744341316334612 -1.0060624045881923 -9999.6649508534792 -3330.3875096960046 -0.20134155802865955 -0.067552865747529722 -0.20134155802865955 -3330.3629206376399 -0.083612143911523162 -0.067552865747529722 -0.083612143911523162 -9999.7191194691513 -3330.52986211599 -0.11444145253478671 -0.094888910116424086 -0.11444145253478671 -3330.2200815618735 -0.20060907921924809 -0.094888910116424086 -0.20060907921924809 -9999.4113622455188 -3330.2368659564117 -0.24640411655842698 0.01820548043542658 -0.24640411655842698 -3330.334365560353 -0.070506672497231193 0.01820548043542658 -0.070506672497231193 -9999.6743197649303 -3330.160650795186 0.017007736060383749 -0.50559490430714504 0.017007736060383749 -3330.5601266219051 -0.22731486960401526 -0.50559490430714504 -0.22731486960401526 -10000.355553487194 -3330.4607130656805 -0.66227658645406295 -0.84976596065916965 -0.66227658645406295 -3330.6443419738875 -0.11958821703046851 -0.84976596065916965 -0.11958821703046851 -10000.059523347867 -3329.0009236167566 0.21549010836343108 -1.4891592830936133 0.21549010836343108 -3329.1000089761446 -0.59465365176333762 -1.4891592830936133 -0.59465365176333762 -9998.9239603776823 -3330.4789868559574 -0.17975891204839378 -0.44060205506366401 -0.17975891204839378 -3330.7170459772824 -0.30620472163354862 -0.44060205506366401 -0.30620472163354862 -10000.474367341229 -3330.4944048552843 -0.24640411655842698 -0.51910037607194681 -0.24640411655842698 -3330.5919044592256 -0.25812651209116666 -0.51910037607194681 -0.25812651209116666 -10000.446936461545 -3330.027250386624 0.25390906414292891 -1.5154338691954763 0.25390906414292891 -3329.9147662689888 -0.017121296926688956 -1.5154338691954763 -0.017121296926688956 -9998.7630157397016 -3330.4882087768974 -0.20134155802865977 -0.59562061850374448 -0.20134155802865977 -3330.4636197185328 -0.080750078644996393 -0.59562061850374448 -0.080750078644996393 -10000.021216711833 -3329.9427484636753 0.025036898783735551 -1.5102009897723292 0.025036898783735551 -3329.4724678553175 -0.59786921616796462 -1.5102009897723292 -0.59786921616796462 -9999.2525313092046 -3329.8478337434158 0.29640907792401983 -1.1675481356114688 0.29640907792401983 -3330.5326894386849 -0.43012864283446106 -1.1675481356114688 -0.43012864283446106 -9998.8726423713233 -3330.9843391512868 -0.10029865416918785 -0.85840357762208441 -0.10029865416918785 -3330.0599994274544 0.23122388871706789 -0.85840357762208441 0.23122388871706789 -10000.044344232661 -3329.8755777707793 0.025036898783735329 -0.13410622528999738 0.025036898783735329 -3329.4052971624214 0.54611116185606079 -0.13410622528999738 0.54611116185606079 -9999.0510192305155 -3330.441899985527 0.068150623868352245 -0.25279310649466424 0.068150623868352245 -3329.7951128891586 0.66810759771306039 -0.25279310649466424 0.66810759771306039 -10001.936988095043 -3330.3498102329168 0.0048884986039439138 -0.68689607119176799 0.0048884986039439138 -3330.7165001206572 0.95952226682857145 -0.68689607119176799 0.95952226682857145 -10002.144312464767 -3329.992526675524 0.21549010836343108 -0.69572076694657881 0.21549010836343108 -3330.091612034912 0.93938943656189622 -0.69572076694657881 0.93938943656189622 -10001.898769553982 -3332.5927711865884 0.86786580237889166 -2.4076419285022439 0.86786580237889166 -3329.908019177667 0.198672591797731 -2.4076419285022439 0.198672591797731 -9999.8559980882783 -3333.1051683672249 0.50106219301994992 -2.1727413309561205 0.50106219301994992 -3330.3581540238297 0.26091577292587664 -2.1727413309561205 0.26091577292587664 -10000.056609656311 -3327.4395860409945 -1.7353858812020331 1.1453542491472035 -1.7353858812020331 -3326.4540380080134 -1.7713327200281128 1.1453542491472035 -1.7713327200281128 -9997.6641850707983 -3329.425499520522 -0.51957032704662076 0.21881448699059547 -0.51957032704662076 -3327.6437583956367 -0.48248035129108757 0.21881448699059547 -0.48248035129108757 -9997.2114709649995 -3332.5108257038578 1.3822527976232142 -0.66719714762164628 1.3822527976232142 -3332.1608427378101 1.1789927252698398 -0.66719714762164628 1.1789927252698398 -10000.398717607632 -3332.4899510553723 1.0494339269408062 -0.42314761756929764 1.0494339269408062 -3330.7927970029796 0.27965226692859968 -0.42314761756929764 0.27965226692859968 -9998.7648435005485 -3331.1945669186962 0.20381200446959363 -0.51941432530769982 0.20381200446959363 -3329.8833442946407 0.51357491079155126 -0.51941432530769982 0.51357491079155126 -9999.4602568618811 -3328.8662113176924 0.66367384284868669 2.0622213491631101 0.66367384284868669 -3328.2305616287581 0.56399733906619076 2.0622213491631101 0.56399733906619076 -9999.780662184201 -3328.6722823480145 1.148587879271856 2.6459724669488711 1.148587879271856 -3329.523797446509 0.24375802444519179 2.6459724669488711 0.24375802444519179 -9997.4931764345911 -3329.4964282884885 -0.010609915195726294 -0.66995492533260403 -0.010609915195726294 -3330.9774533795712 0.50198240247300419 -0.66995492533260403 0.50198240247300419 -9999.1304901237381 -3329.2197555563516 -0.12136208904859069 -0.75811192560468044 -0.12136208904859069 -3329.6339952289372 -0.025978394966386986 -0.75811192560468044 -0.025978394966386986 -9998.4909492721199 -3330.499849345525 -0.027925337570863074 0.097453661777763045 -0.027925337570863074 -3330.2127792928786 -0.20285858094212017 0.097453661777763045 -0.20285858094212017 -9999.4020334856541 -3326.8455261296253 -1.1872478330963006 -1.2868183681721348 -1.1872478330963006 -3328.5704279977431 -0.49624118596511835 -1.2868183681721348 -0.49624118596511835 -9999.3171347790576 -3330.5332158788019 -0.20746822386440122 0.092292217706926749 -0.20746822386440122 -3329.6123289753436 -0.97450987000138412 0.092292217706926749 -0.97450987000138412 -10001.512622798935 -3330.718362737392 -0.41271582143618679 0.099777583380273427 -0.41271582143618679 -3330.2236684612894 -1.2016618364468741 0.099777583380273427 -1.2016618364468741 -10001.711744385068 -3328.9565651088028 -1.4863538101869231 -1.4800196919086335 -1.4863538101869231 -3328.952693094147 -0.51747990926857934 -1.4800196919086335 -0.51747990926857934 -9998.4842376156448 -3331.8170013138101 -1.7058566429424002 -0.97803868507920777 -1.7058566429424002 -3332.9986556722679 -2.1550730215299567 -0.97803868507920777 -2.1550730215299567 -10000.296921849007 -3330.27284966973 -0.79846057143934279 -1.4039381035375853 -0.79846057143934279 -3332.7310805372113 -2.8262625608353398 -1.4039381035375853 -2.8262625608353398 -9999.7579056166433 -3328.3126055426901 0.39476156179066624 -0.29070723851327784 0.39476156179066624 -3329.4615655162743 -1.4361585932851995 -0.29070723851327784 -1.4361585932851995 -9998.4504658296482 -3329.3934354414305 -0.40629722291771425 -0.17741422704057186 -0.40629722291771425 -3330.4962843040666 -1.5443734095771569 -0.17741422704057186 -1.5443734095771569 -9997.7404938102027 -3330.271025349196 -0.057114717898207115 -0.017674629735429104 -0.057114717898207115 -3332.9782182929794 -1.9858470037942739 -0.017674629735429104 -1.9858470037942739 -9998.5803747843711 -3330.341406183561 -0.40494303268560899 0.46990334804058875 -0.40494303268560899 -3333.3249062758323 -1.7111552359360473 0.46990334804058875 -1.7111552359360473 -10000.009585717336 -3329.4839943634206 1.0290791936635406 1.6111735455565395 1.0290791936635406 -3330.8520097185524 1.335436811428953 1.6111735455565395 1.335436811428953 -10000.590469968081 -3327.5320546018861 1.5118683688990169 0.69006964809250348 1.5118683688990169 -3327.5737455737367 -0.71382730113964499 0.69006964809250348 -0.71382730113964499 -9996.5445139177336 -3328.9303150684527 -0.1213620890485908 1.1940839283624882 -0.1213620890485908 -3329.3445547410383 0.21280648512765765 1.1940839283624882 0.21280648512765765 -9997.6226278084214 -3328.8666313382273 -0.1581374277910747 1.038831043004393 -0.1581374277910747 -3329.2375750868555 0.47833976786728272 1.038831043004393 0.47833976786728272 -9997.5799619623212 -3329.5545268229607 -0.33713145607551209 0.12992297300206701 -0.33713145607551209 -3329.2837617493988 -0.77154877226621466 0.12992297300206701 -0.77154877226621466 -9998.8025797455775 -3329.2693604317201 -0.39331612772914887 0.59424255159456152 -0.39331612772914887 -3329.7524174803293 -0.3207134189469798 0.59424255159456152 -0.3207134189469798 -9997.8093548340621 -3330.5348247527686 0.021345887309809575 -0.22130011889748857 0.021345887309809575 -3330.5526670464783 -0.025812458567997965 -0.22130011889748857 -0.025812458567997965 -10000.328400040369 -3329.4431366160579 -0.33713145607551243 -0.99128490344355669 -0.33713145607551243 -3329.172371542496 0.4851419449680634 -0.99128490344355669 0.4851419449680634 -9998.468409124871 -3331.0199560913561 0.42082422609573811 -0.0029727177116001258 0.42082422609573811 -3330.9405332818901 -0.62920563185471678 -0.0029727177116001258 -0.62920563185471678 -10000.546649433867 -3330.2586107193165 0.1519121692404572 -0.39065325447108989 0.1519121692404572 -3330.2137909679059 -0.024487377839250257 -0.39065325447108989 -0.024487377839250257 -9999.1084093480513 -3329.5736091233912 -0.3933161277291487 -0.84519776673664637 -0.3933161277291487 -3330.0566661720004 0.081399764577327005 -0.84519776673664637 0.081399764577327005 -9998.722100909079 -3330.4064223856021 -0.027925337570863185 -0.23495873054525873 -0.027925337570863185 -3330.1193523329557 0.06640046006123157 -0.23495873054525873 0.06640046006123157 -9999.1217526058826 -3330.3329292764138 -0.84167184072133183 -0.46259299651228503 -0.84167184072133183 -3330.7187967533569 0.76905040521523915 -0.46259299651228503 0.76905040521523915 -9999.0774635926737 -3329.2498750784953 -0.15813742779107468 -0.76847475933936948 -0.15813742779107468 -3329.6208188271235 0.67048358606348302 -0.76847475933936948 0.67048358606348302 -9998.7296931831279 -3330.4828693506006 0.015864636021177714 -0.28882437654283422 0.015864636021177714 -3330.1826838343986 0.1585283569152125 -0.28882437654283422 0.1585283569152125 -9999.1566972224955 -3330.6012934305973 0.015864636021177714 0.010477364989128546 0.015864636021177714 -3330.3011079143953 -0.20586233654330499 0.010477364989128546 -0.20586233654330499 -9999.5119694624846 -3330.2309766600156 0.021345887309809297 -0.2094566446630779 0.021345887309809297 -3330.2488189537253 -0.37494758579805421 -0.2094566446630779 -0.37494758579805421 -9999.4168557621088 -3330.3812498922871 0.15191216924045706 -0.19008318484611664 0.15191216924045706 -3330.3364301408765 -0.4284901706087112 -0.19008318484611664 -0.4284901706087112 -9999.4763268669631 -3330.1147429255097 0.13458959836231499 -0.25573330892439117 0.13458959836231499 -3330.1924947838197 -0.28775137934098893 -0.25573330892439117 -0.28775137934098893 -9999.6778219437074 -3330.182604953784 -0.016270429881012127 -0.25836772332513647 -0.016270429881012127 -3330.4365727826234 -0.20780706695950357 -0.25836772332513647 -0.20780706695950357 -9999.7558069504739 -3329.9170500876312 -0.41271582143618613 -0.33303173424610577 -0.41271582143618613 -3329.4223558115286 0.74126604523644346 -0.33303173424610577 0.74126604523644346 -9999.3078064357851 -3330.328561999705 0.13458959836231477 0.026131594810067327 0.13458959836231477 -3330.406313858015 0.13790073069139908 0.026131594810067327 0.13790073069139908 -10000.319279166293 -3330.8282461204594 -0.81011087326556308 -0.31696968225423916 -0.81011087326556308 -3329.8517386941285 0.76132291116027773 -0.31696968225423916 0.76132291116027773 -9999.642951164642 -3329.3960311514165 0.56547391599127905 -0.2016419079463958 0.56547391599127905 -3329.6868707079402 -0.0012650282942558988 -0.2016419079463958 -0.0012650282942558988 -9999.8272525553948 -3330.3964240279779 -0.016270429881011683 0.023497180407503038 -0.016270429881011683 -3330.6503918568174 0.21784504306924646 0.023497180407503038 0.21784504306924646 -10000.39726417306 -3329.731903229042 -0.20746822386440145 -0.34051709992127144 -0.20746822386440145 -3328.8110163255838 0.96841801168375241 -0.34051709992127144 0.96841801168375241 -9999.1086848496525 -3331.5507503601784 0.01198505166572672 0.28154677451129828 0.01198505166572672 -3329.3868294201761 0.78304163414895811 0.28154677451129828 0.78304163414895811 -10000.092132586613 -3329.8901739668154 -0.085918354752507975 -0.25219189714516688 -0.085918354752507975 -3330.4219433289973 -0.1292358872224213 -0.25219189714516688 -0.1292358872224213 -9999.8459736492805 -3330.3823092021175 -0.0030639476012495059 -0.00019015544603462331 -0.0030639476012495059 -3330.2660231483642 -0.0017894677466756548 -0.00019015544603462331 -0.0017894677466756548 -9999.912736188282 -3330.2687972149142 0.023184017746486152 -0.041724362577951979 0.023184017746486152 -3330.2445251739118 -0.058137581327173393 -0.041724362577951979 -0.058137581327173393 -9999.8494297941543 -3330.3094456931958 -0.023128706423150902 -0.049475613062895718 -0.023128706423150902 -3330.2341687011503 -0.021813821782416198 -0.049475613062895718 -0.021813821782416198 -9999.8182784979035 -3330.3542587310712 -0.046437845816884926 -0.035102862264466239 -0.046437845816884926 -3330.2813922493788 -0.0038664053608954418 -0.035102862264466239 -0.0038664053608954418 -9999.8412876444308 -3330.3084496836054 -0.01262302852817454 -0.050215028646562132 -0.01262302852817454 -3330.2283933807612 0.00062458825595967937 -0.050215028646562132 0.00062458825595967937 -9999.8165856654086 -3330.3592700540248 -0.012623028528173652 -0.098712185563272214 -0.012623028528173652 -3330.2792137511806 -0.074400331535798614 -0.098712185563272214 -0.074400331535798614 -9999.9690467766668 -3330.3602660636161 -0.02312870642315068 -0.0979727699796058 -0.02312870642315068 -3330.2849890715706 -0.096838741570536513 -0.0979727699796058 -0.096838741570536513 -9999.9707396091617 -3330.102460425881 0.12212580833122783 -0.22226685768691823 0.12212580833122783 -3330.3102709382874 -0.2459614432973467 -0.22226685768691823 -0.2459614432973467 -9999.7041953574153 -3330.4100565285016 -0.055904185048382127 -0.12149895006223232 -0.055904185048382127 -3330.2686602624208 -0.15511886496642546 -0.12149895006223232 -0.15511886496642546 -9999.897138229011 -3330.3842081341181 -0.02311373452090093 -0.036766822080608108 -0.02311373452090093 -3330.4370289432418 -0.28606741149542358 -0.036766822080608108 -0.28606741149542358 -9999.9327683006195 -3330.3424481812599 -0.035035727800733552 -0.095772249453148106 -0.035035727800733552 -3330.2965513437721 -0.12299364304772098 -0.095772249453148106 -0.12299364304772098 -9999.8872089125362 -3330.2522268881094 -0.024201748457980843 -0.085568610830705438 -0.024201748457980843 -3330.2534537447118 -0.11760018175846199 -0.085568610830705438 -0.11760018175846199 -9999.5620353150662 -3330.3172352912816 0.18618246222714752 -0.084946920537731785 0.18618246222714752 -3330.0602643241218 -0.23953011278717895 -0.084946920537731785 -0.23953011278717895 -9999.3912817625242 -3330.2628299595217 -0.03074429683674651 -0.04899839098288794 -0.03074429683674651 -3330.245104477739 -0.051872995215489937 -0.04899839098288794 -0.051872995215489937 -9999.562598766177 -3330.2491293440426 -0.038404291509974153 -0.030127271405945066 -0.038404291509974153 -3330.2681393137073 -0.084148790410836227 -0.030127271405945066 -0.084148790410836227 -9999.5649323213001 -3330.3576192205674 -0.053498084921470686 -0.041606580285588279 -0.053498084921470686 -3330.3247491904585 0.0092962666167295538 -0.041606580285588279 0.0092962666167295538 -9999.7475375691174 -3330.3200814080628 -0.03074429683674651 -0.055643963751208503 -0.03074429683674651 -3330.3023559262801 0.0075558003545665997 -0.055643963751208503 0.0075558003545665997 -9999.7343531117986 -3330.3087590119067 -0.024201748457981037 -0.077612379634047102 -0.024201748457981037 -3330.3099858685091 -0.055416494216842693 -0.077612379634047102 -0.055416494216842693 -9999.7316316864635 -3330.3656209407309 0.018426489887365782 -0.011210102913537412 0.018426489887365782 -3330.3711236123636 -0.09431122594480712 -0.011210102913537412 -0.09431122594480712 -9999.9052853352223 -3330.2822427552928 -0.035035727800733885 -0.082160388239572058 -0.035035727800733885 -3330.236345917805 -0.04284712670960289 -0.082160388239572058 -0.04284712670960289 -9999.7065926346331 -3330.3023701735492 -0.00049036819739670112 -0.039920330222230405 -0.00049036819739670112 -3330.2979399655924 -0.039314267905865563 -0.039920330222230405 -0.039314267905865563 -9999.7802399167376 -3330.3463683700647 -0.00049036819739678439 -0.027894254109014582 -0.00049036819739678439 -3330.3419381621079 -0.037443802499183221 -0.027894254109014582 -0.037443802499183221 -9999.912234506286 -3330.3343063503271 -0.0080653379593485508 -0.029437457116728183 -0.0080653379593485508 -3330.321056679446 -0.033178840100845264 -0.029437457116728183 -0.033178840100845264 -9999.9039986306889 -3330.3266828798078 -0.0080653379593484398 -0.029721913622779539 -0.0080653379593484398 -3330.3134332089267 -0.043149987615834107 -0.029721913622779539 -0.043149987615834107 -9999.8811282191346 -3330.3620593677642 -0.0091124392177288627 -0.011478684329631506 -0.0091124392177288627 -3330.3423035322048 -0.010113260856087436 -0.011478684329631506 -0.010113260856087436 -9999.9198864811042 -3330.3166060181011 -0.0091124392177288627 -0.024364851884456584 -0.0091124392177288627 -3330.2968501825417 -0.011356606422850746 -0.024364851884456584 -0.011356606422850746 -9999.7835264321147 -3330.3122019558268 -0.011581910954906682 -0.020719534182717325 -0.011581910954906682 -3330.3029434101336 -0.017591293608347769 -0.020719534182717325 -0.017591293608347769 -9999.7839487234378 -3330.3744196401167 -0.016650601543976074 -0.0001273441594094038 -0.016650601543976074 -3330.369931948142 0.0012673936653300188 -0.0001273441594094038 0.0012673936653300188 -9999.9524780478459 -3330.3594639879866 -0.0083915692804835702 -0.013480566412908956 -0.0083915692804835702 -3330.3428266874926 -0.011538266673596809 -0.013480566412908956 -0.011538266673596809 -9999.9157305421104 -3330.380353090648 -0.01333448749585775 0.0033444385408074595 -0.01333448749585775 -3330.3597237169379 -0.0046704918304385501 0.0033444385408074595 -0.0046704918304385501 -9999.9514093526741 -3330.3613635390284 -0.010548950433068194 -0.012691715444816509 -0.010548950433068194 -3330.3404530274602 -0.01886842735530081 -0.012691715444816509 -0.01886842735530081 -9999.9543225075977 -3330.3663310213815 -0.0049235263439358357 -0.009994786881179607 -0.0049235263439358357 -3330.3556991290461 -0.028644910395087209 -0.009994786881179607 -0.028644910395087209 -9999.9468976883873 -3330.372276277456 -0.0039553972046850183 -0.0068706572710652836 -0.0039553972046850183 -3330.3605827245865 -0.034956132082015756 -0.0068706572710652836 -0.034956132082015756 -9999.9620831164866 -3330.3535665419822 -0.0048171042435714018 -0.0068767725715588313 -0.0048171042435714018 -3330.3257930037635 -0.016086195279058302 -0.0068767725715588313 -0.016086195279058302 -9999.9679208007365 -3330.3562009034576 -0.0036966555325534944 -0.0070206693089858163 -0.0036966555325534944 -3330.333422704749 -0.011719484584318707 -0.0070206693089858163 -0.011719484584318707 -9999.9704868163462 -3330.3455316300369 -0.0020329106897032378 -0.017964364313229453 -0.0020329106897032378 -3330.3218197226906 -0.025452443613176001 -0.017964364313229453 -0.025452443613176001 -9999.9457062041547 -3330.3474949551874 -0.0086900660979840616 -0.019620944252892514 -0.0086900660979840616 -3330.3358567423111 -0.020099662870052271 -0.019620944252892514 -0.020099662870052271 -9999.9420531088399 -3330.323146047951 -0.0059307569202813326 -0.019386112991924165 -0.0059307569202813326 -3330.3136692455282 -0.018960075078211958 -0.019386112991924165 -0.018960075078211958 -9999.9097946503534 -3330.3298350222849 0.00075402425420700858 -0.025362041909829713 0.00075402425420700858 -3330.3154550445634 -0.02726863642965327 -0.025362041909829713 -0.02726863642965327 -9999.9325377011774 -3330.3215852792946 0.00075402425420656449 -0.019027238955459325 0.00075402425420656449 -3330.307205301573 -0.029850517545128241 -0.019027238955459325 -0.029850517545128241 -9999.9077884721992 -3330.3313957909431 -0.0059307569202817767 -0.025720915953570511 -0.0059307569202817767 -3330.3219189885203 -0.016378193959099008 -0.025720915953570511 -0.016378193959099008 -9999.9345438793316 -3330.3385560640127 -0.0061302566746781473 -0.014908481240127003 -0.0061302566746781473 -3330.3295793439938 -0.014454453857069893 -0.014908481240127003 -0.014454453857069893 -9999.9576503564531 -3330.4865170997491 -0.051211448853184238 0.049224527767364634 -0.051211448853184238 -3329.962583358385 -0.27213267545630515 0.049224527767364634 -0.27213267545630515 -9999.3986442407695 -3330.2947062954481 -0.038404291509974153 -0.040767456655885326 -0.038404291509974153 -3330.3137162651128 -0.036268220346755697 -0.040767456655885326 -0.036268220346755697 -9999.7016631755105 -3330.3110785923473 -0.035551933736937269 -0.043833685119352594 -0.035551933736937269 -3330.3588119822216 -0.012643644229683559 -0.043833685119352594 -0.012643644229683559 -9999.7462164218559 -3330.35296241369 -0.011581910954906682 -0.0079203290315490449 -0.011581910954906682 -3330.3437038679967 -0.016427169741291436 -0.0079203290315490449 -0.016427169741291436 -9999.9062300970327 -3330.3575794671924 -0.011623952730348441 -0.010671669831936015 -0.011623952730348441 -3330.348590010035 -0.011493519959913101 -0.010671669831936015 -0.011493519959913101 -9999.9203381254192 -3330.3580728559245 -0.016099698633603388 -0.026303715649191872 -0.016099698633603388 -3330.3623576876307 0.0010207653467659838 -0.026303715649191872 0.0010207653467659838 -9999.9497234944574 -3330.372802230384 -0.010438614932295309 -0.026603243342833593 -0.010438614932295309 -3330.3662656166744 0.0013763623883278342 -0.026603243342833593 0.0013763623883278342 -9999.9543828203314 -3330.3399182883313 -0.014869228060405693 -0.031815013391678804 -0.014869228060405693 -3330.3390035786451 -0.020235001658875262 -0.031815013391678804 -0.020235001658875262 -9999.9017939933547 -3330.3295827203983 -0.011808174093100643 -0.010680330356990453 -0.011808174093100643 -3330.3418724165494 -0.014669687758214423 -0.010680330356990453 -0.014669687758214423 -9999.9312018852797 -3330.3406546438837 -0.012497840180345499 -0.012388885399559513 -0.012497840180345499 -3330.3596040404063 0.0026840256514333305 -0.012388885399559513 0.0026840256514333305 -9999.9598325462284 -3330.3409419926993 -0.011814870348390127 -0.014753598097740905 -0.011814870348390127 -3330.3608651997802 0.0041323515615658835 -0.014753598097740905 0.0041323515615658835 -9999.960219673274 -3330.3261392836794 -0.012631458970648157 -0.026837628676730674 -0.012631458970648157 -3330.3509568107038 0.00093917349659022875 -0.026837628676730674 0.00093917349659022875 -9999.9388898821635 -3330.3255729202465 -0.00056595909936540956 -0.017492305843916256 -0.00056595909936540956 -3330.3584063803573 -0.0089590157112979796 -0.017492305843916256 -0.0089590157112979796 -9999.9557627003014 -3330.3223660361618 -0.012537791914158269 -0.027447092084912583 -0.012537791914158269 -3330.3408551532575 -0.0044004759665767779 -0.027447092084912583 -0.0044004759665767779 -9999.9291433983963 -3330.3491924473692 -0.016105081172835933 -0.041982638006629713 -0.016105081172835933 -3330.3507011739293 -0.0066217779167345725 -0.041982638006629713 -0.0066217779167345725 -9999.9383115063683 -3330.3549387867824 -0.0088519427370542525 -0.035292084166940185 -0.0088519427370542525 -3330.3444475633114 -0.016107049188576639 -0.035292084166940185 -0.016107049188576639 -9999.9069101141358 -3330.3621181940998 0.0015361055977091143 -0.077338701410553767 0.0015361055977091143 -3330.3396036951453 0.0086528639130847296 -0.077338701410553767 0.0086528639130847296 -9999.8643362569201 -3330.3235097474299 -0.008042187215760499 -0.10563962154083129 -0.008042187215760499 -3330.3242608729288 -0.035509521710991976 -0.10563962154083129 -0.035509521710991976 -9999.7115001904604 -3330.2824317349314 -0.023613012753844975 -0.081224343290159595 -0.023613012753844975 -3330.3146584994247 -0.064495157790588564 -0.081224343290159595 -0.064495157790588564 -9999.6988300939593 -3330.3365385235811 -0.026014839329206341 -0.13040065570203296 -0.026014839329206341 -3330.3261489791548 -0.028730071931931889 -0.13040065570203296 -0.028730071931931889 -9999.8271646113099 -3330.3194195207943 -0.016105081172836155 -0.064714570128671767 -0.016105081172836155 -3330.3209282473545 -0.0063344105037685949 -0.064714570128671767 -0.0063344105037685949 -9999.8489927266419 -3330.2888554779674 0.0022680082477009034 -0.048454749634402106 0.0022680082477009034 -3330.3266957181804 -0.016868955746758729 -0.048454749634402106 -0.016868955746758729 -9999.8792923233195 -3330.3071926054563 -0.012537791914158269 -0.043863266277185176 -0.012537791914158269 -3330.325681722552 -0.0063938574994608643 -0.043863266277185176 -0.0063938574994608643 -9999.8836231062814 -3330.2312808020361 -0.0077059724331141055 -0.09402927906558034 -0.0077059724331141055 -3330.2857455284302 -0.023171848646143189 -0.09402927906558034 -0.023171848646143189 -9999.7907493182429 -3330.2522858840657 -0.015388928321575013 -0.08181909213635663 -0.015388928321575013 -3330.299660774921 -0.0089482998118910473 -0.08181909213635663 -0.0089482998118910473 -9999.8268924493532 -3330.3126998448934 -0.011265490010636703 -0.038832882967653859 -0.011265490010636703 -3330.3277936518552 -0.0094748383453406859 -0.038832882967653859 -0.0094748383453406859 -9999.8855278984702 -3330.2722864044517 -0.0077059724331141055 -0.036430567808565684 -0.0077059724331141055 -3330.3267511308459 0.0086021811935097503 -0.036430567808565684 0.0086021811935097503 -9999.9137661254936 -3330.3247587804999 -0.0091368442480724843 -0.020028790308060707 -0.0091368442480724843 -3330.3215738639465 -0.0014434871191042475 -0.020028790308060707 -0.0014434871191042475 -9999.9255899027812 -3329.8439841092149 0.077396294570141522 -0.1871025955888399 0.077396294570141522 -3330.1285038444748 -0.036047362473254907 -0.1871025955888399 -0.036047362473254907 -9999.6499135613667 -3330.2527041172825 0.0090090828209443696 -0.039176387384941336 0.0090090828209443696 -3330.3353161052846 0.0023378157129627652 -0.039176387384941336 0.0023378157129627652 -9999.9110117973105 -3330.2705608011565 -0.2471332718491166 0.0027164656003151322 -0.2471332718491166 -3329.9540460867684 -0.31648545263669803 0.0027164656003151322 -0.31648545263669803 -9999.2800280480333 -3330.3346580585085 -0.026014839329206785 -0.13053116787341423 -0.026014839329206785 -3330.3242685140822 -0.027402195421018405 -0.13053116787341423 -0.027402195421018405 -9999.8215232160946 -3330.4546595864931 0.04383408870002492 -0.19150481459564617 0.04383408870002492 -3330.4977874407223 0.044985262791669811 -0.19150481459564617 0.044985262791669811 -9999.8949033297504 -3329.9517934188607 -0.35861606241968058 0.20571314403241558 -0.35861606241968058 -3330.1385182710455 -0.18535031023202464 0.20571314403241558 -0.18535031023202464 -9999.5540898082181 -3330.3114111681207 0.014296933362174524 -0.037482789961359231 0.014296933362174524 -3330.3229905066128 -0.057805123813523096 -0.037482789961359231 -0.057805123813523096 -9999.820093154307 -3330.2870469797708 0.0099985853319246587 0.0065685052613844164 0.0099985853319246587 -3330.2864886405332 0.03875474111555377 0.0065685052613844164 0.03875474111555377 -9999.9088746968118 -3330.2678235367002 0.047225498234753749 0.015850882671657018 0.047225498234753749 -3330.3278706259389 0.0089424231432531087 0.015850882671657018 0.0089424231432531087 -9999.9129302823276 -3330.2550110543079 0.030738440133032285 0.0028647635663219262 0.030738440133032285 -3330.2239286009553 0.026539699025306618 0.0028647635663219262 0.026539699025306618 -9999.8837416554816 -3329.8994198271794 -0.062539104493749553 0.22854594735508726 -0.062539104493749553 -3330.4649430743202 0.11249984691789905 0.22854594735508726 0.11249984691789905 -9999.8124351105907 -3330.325665848015 -0.004966531343338465 0.073933527371991659 -0.004966531343338465 -3330.3043044727929 0.048178031025599921 0.073933527371991659 0.048178031025599921 -9999.9229833719364 -3330.2519771637672 0.0066975174577812435 -0.035249494878371479 0.0066975174577812435 -3330.3134528884493 -0.01528400480037817 -0.035249494878371479 -0.01528400480037817 -9999.866762037338 -3330.2734114924097 0.0099985853319246587 -0.050365170500299428 0.0099985853319246587 -3330.272853153172 -0.018370941405009944 -0.050365170500299428 -0.018370941405009944 -9999.8679682347247 -3330.3117169131638 -0.0091368442480731504 -0.074096595337323379 -0.0091368442480731504 -3330.3085319966103 -0.047378271690831752 -0.074096595337323379 -0.047378271690831752 -9999.8864643007728 -3330.2929748629958 -0.0015629415025324445 -0.027680900730047142 -0.0015629415025324445 -3330.3206722278264 -0.0051474813335516956 -0.027680900730047142 -0.0051474813335516956 -9999.8865679123555 -3330.2606009282445 0.0099603480122938404 -0.03920278133591637 0.0099603480122938404 -3330.3104357685643 -0.0099269715028640348 -0.03920278133591637 -0.0099269715028640348 -9999.8681636984838 -3330.3602515966486 0.0045691518090418271 -0.016947255666309502 0.0045691518090418271 -3330.3023181022872 -0.01369630923090881 -0.016947255666309502 -0.01369630923090881 -9999.8970444980623 -3330.3122030906907 -0.0016764127026749343 -0.0020315544097684324 -0.0016764127026749343 -3330.326787603075 -0.0015595477234455757 -0.0020315544097684324 -0.0015595477234455757 -9999.8929038130955 -3330.2884243055869 -0.004966531343338465 0.028561771074237186 -0.004966531343338465 -3330.2670629303648 -0.017195878879647353 0.028561771074237186 -0.017195878879647353 -9999.8112587446522 -3330.3263465384898 -0.0016764127026749343 0.0076696423857356422 -0.0016764127026749343 -3330.3409310508741 0.0021322438296920154 0.0076696423857356422 0.0021322438296920154 -9999.9353341564856 -3330.313222895642 -0.0015629415025326665 -0.017868321916466812 -0.0015629415025326665 -3330.3409202604726 -0.0018743073196674231 -0.017868321916466812 -0.0018743073196674231 -9999.9473120102994 -3330.3360485236899 -0.011265490010636925 -0.02187486176717357 -0.011265490010636925 -3330.3511423306518 -0.0067715701552515384 -0.02187486176717357 -0.0067715701552515384 -9999.955573934858 -3330.3328390583283 -0.0016768230851431642 -0.0044839174988737796 -0.0016768230851431642 -3330.3557105480704 0.0068808269534201827 -0.0044839174988737796 0.0068808269534201827 -9999.964726084836 -3330.3249856936909 0.0047936763149338812 -0.012353109319519717 0.0047936763149338812 -3330.356494486774 -0.008342187441940041 -0.012353109319519717 -0.008342187441940041 -9999.9551379202676 -3330.3320548088814 -0.0022560071947654858 -0.0009977823865483515 -0.0022560071947654858 -3330.3471280915292 0.00048561152516413131 -0.0009977823865483515 0.00048561152516413131 -9999.9535719463747 -3330.3152979618535 -0.00037507021540172936 -0.01833149577214499 -0.00037507021540172936 -3330.3458795950501 -0.00024097452842397615 -0.01833149577214499 -0.00024097452842397615 -9999.9500622643827 -3330.324927223186 -0.0034394182866468448 -0.012619716060726205 -0.0034394182866468448 -3330.3538735936618 0.0057427587635174859 -0.012619716060726205 0.0057427587635174859 -9999.962288887451 -3330.3314446815857 0.005110031363137077 0.0030401934818655718 0.005110031363137077 -3330.3446615121902 -0.00056623345972184325 0.0030401934818655718 -0.00056623345972184325 -9999.9496697863506 -3330.3306712807716 0.002129742517796851 0.0070200596637732815 0.002129742517796851 -3330.3387210921665 -0.0050739066882670159 0.0070200596637732815 -0.0050739066882670159 -9999.9358628523769 -3330.3234903103003 0.0045538842298362692 0.0072244193834194448 0.0045538842298362692 -3330.335468480338 -0.0048890549660427496 0.0072244193834194448 -0.0048890549660427496 -9999.9332544568024 -3330.3258656091984 0.0030226002427660437 0.011460711848485516 0.0030226002427660437 -3330.3312902502657 0.00030614375737059163 0.011460711848485516 0.00030614375737059163 -9999.9212937532866 -3330.327328436988 0.0093448676403897341 0.012186881384650405 0.0093448676403897341 -3330.3314720709823 -0.0084379913241718896 0.012186881384650405 -0.0084379913241718896 -9999.9217049154104 -3330.3417614300997 0.004696864037926224 0.014882603940350236 0.004696864037926224 -3330.3323727748484 -0.0054098195832921192 0.014882603940350236 -0.0054098195832921192 -9999.9255383396594 -3330.331564339851 0.010866039785134465 0.0032382411336584482 0.010866039785134465 -3330.3411223056573 -0.0029510146405300475 0.0032382411336584482 -0.0029510146405300475 -9999.9488148992823 -3330.3335066932486 0.010421367689403813 0.003033992554719589 0.010421367689403813 -3330.3403918169752 0.001251274959940929 0.003033992554719589 0.001251274959940929 -9999.957590018792 -3330.3461886303867 0.0084163530690155586 0.0073570785025367513 0.0084163530690155586 -3330.3422460644069 -0.0043214426350459689 0.0073570785025367513 -0.0043214426350459689 -9999.9527519116018 -3330.3258730798989 0.017005717150701007 0.00034361831058049574 0.017005717150701007 -3330.3273073969631 -0.0084468308541545412 0.00034361831058049574 -0.0084468308541545412 -9999.9439383571225 -3330.3312551546042 0.011291701991271275 0.00043585136927504209 0.011291701991271275 -3330.3400968398273 -0.0072613305237609893 0.00043585136927504209 -0.0072613305237609893 -9999.9484812365117 -3330.3222961673382 0.008666432790948253 -0.0052968783784308471 0.008666432790948253 -3330.3385547502203 -0.0015286008165276144 -0.0052968783784308471 -0.0015286008165276144 -9999.945855967293 -3330.3297235570553 0.0059879432996936544 -0.0094701124107814394 0.0059879432996936544 -3330.3556178355393 -0.0098521837767293619 -0.0094701124107814394 -0.0098521837767293619 -9999.959362369671 -3330.328015449024 0.0070346992162306776 -0.0079276929463958368 0.0070346992162306776 -3330.3485258783257 -0.0072664884792175144 -0.0079276929463958368 -0.0072664884792175144 -9999.9571623533557 -3330.3378782459549 0.0029633381083000732 -0.0033417887170799077 0.0029633381083000732 -3330.3633405703695 -0.006829607613326516 -0.0033417887170799077 -0.006829607613326516 -9999.9678933873147 -3330.3221208132218 0.0088399206326443824 0.0017993703149841167 0.0088399206326443824 -3330.3385068114676 -0.0016886087541934103 0.0017993703149841167 -0.0016886087541934103 -9999.9458001440798 -3330.3303160512496 0.0073273417783199513 -0.0052469793663476594 0.0073273417783199513 -3330.3510451757229 -0.010023448598076357 -0.0052469793663476594 -0.010023448598076357 -9999.9629289899822 -3330.3299404955869 0.0059514326294090036 -0.0055553825441165827 0.0059514326294090036 -3330.3508374146768 -0.010016494648880325 -0.0055553825441165827 -0.010016494648880325 -9999.9627831608013 -3330.3303261167894 0.00062476401652777902 -0.014604026851884555 0.00062476401652777902 -3330.3575357826303 -0.010468378069163009 -0.014604026851884555 -0.010468378069163009 -9999.9599924963695 -3330.3376231005113 0.0042256272925011995 -0.010246954909234773 0.0042256272925011995 -3330.3628725450344 -0.016352072790596139 -0.010246954909234773 -0.016352072790596139 -9999.9631509329047 -3330.3357972298199 0.0095704412968552338 -0.0036140671018074499 0.0095704412968552338 -3330.350887065908 -0.01158011429652106 -0.0036140671018074499 -0.01158011429652106 -9999.959698095452 -3330.3116187079104 0.0049279721826649414 -0.030841208925266983 0.0049279721826649414 -3330.3495065860807 -0.015556555772946012 -0.030841208925266983 -0.015556555772946012 -9999.9348971820655 -3330.3279500135886 0.01381065598208002 -0.0028674552304437384 0.01381065598208002 -3330.3295318924083 -0.0081363966273784172 -0.0028674552304437384 -0.0081363966273784172 -9999.9525371254131 -3330.3333743166459 0.010895053684166822 -0.0030603743784922699 0.010895053684166822 -3330.3442240699496 -0.010616046773066046 -0.0030603743784922699 -0.010616046773066046 -9999.9575662455682 -3330.333785096358 0.0096126685783576374 -0.00097949184782919474 0.0096126685783576374 -3330.3268352567611 -0.0087851210537337465 -0.00097949184782919474 -0.0087851210537337465 -9999.9533217371936 -3330.3198106803702 0.015403104165379388 -0.00044725921179633588 0.015403104165379388 -3330.326528863292 -0.0078704451825615251 -0.00044725921179633588 -0.0078704451825615251 -9999.9490219691652 -3330.3460756303084 0.0067529578359493692 -0.012157168173871469 0.0067529578359493692 -3330.3370789652054 -0.0069091582918190397 -0.012157168173871469 -0.0069091582918190397 -9999.9681527330031 -3330.3393796925484 0.0086123334148257569 -0.016379337941543781 0.0086123334148257569 -3330.3289157220133 -0.015646425108570838 -0.016379337941543781 -0.015646425108570838 -9999.9552405025606 -3330.3485127973672 0.0045005796281337995 -0.026869797324252431 0.0045005796281337995 -3330.3560922012184 -0.039089736426831223 -0.026869797324252431 -0.039089736426831223 -9999.9643178985643 -3330.3432877890409 0.0019149585872374753 -0.02402298036031425 0.0019149585872374753 -3330.3486405368167 -0.028183292150060879 -0.02402298036031425 -0.028183292150060879 -9999.939372232242 -3330.370297867581 -0.010217602641884704 -0.024413457496848423 -0.010217602641884704 -3330.368759162995 0.0015514267506659962 -0.024413457496848423 0.0015514267506659962 -9999.9511544084235 -3330.352493668026 0.0021552568929296134 -0.035586059690103866 0.0021552568929296134 -3330.3624372807899 -0.015225345287035452 -0.035586059690103866 -0.015225345287035452 -9999.948348595768 -3330.3469423843308 0.0041465310477228901 -0.032739306185249006 0.0041465310477228901 -3330.3601164173051 -0.013836097675493875 -0.032739306185249006 -0.013836097675493875 -9999.9431548511857 -3330.352316104194 0.0067025764961951007 -0.037107078816916328 0.0067025764961951007 -3330.3625808324741 -0.022239027608975448 -0.037107078816916328 -0.022239027608975448 -9999.9668908830863 -3330.3417067089904 0.0027997000863495269 -0.031057887323186151 0.0027997000863495269 -3330.3510152805593 -0.034160215873271227 -0.031057887323186151 -0.034160215873271227 -9999.9520488633643 -3330.3293048660853 0.0094045488612819472 -0.024001038809728925 0.0094045488612819472 -3330.3232708758605 -0.018390086970612174 -0.024001038809728925 -0.018390086970612174 -9999.9420123014643 -3330.3065400116811 0.0022680082477011254 -0.032868272599444026 0.0022680082477011254 -3330.3443802518941 -0.012819253293855581 -0.032868272599444026 -0.012819253293855581 -9999.9323459244624 -3330.3258072324643 0.0074091296678147067 -0.020798357887542807 0.0074091296678147067 -3330.3539912794822 -0.023377444753350574 -0.020798357887542807 -0.023377444753350574 -9999.9581162769027 -3330.1963256090057 -0.0043645926763296039 -0.095538371766451746 -0.0043645926763296039 -3330.2825554731662 -0.023217919189391978 -0.095538371766451746 -0.023217919189391978 -9999.8086260551499 -3330.2804922732812 0.026837568941117995 -0.056832072168617742 0.026837568941117995 -3330.340736712893 -0.05244826069406372 -0.056832072168617742 -0.05244826069406372 -9999.8918679210437 -3330.2226637344556 0.0090090828209443696 -0.090849286198135815 0.0090090828209443696 -3330.3052757224577 -0.029549957860581344 -0.090849286198135815 -0.029549957860581344 -9999.8208906488326 -3330.3148519071183 0.011291701991271608 -0.012087392698504118 0.011291701991271608 -3330.3236935923414 -0.015105482656508684 -0.012087392698504118 -0.015105482656508684 -9999.8992714940614 -3330.319538821117 0.014352760372327689 -0.035421248845523223 0.014352760372327689 -3330.3483912704069 -0.028310081912422902 -0.035421248845523223 -0.028310081912422902 -9999.9066176420747 -3330.3063946205766 0.0074091296678149288 -0.033690328822558513 0.0074091296678149288 -3330.3345786675945 -0.030647478476112155 -0.033690328822558513 -0.030647478476112155 -9999.8998784412397 -3330.3417733856913 0.0093335126216362932 0.011459773701062659 0.0093335126216362932 -3330.3098706449728 -0.02261655944676022 0.011459773701062659 -0.02261655944676022 -9999.8994716821653 -3330.2367721100054 0.032943362928388044 0.018788529459925485 0.032943362928388044 -3330.2785023696997 -0.012218890793519677 0.018788529459925485 -0.012218890793519677 -9999.85567717296 -3330.3082400545336 0.017005717150700837 -0.0034053210256388411 0.017005717150700837 -3330.3096743715978 -0.017508753768197494 -0.0034053210256388411 -0.017508753768197494 -9999.8910392810358 -3330.3119211917765 0.029075125642664248 -0.0031170549523267255 0.029075125642664248 -3330.3285503619081 -0.01380357980451663 -0.0031170549523267255 -0.01380357980451663 -9999.8966785629236 -3330.288496900057 0.02534717404553477 -0.03397748422321456 0.02534717404553477 -3330.2818044607266 -0.042860842415393563 -0.03397748422321456 -0.042860842415393563 -9999.8791360146934 -3330.2766398986405 0.033337322627401578 -0.045011311634880258 0.033337322627401578 -3330.2646349986971 -0.052049303725652862 -0.045011311634880258 -0.052049303725652862 -9999.8564179212844 -3330.3195553212809 0.0094045488612820582 -0.020926004417560762 0.0094045488612820582 -3330.3135213310561 -0.024165205173630966 -0.020926004417560762 -0.024165205173630966 -9999.9127636670528 -3330.308813068672 0.016052538438183946 -0.057833516289974796 0.016052538438183946 -3330.3409282834946 -0.09617255796547397 -0.057833516289974796 -0.09617255796547397 -9999.8989960125436 -3330.3073941576076 0.019009207727726241 -0.063157827474242367 0.019009207727726241 -3330.3518219016405 -0.092601810027190368 -0.063157827474242367 -0.092601810027190368 -9999.8859032117616 -3330.2822243153805 0.0027997000863494714 -0.04610651444272662 0.0027997000863494714 -3330.2915328869494 -0.039110702455218416 -0.04610651444272662 -0.039110702455218416 -9999.7736016825402 -3330.3141783289193 -0.0088519427370543635 -0.048091289319927455 -0.0088519427370543635 -3330.3036871054483 -0.017271173057451961 -0.048091289319927455 -0.017271173057451961 -9999.7846287405446 -3330.3489081334483 0.0096790682860535271 -0.094618036906467751 0.0096790682860535271 -3330.3353727739741 -0.023282162423129193 -0.094618036906467751 -0.023282162423129193 -9999.8599760114594 -3330.3348310387028 0.030542025307208842 -0.085618016610169434 0.030542025307208842 -3330.3593045845882 -0.050438881002833114 -0.085618016610169434 -0.050438881002833114 -9999.910094580322 -3330.2891143974084 0.0067025764961952117 -0.053406578936119331 0.0067025764961952117 -3330.2993791256886 -0.02709469397882458 -0.053406578936119331 -0.02709469397882458 -9999.7772857627278 -3330.3860609327976 0.082990741448747074 -0.23493431091264938 0.082990741448747074 -3330.3645277067035 -0.035279519921459723 -0.23493431091264938 -0.035279519921459723 -9999.84443873282 -3330.2779327960243 -0.008042187215760388 -0.094999436290891026 -0.008042187215760388 -3330.2786839215232 -0.083390091775072506 -0.094999436290891026 -0.083390091775072506 -9999.57476933625 -3330.2144528316467 0.030542025307208842 -0.093382771332471748 0.030542025307208842 -3330.2389263775322 -0.080402231614016273 -0.093382771332471748 -0.080402231614016273 -9999.5489599591565 -3330.3302019316443 0.0067460695860381281 -0.089215830189459666 0.0067460695860381281 -3330.3522005205423 -0.15261701550298312 -0.089215830189459666 -0.15261701550298312 -9999.912325733796 -3330.3256751943427 0.033337322627401689 -0.055935159931323142 0.033337322627401689 -3330.3136702943993 -0.073157297851139447 -0.055935159931323142 -0.073157297851139447 -10000.003523808395 -3330.2905195167295 0.032027550496359317 -0.13572679253047681 0.032027550496359317 -3330.300614678712 -0.25655631216250185 -0.13572679253047681 -0.25655631216250185 -9999.8895086696102 -3330.1932005415729 0.019009207727726157 -0.070482367888871522 0.019009207727726157 -3330.2376282856058 -0.11809661666302418 -0.070482367888871522 -0.11809661666302418 -9999.5433223636574 -3330.346583362254 0.010226574169036343 0.0080220903853387426 0.010226574169036343 -3330.4362143470589 0.030848686046738294 0.0080220903853387426 0.030848686046738294 -9999.9374245480794 -3330.2971863522635 0.043362868760766046 0.0031842130683799041 0.043362868760766046 -3330.3065928063043 -0.031334064162365394 0.0031842130683799041 -0.031334064162365394 -9999.892669910394 -3330.1801771553683 0.093409866036609279 0.04290560977824498 0.093409866036609279 -3330.205210355588 0.0057947890982177341 0.04290560977824498 0.0057947890982177341 -9999.8027746248918 -3330.2248004902285 0.043373160011483815 0.10470388799876673 0.043373160011483815 -3330.2903821021291 -0.066217311209584295 0.10470388799876673 -0.066217311209584295 -9999.8705207688399 -3330.2373245961353 0.01064228400018874 -0.041290716908406466 0.01064228400018874 -3330.4858483233138 -0.056901713314346125 -0.041290716908406466 -0.056901713314346125 -9999.9849534407695 -3330.3244477700246 0.03901179932970289 0.016528202555264215 0.03901179932970289 -3330.3357835746265 -0.00024196076628868468 0.016528202555264215 -0.00024196076628868468 -9999.9692180470702 -3329.9894764394985 0.01776471378333988 -0.22824453588509641 0.01776471378333988 -3330.2218921458125 -0.03574649428446719 -0.22824453588509641 -0.03574649428446719 -9999.7096337192743 -3330.3075320878434 0.026837568941118217 -0.04856796060630586 0.026837568941118217 -3330.3677765274551 -0.047074682466927698 -0.04856796060630586 -0.047074682466927698 -9999.9729873647302 -3330.3321491212455 -0.0090137264308185472 0.073863055116817122 -0.0090137264308185472 -3330.3218872459211 0.047066662640645518 0.073863055116817122 0.047066662640645518 -9999.9289998835266 -3330.292933052252 0.018778294880310797 0.020180734074529028 0.018778294880310797 -3330.3454696438957 0.020309034286583483 0.020180734074529028 0.020309034286583483 -9999.9250914657714 -3330.4488195457016 -0.068899260332508039 0.097404573631138192 -0.068899260332508039 -3330.3841493006257 0.082302201069978764 0.097404573631138192 0.082302201069978764 -9999.8858705349412 -3330.245657678227 0.052766301019823825 0.033444266862716177 0.052766301019823825 -3330.4695916711235 -0.01715802498983976 0.033444266862716177 -0.01715802498983976 -9999.9829725482414 -3330.2778934261842 0.027669357689870333 0.036642829776610597 0.027669357689870333 -3330.3060326164014 0.047905913328577299 0.036642829776610597 0.047905913328577299 -9999.9114723023813 -3330.2962878233002 -0.010372779268046431 0.048159872967517003 -0.010372779268046431 -3330.2917273419926 0.037758355828827916 0.048159872967517003 0.037758355828827916 -9999.8246321146835 -3330.0551143704224 0.1496326012836513 0.17465747485402972 0.1496326012836513 -3330.3083425584182 0.18426000228828343 0.17465747485402972 0.18426000228828343 -9999.6459101538094 -3330.308826272716 0.0030226002427659882 0.011772866842875374 0.0030226002427659882 -3330.3142509137833 -0.00075372693845565664 0.011772866842875374 -0.00075372693845565664 -9999.870175743843 -3330.2949075788165 -0.0090137264308187692 0.028491298820881639 -0.0090137264308187692 -3330.2846457034921 -0.018307247268239735 0.028491298820881639 -0.018307247268239735 -9999.8172752562423 -3330.278816794611 -0.010372779268046375 0.046070897025856539 -0.010372779268046375 -3330.2742563133033 -0.018880380250720918 0.046070897025856539 -0.018880380250720918 -9999.7722190286186 -3330.3324126829029 -0.018847448894958596 0.016651964870106895 -0.018847448894958596 -3330.2922567194455 -0.029016408903771662 0.016651964870106895 -0.029016408903771662 -9999.8285542862504 -3330.30777520431 0.0059879432996938764 -0.020457265272852965 0.0059879432996938764 -3330.333669482794 -0.014936110631879274 -0.020457265272852965 -0.014936110631879274 -9999.8935173114296 -3330.3093468625011 0.0045538842298364912 -0.002476777408446651 0.0045538842298364912 -3330.3213250325389 -0.0085808465191803407 -0.002476777408446651 -0.0085808465191803407 -9999.8908241134122 -3330.2825907832394 0.018778294880310353 -0.022239057576371124 0.018778294880310353 -3330.3351273748831 -0.026727899142315437 -0.022239057576371124 -0.026727899142315437 -9999.8940646587289 -3330.3033013280346 0.008666432790948253 -0.016477900026075076 0.008666432790948253 -3330.3195599109167 -0.0082651458069449291 -0.016477900026075076 -0.0082651458069449291 -9999.8888714493878 -3330.2574596883787 0.027669357689870333 0.0053072537011757959 0.027669357689870333 -3330.2855988785959 0.0057263518938270863 0.0053072537011757959 0.0057263518938270863 -9999.8501710889614 -3330.3017066038483 0.0083299636407621058 -0.014103439050813904 0.0083299636407621058 -3330.324991942065 -0.013089436317386571 -0.014103439050813904 -0.013089436317386571 -9999.8963097556771 -3330.2525276283741 0.023547801544078872 0.018605317371111596 0.023547801544078872 -3330.2837092223199 0.0054265039234451251 0.018605317371111596 0.0054265039234451251 -9999.8484656598921 -3330.2862588828502 0.043362868760766234 0.0097171162415179424 0.043362868760766234 -3330.295665336891 -0.010554214774856518 0.0097171162415179424 -0.010554214774856518 -9999.8598875021526 -3330.2885462645481 0.039011799329702557 0.01057400183867685 0.039011799329702557 -3330.29988206915 0.00045960379065945745 0.01057400183867685 0.00045960379065945745 -9999.8615135306427 -3330.3386186791286 0.016697809602268743 0.024951196741312742 0.016697809602268743 -3330.3421945634509 -0.0015933745507936692 0.024951196741312742 -0.0015933745507936692 -9999.8846097578607 -3330.3601840911633 -0.041283568343212167 0.049467820706922794 -0.041283568343212167 -3330.3331618774428 -0.034345776126428973 0.049467820706922794 -0.034345776126428973 -9999.8072872437879 -3330.302067977771 0.0093448676403897479 0.021344072187957863 0.0093448676403897479 -3330.3062116117653 -0.015999386061594123 0.021344072187957863 -0.015999386061594123 -9999.8459235377632 -3330.2821472137512 -0.0072618160669050275 0.047535505632367858 -0.0072618160669050275 -3330.2823247018605 -0.036516393383863033 0.047535505632367858 -0.036516393383863033 -9999.7750687305379 -3330.3234085505665 0.023488825531182325 0.011470095019831206 0.023488825531182325 -3330.344934850853 0.0028920851955263061 0.011470095019831206 0.0028920851955263061 -9999.8814922975725 -3330.2247817588004 0.27763848401244801 0.12596364754972456 0.27763848401244801 -3330.0001795349854 0.19524498284590663 0.12596364754972456 0.19524498284590663 -9999.4632631232271 -3330.2670953180123 -0.037590076967516831 0.045544247981524677 -0.037590076967516831 -3330.2209695734828 0.069254276564606698 0.045544247981524677 0.069254276564606698 -9999.7996445462268 -3330.2670176468519 -0.0072618160669050205 0.030905563967280614 -0.0072618160669050205 -3330.2671951349612 0.037038714021036867 0.030905563967280614 0.037038714021036867 -9999.7296800298391 -3330.4514183524379 0.050921901839403871 0.11040766269297819 0.050921901839403871 -3330.2766625841687 0.045500179316150025 0.11040766269297819 0.045500179316150025 -9999.8884479813059 -3330.2913068339958 0.016697809602268632 0.0079688049609103473 0.016697809602268632 -3330.2948827183181 0.044670279408819624 0.0079688049609103473 0.044670279408819624 -9999.7426742224634 -3330.4842226383398 0.07637756501415649 0.093230406865586701 0.07637756501415649 -3330.4890234681288 -0.012279495557777409 0.093230406865586701 -0.012279495557777409 -9999.9497392737721 -3330.3012790719558 0.0027987053504354709 0.016343888049959787 0.0027987053504354709 -3330.2894108656083 0.072841809413148439 0.016343888049959787 0.072841809413148439 -9999.7437993187777 -3330.2692183487015 -0.020136462078440553 -0.03331583089857304 -0.020136462078440553 -3330.2908753718821 0.063843162695775391 -0.03331583089857304 0.063843162695775391 -9999.7361502645326 -3330.2777568870088 -0.013643917753682233 -0.0018864238882088102 -0.013643917753682233 -3330.2829812015361 0.00020266395767976064 -0.0018864238882088102 0.00020266395767976064 -9999.7363113565225 -3330.5801844444977 -0.017284941334800741 -0.11683727528361487 -0.017284941334800741 -3329.9256562762266 0.21187789010036795 -0.11683727528361487 0.21187789010036795 -9999.6690283704047 -3330.3180839449542 -0.01654594980948737 0.0074164576126349857 -0.01654594980948737 -3330.370171798173 -0.025411915175936883 0.0074164576126349857 -0.025411915175936883 -9999.8678945170323 -3330.3176383857572 -0.013643917753682233 0.029609391895064618 -0.013643917753682233 -3330.3228627002845 -0.070349746994907036 0.029609391895064618 -0.070349746994907036 -9999.8559558527595 -3330.32026430523 0.0035105583529277951 0.012509758744272403 0.0035105583529277951 -3330.3072146094473 -0.025923188597516855 0.012509758744272403 -0.025923188597516855 -9999.8507233690507 -3330.3161512792467 0.0011486408576171225 0.0029026731826888863 0.0011486408576171225 -3330.2997445483597 -0.0064700784569140524 0.0029026731826888863 -0.0064700784569140524 -9999.8478275972775 -3330.317111244889 -0.00054614074620096265 0.017744632670655847 -0.00054614074620096265 -3330.3008642171026 -0.0037806240488862386 0.017744632670655847 -0.0037806240488862386 -9999.8483475058783 -3330.3114727913744 0.0084163530690155586 0.014763085822778521 0.0084163530690155586 -3330.3075302253947 -0.013809746809783974 0.014763085822778521 -0.013809746809783974 -9999.8486043945704 -3330.3460092531222 0.0027859042873958906 0.037214511883576051 0.0027859042873958906 -3330.3116983190866 -0.014326627677291981 0.037214511883576051 -0.014326627677291981 -9999.8912854460832 -3330.3564687790786 -0.0017814909634191745 0.041878891918713634 -0.0017814909634191745 -3330.3383585341599 0.0013630939356517047 0.041878891918713634 0.0013630939356517047 -9999.9005653813401 -3330.3241165126292 0.0027987053504355819 0.050714365539533901 0.0027987053504355819 -3330.3122483062816 0.014735788263351424 0.050714365539533901 0.014735788263351424 -9999.8123116407951 -3330.292055789374 -0.020136462078440331 0.0010546465891820844 -0.020136462078440331 -3330.3137128125545 0.0057371415441593854 0.0010546465891820844 0.0057371415441593854 -9999.80466258655 -3330.2969486248767 -0.0050998987157715447 0.042974290401616599 -0.0050998987157715447 -3330.3078217778093 0.022475863404906704 0.042974290401616599 0.022475863404906704 -9999.804413036738 -3330.3282640189718 -0.2194117906235078 -0.073221557451688568 -0.2194117906235078 -3330.0148104814734 0.21333633255562745 -0.073221557451688568 0.21333633255562745 -9999.5233104249382 -3329.9140739643826 0.11317079035750122 0.1211321196424251 0.11317079035750122 -3330.1008767238882 0.025997365766670555 0.1211321196424251 0.025997365766670555 -9999.7101654192193 -3330.3298727605279 -0.0090292017726981699 0.068938723903102073 -0.0090292017726981699 -3330.3017462787311 0.012012187426080345 0.068938723903102073 0.012012187426080345 -9999.8643325069643 -3330.2766796209662 0.01044028631659355 -0.0097998612727678847 0.01044028631659355 -3330.3012456607821 -0.030703914423611423 -0.0097998612727678847 -0.030703914423611423 -9999.946548246764 -3330.3129771256854 -0.010516087894950399 0.0030118371614662465 -0.010516087894950399 -3330.296367462277 -0.0085134017362520353 0.0030118371614662465 -0.0085134017362520353 -9999.9544030733159 -3330.3053297693177 0.024457505077140951 0.0059180142379773315 0.024457505077140951 -3330.3220307028669 -0.045599007195050945 0.0059180142379773315 -0.045599007195050945 -10000.000527554253 -3330.2881472218005 0.013431308931322827 0.003157240813379758 0.013431308931322827 -3330.315822903739 -0.04027334814236383 0.003157240813379758 -0.04027334814236383 -9999.9946799675927 -3330.2980667802858 0.025113415700728892 -0.076173091070813825 0.025113415700728892 -3330.2784378627894 -0.099129624639317626 -0.076173091070813825 -0.099129624639317626 -9999.9535519861347 -3330.2829929385716 -0.00089663210627777268 -0.066199204307849868 -0.00089663210627777268 -3330.3860103109855 -0.052514958822939661 -0.066199204307849868 -0.052514958822939661 -10000.010938248601 -3330.3136079115147 0.014852896919156144 -0.047615428295102902 0.014852896919156144 -3330.3152410280791 -0.059567257858475386 -0.047615428295102902 -0.059567257858475386 -9999.9666380602648 -3330.1653282411271 0.060172473640910495 -0.056395986915958929 0.060172473640910495 -3330.2777420104121 -0.038934068641538033 -0.056395986915958929 -0.038934068641538033 -9999.9544549990933 -3329.9709428821852 -0.38819054733734726 -0.23729747411380231 -0.38819054733734726 -3330.1495137498241 0.1086018652022176 -0.23729747411380231 0.1086018652022176 -9999.6824326779715 -3330.3396730149816 0.0040918371279069499 -0.025179608067446679 0.0040918371279069499 -3330.2902498242474 -0.021824413473950699 -0.025179608067446679 -0.021824413473950699 -9999.9595476361319 -3330.3220181721854 0.015984330292366788 -0.043713472814488341 0.015984330292366788 -3330.2553140252903 -0.065578893161728047 -0.043713472814488341 -0.065578893161728047 -9999.9537588747335 -3330.252267340089 0.054555526930697651 -0.033616376073041465 0.054555526930697651 -3330.1118469222911 -0.036437324439248187 -0.033616376073041465 -0.036437324439248187 -9999.8930954919197 -3330.3166780271695 -0.0075740141998692501 0.0064921669218165334 -0.0075740141998692501 -3330.3104869981362 -0.0060302155034150928 0.0064921669218165334 -0.0060302155034150928 -9999.9048518717209 -3330.2985090823058 0.015984330292366566 0.016227263835389749 0.015984330292366566 -3330.2318049354108 0.00084378029350773431 0.016227263835389749 0.00084378029350773431 -9999.8832316050903 -3330.2829424288702 0.01190324270649934 0.0020521872993413126 0.01190324270649934 -3330.2924533216465 -0.0137204858547193 0.0020521872993413126 -0.0137204858547193 -9999.8919095530218 -3330.3055036278911 -0.00053814437383081781 -0.0050682652527029859 -0.00053814437383081781 -3330.3058689113259 -0.016663584752677707 -0.0050682652527029859 -0.016663584752677707 -9999.9034339617865 -3330.3191074847182 0.0040918371279065058 0.027855546805767517 0.0040918371279065058 -3330.269684293984 0.020984557380870683 0.027855546805767517 0.020984557380870683 -9999.897851045338 -3330.3326337289509 0.02655408332970044 0.017281760505284183 0.02655408332970044 -3330.2993114003802 0.01426684667239897 0.017281760505284183 0.01426684667239897 -9999.8854427698207 -3330.3176597877191 0.0019784749501614574 -0.01017959965247428 0.0019784749501614574 -3330.3107289380532 -0.015594005039019976 -0.01017959965247428 -0.015594005039019976 -9999.9115916854098 -3330.3123036239358 0.0051448479948026371 -0.019066334310991806 0.0051448479948026371 -3330.3018375292759 -0.027905245588044636 -0.019066334310991806 -0.027905245588044636 -9999.9080297922737 -3330.2627361289215 0.025113415700728781 -0.041998337446784717 0.025113415700728781 -3330.243107211425 -0.05810878987176693 -0.041998337446784717 -0.05810878987176693 -9999.847560032038 -3330.3118792662135 0.0055972517276373646 -0.017329022708509001 0.0055972517276373646 -3330.3054278481741 -0.030028979566850467 -0.017329022708509001 -0.030028979566850467 -9999.9049176055778 -3330.3145720047014 0.0041136908038559294 -0.0063054563324840274 0.0041136908038559294 -3330.3087874534522 -0.014757478549199732 -0.0063054563324840274 -0.014757478549199732 -9999.9064306915243 -3330.2890618275251 0.014852896919156366 -0.00081095601854030974 0.014852896919156366 -3330.2906949440894 -0.0093093198321412274 -0.00081095601854030974 -0.0093093198321412274 -9999.8929998082967 -3330.3110602703382 0.011054354927116705 0.001282486420677742 0.011054354927116705 -3330.3101957803738 -0.014270352505263872 0.001282486420677742 -0.014270352505263872 -9999.9098085166479 -3330.2585982160454 0.024457505077141173 0.034545047972642351 0.024457505077141173 -3330.2752991495945 -0.01763299922367878 0.034545047972642351 -0.01763299922367878 -9999.8603328944409 -3330.3025537612175 0.0056518156945463138 0.0021119505508977454 0.0056518156945463138 -3330.3059207156566 -0.015870427014306188 0.0021119505508977454 -0.015870427014306188 -9999.9066131231812 -3330.2414156685281 0.013431308931322383 0.031784274551682756 0.013431308931322383 -3330.2690913504666 -0.012307340173720149 0.031784274551682756 -0.012307340173720149 -9999.8544853077801 -3330.2784366846481 0.018089973452176 0.010863884919672273 0.018089973452176 -3330.2873521676283 -0.0095718727746998411 0.010863884919672273 -0.0095718727746998411 -9999.8895078284586 -3330.3199381433988 -0.0058709049885354858 0.011304538002150366 -0.0058709049885354858 -3330.3134368698229 -0.0088086392433979199 0.011304538002150366 -0.0088086392433979199 -9999.9064043686994 -3330.2468354454322 0.01044028631659355 0.045833613556169439 0.01044028631659355 -3330.2714014852481 -0.0022175733674885123 0.045833613556169439 -0.0022175733674885123 -9999.8570157201575 -3330.2788027877086 -0.0081541544384003961 0.035368526499951258 -0.0081541544384003961 -3330.2978777443823 -0.0060992336657363921 0.035368526499951258 -0.0060992336657363921 -9999.8710286860551 -3330.3382842566607 -0.0090292017726980589 0.079303483813419007 -0.0090292017726980589 -3330.3101577748639 0.0067506514042179333 0.079303483813419007 0.0067506514042179333 -9999.8895669953672 -3330.3183892841735 -0.0054223872954209384 0.030335668207953859 -0.0054223872954209384 -3330.3064851217441 -0.0074477839953033254 0.030335668207953859 -0.0074477839953033254 -9999.8830771545145 -3330.3338612565021 -0.0058709049885354858 -0.00049421044604969211 -0.0058709049885354858 -3330.3273599829263 -0.0064487618537896196 -0.00049421044604969211 -0.0064487618537896196 -9999.9481737080059 -3330.3407932222217 -0.0054223872954206054 0.013463452966789191 -0.0054223872954206054 -3330.3288890597923 -0.0027088171882496681 0.013463452966789191 -0.0027088171882496681 -9999.9502889686555 -3330.3157307929323 0.0056518156945457587 0.0023372002597170649 0.0056518156945457587 -3330.3190977473714 -0.010142277016711887 0.0023372002597170649 -0.010142277016711887 -9999.9461442183165 -3330.3242373020548 0.011054354927116705 0.0015077361276780721 0.011054354927116705 -3330.3233728120904 -0.0085422025076695718 0.0015077361276780721 -0.0085422025076695718 -9999.9493396117905 -3330.3231902818115 0.0055972517276370315 -0.020628620457500801 0.0055972517276370315 -3330.3167388637721 -0.025172462454065681 -0.020628620457500801 -0.025172462454065681 -9999.9388506523755 -3330.3321452638011 0.0041136908038561515 -0.0079344079058500938 0.0041136908038561515 -3330.3263607125518 -0.0094462498433358633 -0.0079344079058500938 -0.0094462498433358633 -9999.9591504688215 -3330.3215138988762 -0.00053814437383103986 -0.011553547070434433 -0.00053814437383103986 -3330.321879182311 -0.013916344076278619 -0.011553547070434433 -0.013916344076278619 -9999.9514647747492 -3330.3337003827946 -0.0075740141998696942 -0.006016228280714131 -0.0075740141998696942 -3330.3275093537613 -0.0043254265183350071 -0.006016228280714131 -0.0043254265183350071 -9999.9559189385909 -3330.338715590191 0.0023224065966471752 -0.0078833566949469969 0.0023224065966471752 -3330.318105133294 -0.016247644867689814 -0.0078833566949469969 -0.016247644867689814 -9999.9622860951713 -3330.3337142286564 0.0043885040413775833 -0.0051314885022293311 0.0043885040413775833 -3330.3164354408364 -0.01376463055567001 -0.0051314885022293311 -0.01376463055567001 -9999.9570613921023 -3330.3409382905757 0.00021768990649939646 -0.0027622915604297305 0.00021768990649939646 -3330.3181336172438 -0.0096610610489733517 -0.0027622915604297305 -0.0096610610489733517 -9999.9592919516872 -3330.3330864958607 -0.0079223503842471565 -0.0097063134489872027 -0.0079223503842471565 -3330.3238067752718 -0.0011301517060928745 -0.0097063134489872027 -0.0011301517060928745 -9999.9470917159342 -3330.3425155243349 0.0048449854776895229 -0.011191508427145891 0.0048449854776895229 -3330.3306102170936 -0.011150866640832646 -0.011191508427145891 -0.011150866640832646 -9999.9663623496526 -3330.3326468261166 0.0044239170908895176 -0.0091559119209705386 0.0044239170908895176 -3330.3271085488595 -0.011315385068883188 -0.0091559119209705386 -0.011315385068883188 -9999.9623029278737 -3330.342773114322 0.0046546527409827565 -0.011278941161435796 0.0046546527409827565 -3330.3314280462673 -0.011271991621470079 -0.011278941161435796 -0.011271991621470079 -9999.9666312044428 -3330.3382267408178 0.0018495030186338468 -0.0096357299607916502 0.0018495030186338468 -3330.3289449552194 -0.011980101135122823 -0.0096357299607916502 -0.011980101135122823 -9999.964157008144 -3330.3277218554376 0.0066577140859982453 -0.0045893479691585526 0.0066577140859982453 -3330.3250408229942 -0.0095214761653323876 -0.0045893479691585526 -0.0095214761653323876 -9999.9577146443407 -3330.3283354853702 0.0069593298515356894 -0.0055386182139045559 0.0069593298515356894 -3330.3258254483226 -0.01139673359648441 -0.0055386182139045559 -0.01139673359648441 -9999.9609043175515 -3330.3340362515919 0.010491416377162555 -0.0086702869448345155 0.010491416377162555 -3330.3305842910631 -0.0053556004095298704 -0.0086702869448345155 -0.0053556004095298704 -9999.9635192197893 -3330.3389220236986 0.0021084669310632576 0.0090630491886258824 0.0021084669310632576 -3330.3246732672033 -0.0062214115241658874 0.0090630491886258824 -0.0062214115241658874 -9999.9533359059715 -3330.3194879366092 0.0034826277737549649 0.0037842854035261553 0.0034826277737549649 -3330.3184599637225 -0.0076358520200301427 0.0037842854035261553 -0.0076358520200301427 -9999.9469240583348 -3330.3329690901337 0.0036282217078267287 -0.0041930258958018385 0.0036282217078267287 -3330.3240408316051 -0.008835026190354256 -0.0041930258958018385 -0.008835026190354256 -9999.9587764551616 -3330.3363764905444 -0.004461980009684785 0.0075362230018072296 -0.004461980009684785 -3330.3223833122811 0.0043220652605668874 0.0075362230018072296 0.0043220652605668874 -9999.9291032134497 -3330.3453350938325 -0.0005461407462007406 0.0080396629964525346 -0.0005461407462007406 -3330.3290880660461 0.0038186252731975401 0.0080396629964525346 0.0038186252731975401 -9999.9330190527107 -3330.3443751281884 0.0011486408576173446 -0.0068022964915144257 0.0011486408576173446 -3330.3279683973014 0.0011291708651697263 -0.0068022964915144257 0.0011291708651697263 -9999.9324991441099 -3330.3475067082272 0.0059262306649356944 0.0092972150669083931 0.0059262306649356944 -3330.331359637612 -0.0064555773969914299 0.0092972150669083931 -0.0064555773969914299 -9999.9571536697113 -3330.3418867744876 0.0040847049871999275 0.0077784260975022335 0.0040847049871999275 -3330.3309561150236 -0.007513783872127533 0.0077784260975022335 -0.007513783872127533 -9999.9573261136102 -3330.3510803555928 0.00540031093077048 0.010852573535885313 0.00540031093077048 -3330.3438168752164 -0.0012237692826602142 0.010852573535885313 -0.0012237692826602142 -9999.961161390951 -3330.3409032296549 0.0080605526462034227 0.0097225818353763316 0.0080605526462034227 -3330.3399266853739 -0.00097416615062684286 0.0097225818353763316 -0.00097416615062684286 -9999.9593228699887 -3330.3426877676793 0.0076826510659804281 -0.0078877361156628467 0.0076826510659804281 -3330.3398378755301 -0.011017372671631165 -0.0078877361156628467 -0.011017372671631165 -9999.9597468020365 -3330.3391745714562 0.0059529925787131788 -0.0081890781366382726 0.0059529925787131788 -3330.3292193073776 -0.010407193916762481 -0.0081890781366382726 -0.010407193916762481 -9999.9562138609399 -3330.3486411243666 0.00052781661792372647 -0.0044033843805664219 0.00052781661792372647 -3330.3322024933641 -0.0044013041988364421 -0.0044033843805664219 -0.0044013041988364421 -9999.9477625895088 -3330.3537435231046 0.0035105583529277951 0.0023557249769510236 0.0035105583529277951 -3330.340693827322 -0.01808762955806742 0.0023557249769510236 -0.01808762955806742 -9999.9511610226837 
</DataArray>
</CellData>
</Piece>
</UnstructuredGrid>
</VTKFile>
