<?xml version="1.0"?>
<VTKFile type="UnstructuredGrid" version="0.1" byte_order="LittleEndian">
<UnstructuredGrid>
<Piece NumberOfPoints="2160" NumberOfCells="540">
<Points>
<DataArray type="Float64" NumberOfComponents="3" format="ascii">
-4.3301270160527148 -2.500000004970083 -12 -2.9547160992544761 -1.820741508163664 -15 -2.9547160992544761 -1.820741508163664 -12 -5 -1.397247784140632e-08 -12 -4.3301270160527148 -2.500000004970083 -12 -2.9547160992544761 -1.820741508163664 -15 -2.9547160992544761 -1.820741508163664 -12 -2.5000000000000022 -4.3301270189221919 -12 -4.3301270160527148 -2.500000004970083 -12 -4.3301270160527148 -2.500000004970083 -15 -2.9547160992544761 -1.820741508163664 -15 -2.5000000000000022 -4.3301270189221919 -12 -4.3301270160527148 -2.500000004970083 -12 -4.3301270160527148 -2.500000004970083 -15 -2.9547160992544761 -1.820741508163664 -15 -5 -1.397247784140632e-08 -15 -2.9547160992544761 -1.820741508163664 -15 -0.66987297914647026 -2.499999999706382 -15 -0.66987297914647026 -2.499999999706382 -12 -2.2735805010731909 0.22641949675281539 -12 -2.9547160992544761 -1.820741508163664 -15 -2.5000000000000022 -4.3301270189221919 -12 -0.66987297914647026 -2.499999999706382 -15 -0.66987297914647026 -2.499999999706382 -12 -2.9547160992544761 -1.820741508163664 -15 -2.9547160992544761 -1.820741508163664 -12 -0.66987297914647026 -2.499999999706382 -12 -2.2735805010731909 0.22641949675281539 -12 -2.9547160992544761 -1.820741508163664 -15 -2.9547160992544761 -1.820741508163664 -12 -2.5000000000000022 -4.3301270189221919 -12 -0.66987297914647026 -2.499999999706382 -12 -2.5000000000000022 -4.3301270189221919 -12 -2.5000000000000022 -4.3301270189221919 -15 -0.66987297914647026 -2.499999999706382 -15 6.9142305214597846e-09 -5 -12 -2.9547160992544761 -1.820741508163664 -15 -2.5000000000000022 -4.3301270189221919 -12 -2.5000000000000022 -4.3301270189221919 -15 -0.66987297914647026 -2.499999999706382 -15 -4.3301270160527148 -2.500000004970083 -15 -2.9547160992544761 -1.820741508163664 -15 -2.5000000000000022 -4.3301270189221919 -12 -2.5000000000000022 -4.3301270189221919 -15 -2.5000000000000022 -4.3301270189221919 -15 6.9142305214597846e-09 -5 -15 -0.66987297914647026 -2.499999999706382 -15 6.9142305214597846e-09 -5 -12 6.9142305214597846e-09 -5 -15 -0.66987297914647026 -2.499999999706382 -15 0.91506351643986317 -3.4150635091400758 -15 6.9142305214597846e-09 -5 -12 -0.66987297914647026 -2.499999999706382 -15 0.91506351643986317 -3.4150635091400758 -15 -0.66987297914647026 -2.499999999706382 -12 6.9142305214597846e-09 -5 -12 -0.66987297914647026 -2.499999999706382 -15 0.95458002071209891 -1.657898275923388 -15 -0.66987297914647026 -2.499999999706382 -12 0.20080558631870429 0.033909897404034287 -15 -0.66987297914647026 -2.499999999706382 -15 0.95458002071209891 -1.657898275923388 -15 0.91506351643986317 -3.4150635091400758 -15 -0.66987297914647026 -2.499999999706382 -12 0.95458002071209891 -1.657898275923388 -15 0.91506351643986317 -3.4150635091400758 -15 0.91506351643986317 -3.4150635091400758 -12 -0.66987297914647026 -2.499999999706382 -12 0.95458002071209891 -1.657898275923388 -15 2.217625015551433 -2.5696135239339939 -15 0.95458002071209891 -1.657898275923388 -12 2.3883545080289421 -0.94497882694672608 -12 0.95458002071209891 -1.657898275923388 -15 2.217625015551433 -2.5696135239339939 -15 2.3883545080289421 -0.94497882694672608 -12 2.3883545080289421 -0.94497882694672608 -15 0.95458002071209891 -1.657898275923388 -15 2.217625015551433 -2.5696135239339939 -15 0.91506351643986317 -3.4150635091400758 -12 0.95458002071209891 -1.657898275923388 -12 0.95458002071209891 -1.657898275923388 -15 2.217625015551433 -2.5696135239339939 -15 0.91506351643986317 -3.4150635091400758 -15 0.91506351643986317 -3.4150635091400758 -12 2.217625015551433 -2.5696135239339939 -15 0.91506351643986317 -3.4150635091400758 -15 2.500000010727558 -4.3301270127286351 -15 2.500000010727558 -4.3301270127286351 -12 6.9142305214597846e-09 -5 -15 0.91506351643986317 -3.4150635091400758 -15 6.9142305214597846e-09 -5 -12 2.500000010727558 -4.3301270127286351 -12 6.9142305214597846e-09 -5 -15 0.91506351643986317 -3.4150635091400758 -15 2.500000010727558 -4.3301270127286351 -15 2.500000010727558 -4.3301270127286351 -12 2.217625015551433 -2.5696135239339939 -15 0.91506351643986317 -3.4150635091400758 -15 0.91506351643986317 -3.4150635091400758 -12 2.500000010727558 -4.3301270127286351 -12 0.91506351643986317 -3.4150635091400758 -15 0.91506351643986317 -3.4150635091400758 -12 6.9142305214597846e-09 -5 -12 2.500000010727558 -4.3301270127286351 -12 2.217625015551433 -2.5696135239339939 -15 0.91506351643986317 -3.4150635091400758 -12 2.217625015551433 -2.5696135239339939 -12 2.500000010727558 -4.3301270127286351 -12 2.217625015551433 -2.5696135239339939 -15 2.217625015551433 -2.5696135239339939 -12 0.95458002071209891 -1.657898275923388 -12 2.3883545080289421 -0.94497882694672608 -12 2.217625015551433 -2.5696135239339939 -15 0.91506351643986317 -3.4150635091400758 -12 2.217625015551433 -2.5696135239339939 -12 0.95458002071209891 -1.657898275923388 -12 0.95458002071209891 -1.657898275923388 -15 0.91506351643986317 -3.4150635091400758 -12 0.95458002071209891 -1.657898275923388 -12 -0.66987297914647026 -2.499999999706382 -12 0.95458002071209891 -1.657898275923388 -15 0.95458002071209891 -1.657898275923388 -12 -0.66987297914647026 -2.499999999706382 -12 0.20080558631870429 0.033909897404034287 -12 0.91506351643986317 -3.4150635091400758 -15 0.91506351643986317 -3.4150635091400758 -12 -0.66987297914647026 -2.499999999706382 -12 6.9142305214597846e-09 -5 -12 -2.5000000000000022 -4.3301270189221919 -12 -0.66987297914647026 -2.499999999706382 -15 -0.66987297914647026 -2.499999999706382 -12 6.9142305214597846e-09 -5 -12 0.91506351643986317 -3.4150635091400758 -12 -0.66987297914647026 -2.499999999706382 -12 6.9142305214597846e-09 -5 -12 6.9142305214597846e-09 -5 -9 0.91506351643986317 -3.4150635091400758 -12 0.91506351643986317 -3.4150635091400758 -9 -0.66987297914647026 -2.499999999706382 -9 6.9142305214597846e-09 -5 -9 0.91506351643986317 -3.4150635091400758 -12 -0.66987297914647026 -2.499999999706382 -12 -0.66987297914647026 -2.499999999706382 -9 6.9142305214597846e-09 -5 -9 -0.66987297914647026 -2.499999999706382 -12 -0.66987297914647026 -2.499999999706382 -9 6.9142305214597846e-09 -5 -9 -2.5000000000000022 -4.3301270189221919 -9 -2.5000000000000022 -4.3301270189221919 -12 -0.66987297914647026 -2.499999999706382 -12 6.9142305214597846e-09 -5 -12 6.9142305214597846e-09 -5 -9 0.95458002071209891 -1.657898275923388 -12 -0.66987297914647026 -2.499999999706382 -12 -0.66987297914647026 -2.499999999706382 -9 0.20080558631870429 0.033909897404034287 -12 0.91506351643986317 -3.4150635091400758 -12 0.95458002071209891 -1.657898275923388 -12 0.91506351643986317 -3.4150635091400758 -9 -0.66987297914647026 -2.499999999706382 -9 0.95458002071209891 -1.657898275923388 -12 0.95458002071209891 -1.657898275923388 -9 -0.66987297914647026 -2.499999999706382 -9 0.20080558631870429 0.033909897404034287 -9 0.91506351643986317 -3.4150635091400758 -12 0.95458002071209891 -1.657898275923388 -12 -0.66987297914647026 -2.499999999706382 -12 -0.66987297914647026 -2.499999999706382 -9 0.95458002071209891 -1.657898275923388 -12 0.91506351643986317 -3.4150635091400758 -9 0.95458002071209891 -1.657898275923388 -9 -0.66987297914647026 -2.499999999706382 -9 2.217625015551433 -2.5696135239339939 -12 0.95458002071209891 -1.657898275923388 -9 2.217625015551433 -2.5696135239339939 -9 2.3883545080289421 -0.94497882694672608 -9 2.217625015551433 -2.5696135239339939 -12 0.95458002071209891 -1.657898275923388 -12 2.3883545080289421 -0.94497882694672608 -9 2.3883545080289421 -0.94497882694672608 -12 2.217625015551433 -2.5696135239339939 -12 0.95458002071209891 -1.657898275923388 -12 0.95458002071209891 -1.657898275923388 -9 2.3883545080289421 -0.94497882694672608 -9 2.217625015551433 -2.5696135239339939 -12 0.95458002071209891 -1.657898275923388 -12 0.91506351643986317 -3.4150635091400758 -9 0.95458002071209891 -1.657898275923388 -9 0.91506351643986317 -3.4150635091400758 -12 2.217625015551433 -2.5696135239339939 -12 0.95458002071209891 -1.657898275923388 -12 0.91506351643986317 -3.4150635091400758 -9 2.217625015551433 -2.5696135239339939 -12 0.91506351643986317 -3.4150635091400758 -9 0.95458002071209891 -1.657898275923388 -9 2.217625015551433 -2.5696135239339939 -9 0.91506351643986317 -3.4150635091400758 -12 6.9142305214597846e-09 -5 -12 2.500000010727558 -4.3301270127286351 -12 2.500000010727558 -4.3301270127286351 -9 0.91506351643986317 -3.4150635091400758 -12 0.91506351643986317 -3.4150635091400758 -9 6.9142305214597846e-09 -5 -9 2.500000010727558 -4.3301270127286351 -9 0.91506351643986317 -3.4150635091400758 -12 6.9142305214597846e-09 -5 -12 6.9142305214597846e-09 -5 -9 2.500000010727558 -4.3301270127286351 -9 0.91506351643986317 -3.4150635091400758 -12 2.217625015551433 -2.5696135239339939 -12 0.91506351643986317 -3.4150635091400758 -9 2.500000010727558 -4.3301270127286351 -9 0.91506351643986317 -3.4150635091400758 -12 2.217625015551433 -2.5696135239339939 -12 2.500000010727558 -4.3301270127286351 -12 2.500000010727558 -4.3301270127286351 -9 2.217625015551433 -2.5696135239339939 -12 0.91506351643986317 -3.4150635091400758 -9 2.217625015551433 -2.5696135239339939 -9 2.500000010727558 -4.3301270127286351 -9 0.91506351643986317 -3.4150635091400758 -9 6.9142305214597846e-09 -5 -9 2.500000010727558 -4.3301270127286351 -9 2.500000010727558 -4.3301270127286351 -6 0.91506351643986317 -3.4150635091400758 -9 2.217625015551433 -2.5696135239339939 -9 2.500000010727558 -4.3301270127286351 -9 2.500000010727558 -4.3301270127286351 -6 0.91506351643986317 -3.4150635091400758 -9 0.95458002071209891 -1.657898275923388 -9 2.217625015551433 -2.5696135239339939 -9 0.91506351643986317 -3.4150635091400758 -6 0.95458002071209891 -1.657898275923388 -9 2.217625015551433 -2.5696135239339939 -9 2.3883545080289421 -0.94497882694672608 -9 2.3883545080289421 -0.94497882694672608 -6 0.91506351643986317 -3.4150635091400758 -9 0.95458002071209891 -1.657898275923388 -9 -0.66987297914647026 -2.499999999706382 -9 -0.66987297914647026 -2.499999999706382 -6 0.95458002071209891 -1.657898275923388 -9 -0.66987297914647026 -2.499999999706382 -9 0.20080558631870429 0.033909897404034287 -9 -0.66987297914647026 -2.499999999706382 -6 -0.66987297914647026 -2.499999999706382 -9 6.9142305214597846e-09 -5 -9 -2.5000000000000022 -4.3301270189221919 -9 6.9142305214597846e-09 -5 -6 0.91506351643986317 -3.4150635091400758 -9 -0.66987297914647026 -2.499999999706382 -9 6.9142305214597846e-09 -5 -9 6.9142305214597846e-09 -5 -6 -0.66987297914647026 -2.499999999706382 -9 -2.5000000000000022 -4.3301270189221919 -9 -2.9547160992544761 -1.820741508163664 -9 -2.5000000000000022 -4.3301270189221919 -6 -2.5000000000000022 -4.3301270189221919 -9 -4.3301270160527148 -2.500000004970083 -9 -2.9547160992544761 -1.820741508163664 -9 -2.5000000000000022 -4.3301270189221919 -6 -2.5000000000000022 -4.3301270189221919 -12 -0.66987297914647026 -2.499999999706382 -12 6.9142305214597846e-09 -5 -9 -2.5000000000000022 -4.3301270189221919 -9 -2.9547160992544761 -1.820741508163664 -12 -2.5000000000000022 -4.3301270189221919 -12 -0.66987297914647026 -2.499999999706382 -12 -2.5000000000000022 -4.3301270189221919 -9 -4.3301270160527148 -2.500000004970083 -12 -2.9547160992544761 -1.820741508163664 -12 -2.5000000000000022 -4.3301270189221919 -12 -2.5000000000000022 -4.3301270189221919 -9 -2.9547160992544761 -1.820741508163664 -12 -0.66987297914647026 -2.499999999706382 -9 -2.9547160992544761 -1.820741508163664 -9 -2.2735805010731909 0.22641949675281539 -9 -2.9547160992544761 -1.820741508163664 -12 -0.66987297914647026 -2.499999999706382 -9 -2.5000000000000022 -4.3301270189221919 -9 -2.9547160992544761 -1.820741508163664 -9 -2.9547160992544761 -1.820741508163664 -12 -0.66987297914647026 -2.499999999706382 -12 -0.66987297914647026 -2.499999999706382 -9 -2.5000000000000022 -4.3301270189221919 -9 -2.9547160992544761 -1.820741508163664 -12 -0.66987297914647026 -2.499999999706382 -12 -0.66987297914647026 -2.499999999706382 -9 -2.2735805010731909 0.22641949675281539 -9 -2.9547160992544761 -1.820741508163664 -12 -2.5000000000000022 -4.3301270189221919 -9 -4.3301270160527148 -2.500000004970083 -9 -2.9547160992544761 -1.820741508163664 -9 -4.3301270160527148 -2.500000004970083 -12 -2.9547160992544761 -1.820741508163664 -12 -2.5000000000000022 -4.3301270189221919 -9 -4.3301270160527148 -2.500000004970083 -9 -2.9547160992544761 -1.820741508163664 -12 -4.3301270160527148 -2.500000004970083 -9 -2.9547160992544761 -1.820741508163664 -9 -5 -1.397247784140632e-08 -9 -4.3301270160527148 -2.500000004970083 -12 -2.9547160992544761 -1.820741508163664 -12 -4.3301270160527148 -2.500000004970083 -9 -5 -1.397247784140632e-08 -12 -4.3301270160527148 -2.500000004970083 -9 -2.9547160992544761 -1.820741508163664 -9 -5 -1.397247784140632e-08 -9 -4.3301270160527148 -2.500000004970083 -6 -0.66987297914647026 -2.499999999706382 -9 -2.2735805010731909 0.22641949675281539 -9 0.20080558631870429 0.033909897404034287 -9 -2.2735805010731909 0.22641949675281539 -6 -0.66987297914647026 -2.499999999706382 -9 -2.9547160992544761 -1.820741508163664 -9 -2.2735805010731909 0.22641949675281539 -9 -2.2735805010731909 0.22641949675281539 -6 -2.2735805010731909 0.22641949675281539 -9 -0.91506351183037493 1.5849364925866429 -9 0.20080558631870429 0.033909897404034287 -9 -2.2735805010731909 0.22641949675281539 -6 -2.9547160992544761 -1.820741508163664 -9 -2.2735805010731909 0.22641949675281539 -9 -5 -1.397247784140632e-08 -9 -5 -1.397247784140632e-08 -6 -2.9547160992544761 -1.820741508163664 -12 -2.9547160992544761 -1.820741508163664 -9 -2.2735805010731909 0.22641949675281539 -9 -5 -1.397247784140632e-08 -9 -2.9547160992544761 -1.820741508163664 -12 -5 -1.397247784140632e-08 -9 -2.2735805010731909 0.22641949675281539 -12 -5 -1.397247784140632e-08 -12 -2.9547160992544761 -1.820741508163664 -12 -2.2735805010731909 0.22641949675281539 -9 -5 -1.397247784140632e-08 -9 -2.2735805010731909 0.22641949675281539 -12 -2.9547160992544761 -1.820741508163664 -12 -4.3301270160527148 -2.500000004970083 -9 -5 -1.397247784140632e-08 -9 -5 -1.397247784140632e-08 -12 -2.9547160992544761 -1.820741508163664 -12 -0.66987297914647026 -2.499999999706382 -12 -2.2735805010731909 0.22641949675281539 -9 -2.2735805010731909 0.22641949675281539 -12 -2.2735805010731909 0.22641949675281539 -9 -0.91506351183037493 1.5849364925866429 -12 0.20080558631870429 0.033909897404034287 -12 -2.2735805010731909 0.22641949675281539 -12 -0.66987297914647026 -2.499999999706382 -12 -2.2735805010731909 0.22641949675281539 -9 0.20080558631870429 0.033909897404034287 -12 -2.2735805010731909 0.22641949675281539 -12 -2.2253246846922492 2.366533744740174 -9 -0.91506351183037493 1.5849364925866429 -9 -2.2253246846922492 2.366533744740174 -12 -1.107852388446384 3.1911857209629071 -9 -2.2735805010731909 0.22641949675281539 -9 -0.91506351183037493 1.5849364925866429 -12 -2.2253246846922492 2.366533744740174 -12 -2.2735805010731909 0.22641949675281539 -12 -0.91506351183037493 1.5849364925866429 -9 -0.91506351183037493 1.5849364925866429 -12 -2.2253246846922492 2.366533744740174 -12 -1.107852388446384 3.1911857209629071 -12 -2.2735805010731909 0.22641949675281539 -9 -2.2253246846922492 2.366533744740174 -9 -0.91506351183037493 1.5849364925866429 -9 -2.2253246846922492 2.366533744740174 -12 -2.2735805010731909 0.22641949675281539 -9 -0.91506351183037493 1.5849364925866429 -9 -0.91506351183037493 1.5849364925866429 -12 -2.2253246846922492 2.366533744740174 -12 -2.2735805010731909 0.22641949675281539 -9 -4.3301270221112951 2.4999999944763132 -9 -2.2253246846922492 2.366533744740174 -9 -2.2253246846922492 2.366533744740174 -12 -2.2735805010731909 0.22641949675281539 -9 -4.3301270221112951 2.4999999944763132 -9 -2.2253246846922492 2.366533744740174 -12 -2.2735805010731909 0.22641949675281539 -12 -5 -1.397247784140632e-08 -9 -4.3301270221112951 2.4999999944763132 -9 -2.2735805010731909 0.22641949675281539 -12 -4.3301270221112951 2.4999999944763132 -12 -5 -1.397247784140632e-08 -9 -2.2735805010731909 0.22641949675281539 -12 -5 -1.397247784140632e-08 -12 -4.3301270221112951 2.4999999944763132 -12 -2.2735805010731909 0.22641949675281539 -9 -5 -1.397247784140632e-08 -9 -4.3301270221112951 2.4999999944763132 -9 -2.2735805010731909 0.22641949675281539 -12 -4.3301270221112951 2.4999999944763132 -9 -2.2253246846922492 2.366533744740174 -12 -2.2735805010731909 0.22641949675281539 -12 -4.3301270221112951 2.4999999944763132 -12 -2.2735805010731909 0.22641949675281539 -9 -5 -1.397247784140632e-08 -9 -4.3301270221112951 2.4999999944763132 -9 -5 -1.397247784140632e-08 -6 -2.2735805010731909 0.22641949675281539 -9 -4.3301270221112951 2.4999999944763132 -9 -2.2253246846922492 2.366533744740174 -9 -4.3301270221112951 2.4999999944763132 -6 -2.2253246846922492 2.366533744740174 -9 -0.91506351183037493 1.5849364925866429 -9 -1.107852388446384 3.1911857209629071 -9 -0.91506351183037493 1.5849364925866429 -6 -2.2735805010731909 0.22641949675281539 -9 -2.2253246846922492 2.366533744740174 -9 -0.91506351183037493 1.5849364925866429 -9 -2.2735805010731909 0.22641949675281539 -6 -0.91506351183037493 1.5849364925866429 -9 0.20080558631870429 0.033909897404034287 -9 0.37580157663508379 2.5408650916807378 -9 0.20080558631870429 0.033909897404034287 -6 -0.91506351183037493 1.5849364925866429 -9 0.37580157663508379 2.5408650916807378 -9 -1.107852388446384 3.1911857209629071 -9 0.37580157663508379 2.5408650916807378 -6 0.20080558631870429 0.033909897404034287 -9 2.3883545080289421 -0.94497882694672608 -9 2.465848112410058 1.4099871989758821 -9 2.3883545080289421 -0.94497882694672608 -6 0.95458002071209891 -1.657898275923388 -9 0.20080558631870429 0.033909897404034287 -9 2.3883545080289421 -0.94497882694672608 -9 2.3883545080289421 -0.94497882694672608 -6 0.20080558631870429 0.033909897404034287 -9 2.465848112410058 1.4099871989758821 -9 0.37580157663508379 2.5408650916807378 -9 0.20080558631870429 0.033909897404034287 -6 0.20080558631870429 0.033909897404034287 -9 2.465848112410058 1.4099871989758821 -12 0.37580157663508379 2.5408650916807378 -9 0.37580157663508379 2.5408650916807378 -12 2.465848112410058 1.4099871989758821 -9 2.465848112410058 1.4099871989758821 -12 2.4999999879139869 4.3301270259000564 -9 0.37580157663508379 2.5408650916807378 -9 0.20080558631870429 0.033909897404034287 -9 2.465848112410058 1.4099871989758821 -9 2.465848112410058 1.4099871989758821 -12 0.37580157663508379 2.5408650916807378 -9 0.20080558631870429 0.033909897404034287 -9 0.20080558631870429 0.033909897404034287 -12 2.465848112410058 1.4099871989758821 -12 0.37580157663508379 2.5408650916807378 -12 0.95458002071209891 -1.657898275923388 -12 2.3883545080289421 -0.94497882694672608 -9 0.20080558631870429 0.033909897404034287 -12 2.3883545080289421 -0.94497882694672608 -12 0.95458002071209891 -1.657898275923388 -12 0.20080558631870429 0.033909897404034287 -9 2.3883545080289421 -0.94497882694672608 -9 0.20080558631870429 0.033909897404034287 -12 0.20080558631870429 0.033909897404034287 -9 2.3883545080289421 -0.94497882694672608 -9 2.465848112410058 1.4099871989758821 -9 2.465848112410058 1.4099871989758821 -12 2.3883545080289421 -0.94497882694672608 -9 0.20080558631870429 0.033909897404034287 -12 2.3883545080289421 -0.94497882694672608 -12 2.465848112410058 1.4099871989758821 -12 0.20080558631870429 0.033909897404034287 -9 2.3883545080289421 -0.94497882694672608 -9 0.20080558631870429 0.033909897404034287 -12 2.465848112410058 1.4099871989758821 -12 0.95458002071209891 -1.657898275923388 -12 0.95458002071209891 -1.657898275923388 -9 0.20080558631870429 0.033909897404034287 -9 2.3883545080289421 -0.94497882694672608 -9 -2.2735805010731909 0.22641949675281539 -9 0.20080558631870429 0.033909897404034287 -9 -0.91506351183037493 1.5849364925866429 -12 0.20080558631870429 0.033909897404034287 -12 -0.66987297914647026 -2.499999999706382 -12 -0.66987297914647026 -2.499999999706382 -9 -2.2735805010731909 0.22641949675281539 -9 0.20080558631870429 0.033909897404034287 -12 0.95458002071209891 -1.657898275923388 -12 -0.66987297914647026 -2.499999999706382 -9 0.20080558631870429 0.033909897404034287 -9 0.20080558631870429 0.033909897404034287 -12 -0.66987297914647026 -2.499999999706382 -9 -2.2735805010731909 0.22641949675281539 -9 0.20080558631870429 0.033909897404034287 -9 0.20080558631870429 0.033909897404034287 -12 -2.2735805010731909 0.22641949675281539 -9 -0.91506351183037493 1.5849364925866429 -9 0.20080558631870429 0.033909897404034287 -9 -0.91506351183037493 1.5849364925866429 -12 -0.91506351183037493 1.5849364925866429 -9 0.20080558631870429 0.033909897404034287 -9 -0.91506351183037493 1.5849364925866429 -12 0.37580157663508379 2.5408650916807378 -9 0.20080558631870429 0.033909897404034287 -9 -0.91506351183037493 1.5849364925866429 -12 0.20080558631870429 0.033909897404034287 -12 0.37580157663508379 2.5408650916807378 -12 0.20080558631870429 0.033909897404034287 -9 -0.91506351183037493 1.5849364925866429 -12 0.37580157663508379 2.5408650916807378 -9 0.37580157663508379 2.5408650916807378 -12 -0.91506351183037493 1.5849364925866429 -9 -0.91506351183037493 1.5849364925866429 -12 0.37580157663508379 2.5408650916807378 -9 -1.107852388446384 3.1911857209629071 -12 -0.91506351183037493 1.5849364925866429 -12 0.37580157663508379 2.5408650916807378 -9 0.37580157663508379 2.5408650916807378 -12 -1.107852388446384 3.1911857209629071 -12 -0.91506351183037493 1.5849364925866429 -12 0.20080558631870429 0.033909897404034287 -12 -0.91506351183037493 1.5849364925866429 -15 -2.2735805010731909 0.22641949675281539 -12 -0.91506351183037493 1.5849364925866429 -12 0.20080558631870429 0.033909897404034287 -12 -0.91506351183037493 1.5849364925866429 -15 0.37580157663508379 2.5408650916807378 -12 -0.66987297914647026 -2.499999999706382 -12 0.20080558631870429 0.033909897404034287 -12 0.20080558631870429 0.033909897404034287 -15 -2.2735805010731909 0.22641949675281539 -12 0.20080558631870429 0.033909897404034287 -12 2.3883545080289421 -0.94497882694672608 -12 2.465848112410058 1.4099871989758821 -12 2.465848112410058 1.4099871989758821 -15 0.95458002071209891 -1.657898275923388 -15 0.95458002071209891 -1.657898275923388 -12 0.20080558631870429 0.033909897404034287 -12 2.3883545080289421 -0.94497882694672608 -12 2.465848112410058 1.4099871989758821 -12 2.465848112410058 1.4099871989758821 -15 2.4999999879139869 4.3301270259000564 -12 0.37580157663508379 2.5408650916807378 -12 0.20080558631870429 0.033909897404034287 -12 2.465848112410058 1.4099871989758821 -12 2.465848112410058 1.4099871989758821 -15 0.37580157663508379 2.5408650916807378 -12 0.20080558631870429 0.033909897404034287 -12 2.465848112410058 1.4099871989758821 -15 0.37580157663508379 2.5408650916807378 -12 0.37580157663508379 2.5408650916807378 -15 0.20080558631870429 0.033909897404034287 -12 2.465848112410058 1.4099871989758821 -15 0.20080558631870429 0.033909897404034287 -15 0.37580157663508379 2.5408650916807378 -15 2.3883545080289421 -0.94497882694672608 -12 2.465848112410058 1.4099871989758821 -15 2.3883545080289421 -0.94497882694672608 -15 0.20080558631870429 0.033909897404034287 -15 0.95458002071209891 -1.657898275923388 -15 0.20080558631870429 0.033909897404034287 -12 2.3883545080289421 -0.94497882694672608 -12 0.20080558631870429 0.033909897404034287 -15 0.20080558631870429 0.033909897404034287 -12 2.3883545080289421 -0.94497882694672608 -12 2.465848112410058 1.4099871989758821 -15 0.20080558631870429 0.033909897404034287 -15 0.95458002071209891 -1.657898275923388 -15 2.3883545080289421 -0.94497882694672608 -12 2.3883545080289421 -0.94497882694672608 -15 0.20080558631870429 0.033909897404034287 -15 -0.66987297914647026 -2.499999999706382 -15 -0.66987297914647026 -2.499999999706382 -12 0.20080558631870429 0.033909897404034287 -15 -2.2735805010731909 0.22641949675281539 -12 0.20080558631870429 0.033909897404034287 -12 0.20080558631870429 0.033909897404034287 -15 -0.91506351183037493 1.5849364925866429 -15 -2.2735805010731909 0.22641949675281539 -12 0.95458002071209891 -1.657898275923388 -15 -0.66987297914647026 -2.499999999706382 -12 0.20080558631870429 0.033909897404034287 -12 0.20080558631870429 0.033909897404034287 -15 0.20080558631870429 0.033909897404034287 -12 -0.91506351183037493 1.5849364925866429 -15 0.37580157663508379 2.5408650916807378 -12 0.37580157663508379 2.5408650916807378 -15 -0.91506351183037493 1.5849364925866429 -15 0.37580157663508379 2.5408650916807378 -12 -1.107852388446384 3.1911857209629071 -15 0.37580157663508379 2.5408650916807378 -15 -0.91506351183037493 1.5849364925866429 -12 -0.91506351183037493 1.5849364925866429 -15 0.37580157663508379 2.5408650916807378 -12 -1.107852388446384 3.1911857209629071 -15 0.20080558631870429 0.033909897404034287 -12 0.20080558631870429 0.033909897404034287 -15 -0.91506351183037493 1.5849364925866429 -15 0.37580157663508379 2.5408650916807378 -15 -0.91506351183037493 1.5849364925866429 -12 -0.91506351183037493 1.5849364925866429 -15 -2.2253246846922492 2.366533744740174 -15 -2.2735805010731909 0.22641949675281539 -12 -0.91506351183037493 1.5849364925866429 -15 -2.2253246846922492 2.366533744740174 -15 -2.2735805010731909 0.22641949675281539 -12 -2.2735805010731909 0.22641949675281539 -15 -2.2253246846922492 2.366533744740174 -15 -2.2735805010731909 0.22641949675281539 -12 -2.2735805010731909 0.22641949675281539 -15 -4.3301270221112951 2.4999999944763132 -12 -0.91506351183037493 1.5849364925866429 -12 -0.91506351183037493 1.5849364925866429 -15 -2.2253246846922492 2.366533744740174 -15 -1.107852388446384 3.1911857209629071 -15 -0.91506351183037493 1.5849364925866429 -12 -2.2253246846922492 2.366533744740174 -15 -2.2253246846922492 2.366533744740174 -12 -2.2735805010731909 0.22641949675281539 -12 -2.2253246846922492 2.366533744740174 -15 -2.2253246846922492 2.366533744740174 -12 -2.2735805010731909 0.22641949675281539 -12 -4.3301270221112951 2.4999999944763132 -12 -0.91506351183037493 1.5849364925866429 -12 -2.2253246846922492 2.366533744740174 -15 -2.2253246846922492 2.366533744740174 -12 -1.107852388446384 3.1911857209629071 -12 -2.9547160992544761 -1.820741508163664 -15 -0.66987297914647026 -2.499999999706382 -15 -2.2735805010731909 0.22641949675281539 -12 -2.2735805010731909 0.22641949675281539 -15 0.20080558631870429 0.033909897404034287 -15 -0.91506351183037493 1.5849364925866429 -15 -2.2735805010731909 0.22641949675281539 -12 -2.2735805010731909 0.22641949675281539 -15 -0.66987297914647026 -2.499999999706382 -15 0.20080558631870429 0.033909897404034287 -15 -2.2735805010731909 0.22641949675281539 -12 -2.2735805010731909 0.22641949675281539 -15 -4.3301270160527148 -2.500000004970083 -12 -2.9547160992544761 -1.820741508163664 -15 -5 -1.397247784140632e-08 -15 -5 -1.397247784140632e-08 -12 -2.9547160992544761 -1.820741508163664 -15 -2.2735805010731909 0.22641949675281539 -12 -2.2735805010731909 0.22641949675281539 -15 -5 -1.397247784140632e-08 -12 -2.9547160992544761 -1.820741508163664 -15 -2.2735805010731909 0.22641949675281539 -15 -5 -1.397247784140632e-08 -15 -5 -1.397247784140632e-08 -12 -2.9547160992544761 -1.820741508163664 -15 -2.9547160992544761 -1.820741508163664 -12 -2.2735805010731909 0.22641949675281539 -12 -5 -1.397247784140632e-08 -12 -2.2735805010731909 0.22641949675281539 -12 -2.2735805010731909 0.22641949675281539 -15 -5 -1.397247784140632e-08 -12 -4.3301270221112951 2.4999999944763132 -12 -2.2735805010731909 0.22641949675281539 -15 -5 -1.397247784140632e-08 -15 -5 -1.397247784140632e-08 -12 -4.3301270221112951 2.4999999944763132 -15 -2.2735805010731909 0.22641949675281539 -15 -5 -1.397247784140632e-08 -12 -4.3301270221112951 2.4999999944763132 -12 -4.3301270221112951 2.4999999944763132 -15 -2.2253246846922492 2.366533744740174 -15 -2.2735805010731909 0.22641949675281539 -15 -4.3301270221112951 2.4999999944763132 -12 -4.3301270221112951 2.4999999944763132 -15 -2.2253246846922492 2.366533744740174 -15 -4.3301270221112951 2.4999999944763132 -12 -4.3301270221112951 2.4999999944763132 -15 -2.4999999999999991 4.3301270189221936 -15 -0.91506351183037493 1.5849364925866429 -12 -2.2253246846922492 2.366533744740174 -15 -1.107852388446384 3.1911857209629071 -12 -1.107852388446384 3.1911857209629071 -15 -2.2253246846922492 2.366533744740174 -15 -4.3301270221112951 2.4999999944763132 -12 -2.4999999999999991 4.3301270189221936 -15 -2.4999999999999991 4.3301270189221936 -12 -2.2253246846922492 2.366533744740174 -15 -2.4999999999999991 4.3301270189221936 -15 -2.4999999999999991 4.3301270189221936 -12 -1.107852388446384 3.1911857209629071 -15 -2.2253246846922492 2.366533744740174 -15 -2.4999999999999991 4.3301270189221936 -12 -1.107852388446384 3.1911857209629071 -12 -1.107852388446384 3.1911857209629071 -15 -2.4999999999999991 4.3301270189221936 -15 -2.4999999999999991 4.3301270189221936 -12 -1.107852388446384 3.1911857209629071 -15 -6.2995949836986492e-09 5 -15 -2.2253246846922492 2.366533744740174 -15 -2.2253246846922492 2.366533744740174 -12 -2.4999999999999991 4.3301270189221936 -12 -1.107852388446384 3.1911857209629071 -12 -2.2253246846922492 2.366533744740174 -15 -2.2253246846922492 2.366533744740174 -12 -4.3301270221112951 2.4999999944763132 -12 -2.4999999999999991 4.3301270189221936 -12 -4.3301270221112951 2.4999999944763132 -9 -2.2253246846922492 2.366533744740174 -12 -4.3301270221112951 2.4999999944763132 -12 -2.4999999999999991 4.3301270189221936 -12 -2.4999999999999991 4.3301270189221936 -12 -2.4999999999999991 4.3301270189221936 -9 -6.2995949836986492e-09 5 -12 -1.107852388446384 3.1911857209629071 -12 -0.91506351183037493 1.5849364925866429 -9 -2.2253246846922492 2.366533744740174 -12 -1.107852388446384 3.1911857209629071 -9 -1.107852388446384 3.1911857209629071 -12 -4.3301270221112951 2.4999999944763132 -9 -2.2253246846922492 2.366533744740174 -12 -2.4999999999999991 4.3301270189221936 -12 -2.4999999999999991 4.3301270189221936 -9 -4.3301270221112951 2.4999999944763132 -9 -2.2253246846922492 2.366533744740174 -9 -2.2253246846922492 2.366533744740174 -12 -2.4999999999999991 4.3301270189221936 -9 -2.2253246846922492 2.366533744740174 -9 -2.2253246846922492 2.366533744740174 -12 -2.4999999999999991 4.3301270189221936 -9 -1.107852388446384 3.1911857209629071 -9 -2.2253246846922492 2.366533744740174 -12 -2.4999999999999991 4.3301270189221936 -12 -2.4999999999999991 4.3301270189221936 -9 -1.107852388446384 3.1911857209629071 -12 -2.2253246846922492 2.366533744740174 -12 -2.4999999999999991 4.3301270189221936 -9 -1.107852388446384 3.1911857209629071 -9 -1.107852388446384 3.1911857209629071 -12 -2.4999999999999991 4.3301270189221936 -9 -6.2995949836986492e-09 5 -9 -1.107852388446384 3.1911857209629071 -9 -2.4999999999999991 4.3301270189221936 -6 -2.2253246846922492 2.366533744740174 -9 -2.4999999999999991 4.3301270189221936 -9 -1.107852388446384 3.1911857209629071 -9 -2.4999999999999991 4.3301270189221936 -6 -4.3301270221112951 2.4999999944763132 -9 -2.2253246846922492 2.366533744740174 -9 -2.4999999999999991 4.3301270189221936 -9 -4.3301270221112951 2.4999999944763132 -6 -2.4999999999999991 4.3301270189221936 -9 -6.2995949836986492e-09 5 -9 -6.2995949836986492e-09 5 -12 -1.107852388446384 3.1911857209629071 -12 -6.2995949836986492e-09 5 -9 2.4999999879139869 4.3301270259000564 -9 0.37580157663508379 2.5408650916807378 -9 -6.2995949836986492e-09 5 -6 2.465848112410058 1.4099871989758821 -9 2.4999999879139869 4.3301270259000564 -9 0.37580157663508379 2.5408650916807378 -9 2.4999999879139869 4.3301270259000564 -6 -6.2995949836986492e-09 5 -9 0.37580157663508379 2.5408650916807378 -9 -1.107852388446384 3.1911857209629071 -9 -6.2995949836986492e-09 5 -6 -0.91506351183037493 1.5849364925866429 -9 0.37580157663508379 2.5408650916807378 -9 -1.107852388446384 3.1911857209629071 -9 -1.107852388446384 3.1911857209629071 -12 -6.2995949836986492e-09 5 -9 0.37580157663508379 2.5408650916807378 -9 0.37580157663508379 2.5408650916807378 -12 -1.107852388446384 3.1911857209629071 -12 -6.2995949836986492e-09 5 -9 -6.2995949836986492e-09 5 -12 0.37580157663508379 2.5408650916807378 -12 -1.107852388446384 3.1911857209629071 -12 -2.4999999999999991 4.3301270189221936 -9 -6.2995949836986492e-09 5 -9 -1.107852388446384 3.1911857209629071 -9 -1.107852388446384 3.1911857209629071 -12 -6.2995949836986492e-09 5 -9 0.37580157663508379 2.5408650916807378 -9 -1.107852388446384 3.1911857209629071 -9 -1.107852388446384 3.1911857209629071 -12 2.465848112410058 1.4099871989758821 -12 2.4999999879139869 4.3301270259000564 -9 2.4999999879139869 4.3301270259000564 -12 0.37580157663508379 2.5408650916807378 -12 -6.2995949836986492e-09 5 -9 2.4999999879139869 4.3301270259000564 -9 0.37580157663508379 2.5408650916807378 -9 0.37580157663508379 2.5408650916807378 -12 -6.2995949836986492e-09 5 -9 2.4999999879139869 4.3301270259000564 -12 -6.2995949836986492e-09 5 -12 0.37580157663508379 2.5408650916807378 -12 -6.2995949836986492e-09 5 -9 2.4999999879139869 4.3301270259000564 -9 2.4999999879139869 4.3301270259000564 -12 0.37580157663508379 2.5408650916807378 -12 2.465848112410058 1.4099871989758821 -12 2.4999999879139869 4.3301270259000564 -9 0.37580157663508379 2.5408650916807378 -9 0.37580157663508379 2.5408650916807378 -12 2.4999999879139869 4.3301270259000564 -12 -6.2995949836986492e-09 5 -12 0.37580157663508379 2.5408650916807378 -12 0.37580157663508379 2.5408650916807378 -15 -2.4999999999999991 4.3301270189221936 -12 -6.2995949836986492e-09 5 -12 -1.107852388446384 3.1911857209629071 -12 -1.107852388446384 3.1911857209629071 -15 -0.91506351183037493 1.5849364925866429 -12 0.37580157663508379 2.5408650916807378 -12 -1.107852388446384 3.1911857209629071 -12 -1.107852388446384 3.1911857209629071 -15 -6.2995949836986492e-09 5 -12 0.37580157663508379 2.5408650916807378 -12 -1.107852388446384 3.1911857209629071 -12 -1.107852388446384 3.1911857209629071 -15 -6.2995949836986492e-09 5 -12 0.37580157663508379 2.5408650916807378 -12 -1.107852388446384 3.1911857209629071 -15 0.37580157663508379 2.5408650916807378 -15 -6.2995949836986492e-09 5 -12 -1.107852388446384 3.1911857209629071 -15 0.37580157663508379 2.5408650916807378 -15 -6.2995949836986492e-09 5 -15 -2.4999999999999991 4.3301270189221936 -12 -6.2995949836986492e-09 5 -12 -1.107852388446384 3.1911857209629071 -15 -6.2995949836986492e-09 5 -15 2.4999999879139869 4.3301270259000564 -12 -6.2995949836986492e-09 5 -12 0.37580157663508379 2.5408650916807378 -15 2.4999999879139869 4.3301270259000564 -15 2.465848112410058 1.4099871989758821 -15 2.4999999879139869 4.3301270259000564 -12 0.37580157663508379 2.5408650916807378 -12 0.37580157663508379 2.5408650916807378 -15 2.465848112410058 1.4099871989758821 -15 2.4999999879139869 4.3301270259000564 -12 0.37580157663508379 2.5408650916807378 -15 2.4999999879139869 4.3301270259000564 -15 -6.2995949836986492e-09 5 -12 0.37580157663508379 2.5408650916807378 -15 -6.2995949836986492e-09 5 -15 2.4999999879139869 4.3301270259000564 -15 2.465848112410058 1.4099871989758821 -15 2.4999999879139869 4.3301270259000564 -12 4.3301270155636349 2.5000000058171929 -15 4.3301270155636349 2.5000000058171929 -12 2.465848112410058 1.4099871989758821 -15 2.4999999879139869 4.3301270259000564 -12 2.4999999879139869 4.3301270259000564 -15 4.3301270155636349 2.5000000058171929 -15 2.465848112410058 1.4099871989758821 -12 2.4999999879139869 4.3301270259000564 -9 4.3301270155636349 2.5000000058171929 -12 4.3301270155636349 2.5000000058171929 -9 2.465848112410058 1.4099871989758821 -12 2.4999999879139869 4.3301270259000564 -9 2.4999999879139869 4.3301270259000564 -12 4.3301270155636349 2.5000000058171929 -12 2.465848112410058 1.4099871989758821 -9 2.4999999879139869 4.3301270259000564 -9 4.3301270155636349 2.5000000058171929 -9 2.4999999879139869 4.3301270259000564 -6 2.217625015551433 -2.5696135239339939 -15 2.500000010727558 -4.3301270127286351 -15 2.500000010727558 -4.3301270127286351 -12 4.3301270218486989 -2.4999999949311431 -12 2.217625015551433 -2.5696135239339939 -15 2.217625015551433 -2.5696135239339939 -12 2.500000010727558 -4.3301270127286351 -12 4.3301270218486989 -2.4999999949311431 -12 2.217625015551433 -2.5696135239339939 -15 2.217625015551433 -2.5696135239339939 -12 2.3883545080289421 -0.94497882694672608 -12 4.3301270218486989 -2.4999999949311431 -12 2.217625015551433 -2.5696135239339939 -15 2.500000010727558 -4.3301270127286351 -15 4.3301270218486989 -2.4999999949311431 -12 4.3301270218486989 -2.4999999949311431 -15 2.217625015551433 -2.5696135239339939 -15 2.3883545080289421 -0.94497882694672608 -12 2.3883545080289421 -0.94497882694672608 -15 4.3301270218486989 -2.4999999949311431 -12 2.217625015551433 -2.5696135239339939 -15 2.3883545080289421 -0.94497882694672608 -15 4.3301270218486989 -2.4999999949311431 -12 4.3301270218486989 -2.4999999949311431 -15 2.3883545080289421 -0.94497882694672608 -15 4.3301270218486989 -2.4999999949311431 -12 4.3301270218486989 -2.4999999949311431 -15 5 0 -12 2.3883545080289421 -0.94497882694672608 -15 4.3301270218486989 -2.4999999949311431 -15 5 0 -15 5 0 -12 2.465848112410058 1.4099871989758821 -15 2.3883545080289421 -0.94497882694672608 -15 5 0 -15 5 0 -12 2.3883545080289421 -0.94497882694672608 -12 2.465848112410058 1.4099871989758821 -15 2.3883545080289421 -0.94497882694672608 -15 5 0 -12 2.465848112410058 1.4099871989758821 -15 4.3301270155636349 2.5000000058171929 -15 4.3301270155636349 2.5000000058171929 -12 5 0 -15 2.465848112410058 1.4099871989758821 -15 4.3301270155636349 2.5000000058171929 -12 5 0 -15 5 0 -12 2.465848112410058 1.4099871989758821 -12 2.465848112410058 1.4099871989758821 -15 2.4999999879139869 4.3301270259000564 -12 4.3301270155636349 2.5000000058171929 -12 2.465848112410058 1.4099871989758821 -12 2.465848112410058 1.4099871989758821 -15 4.3301270155636349 2.5000000058171929 -12 5 0 -12 2.3883545080289421 -0.94497882694672608 -12 2.3883545080289421 -0.94497882694672608 -15 4.3301270218486989 -2.4999999949311431 -12 5 0 -12 2.3883545080289421 -0.94497882694672608 -12 2.465848112410058 1.4099871989758821 -12 2.465848112410058 1.4099871989758821 -15 5 0 -12 2.3883545080289421 -0.94497882694672608 -9 2.3883545080289421 -0.94497882694672608 -12 5 0 -9 4.3301270218486989 -2.4999999949311431 -9 2.3883545080289421 -0.94497882694672608 -12 4.3301270218486989 -2.4999999949311431 -12 5 0 -12 5 0 -9 2.3883545080289421 -0.94497882694672608 -9 2.3883545080289421 -0.94497882694672608 -12 2.465848112410058 1.4099871989758821 -12 5 0 -9 2.3883545080289421 -0.94497882694672608 -9 2.465848112410058 1.4099871989758821 -9 2.465848112410058 1.4099871989758821 -12 5 0 -9 2.3883545080289421 -0.94497882694672608 -12 2.465848112410058 1.4099871989758821 -12 5 0 -12 5 0 -9 2.465848112410058 1.4099871989758821 -9 2.465848112410058 1.4099871989758821 -12 2.4999999879139869 4.3301270259000564 -9 4.3301270155636349 2.5000000058171929 -9 2.465848112410058 1.4099871989758821 -12 4.3301270155636349 2.5000000058171929 -9 5 0 -12 5 0 -9 2.465848112410058 1.4099871989758821 -12 4.3301270155636349 2.5000000058171929 -12 4.3301270155636349 2.5000000058171929 -9 5 0 -12 2.465848112410058 1.4099871989758821 -9 2.465848112410058 1.4099871989758821 -12 4.3301270155636349 2.5000000058171929 -9 5 0 -9 2.465848112410058 1.4099871989758821 -9 4.3301270155636349 2.5000000058171929 -9 5 0 -9 4.3301270155636349 2.5000000058171929 -6 2.3883545080289421 -0.94497882694672608 -9 5 0 -9 4.3301270218486989 -2.4999999949311431 -9 5 0 -6 2.3883545080289421 -0.94497882694672608 -9 2.465848112410058 1.4099871989758821 -9 5 0 -9 5 0 -6 2.217625015551433 -2.5696135239339939 -9 2.3883545080289421 -0.94497882694672608 -9 4.3301270218486989 -2.4999999949311431 -9 4.3301270218486989 -2.4999999949311431 -6 2.217625015551433 -2.5696135239339939 -9 4.3301270218486989 -2.4999999949311431 -9 2.500000010727558 -4.3301270127286351 -9 4.3301270218486989 -2.4999999949311431 -6 2.217625015551433 -2.5696135239339939 -12 2.3883545080289421 -0.94497882694672608 -12 4.3301270218486989 -2.4999999949311431 -12 4.3301270218486989 -2.4999999949311431 -9 2.217625015551433 -2.5696135239339939 -12 2.217625015551433 -2.5696135239339939 -9 2.3883545080289421 -0.94497882694672608 -9 4.3301270218486989 -2.4999999949311431 -9 2.3883545080289421 -0.94497882694672608 -12 4.3301270218486989 -2.4999999949311431 -12 5 0 -9 4.3301270218486989 -2.4999999949311431 -9 2.217625015551433 -2.5696135239339939 -12 2.3883545080289421 -0.94497882694672608 -9 2.3883545080289421 -0.94497882694672608 -12 4.3301270218486989 -2.4999999949311431 -9 2.217625015551433 -2.5696135239339939 -12 2.217625015551433 -2.5696135239339939 -9 4.3301270218486989 -2.4999999949311431 -9 2.500000010727558 -4.3301270127286351 -9 2.217625015551433 -2.5696135239339939 -12 2.500000010727558 -4.3301270127286351 -12 4.3301270218486989 -2.4999999949311431 -12 4.3301270218486989 -2.4999999949311431 -9 2.217625015551433 -2.5696135239339939 -12 2.500000010727558 -4.3301270127286351 -12 4.3301270218486989 -2.4999999949311431 -9 2.500000010727558 -4.3301270127286351 -9 2.217625015551433 -2.5696135239339939 -9 2.500000010727558 -4.3301270127286351 -9 2.500000010727558 -4.3301270127286351 -6 4.3301270218486989 -2.4999999949311431 -6 2.500000010727558 -4.3301270127286351 -6 4.3301270218486989 -2.4999999949311431 -3 2.500000010727558 -4.3301270127286351 -3 2.217625015551433 -2.5696135239339939 -6 4.3301270218486989 -2.4999999949311431 -3 2.3883545080289421 -0.94497882694672608 -3 2.3883545080289421 -0.94497882694672608 -6 2.217625015551433 -2.5696135239339939 -6 4.3301270218486989 -2.4999999949311431 -6 4.3301270218486989 -2.4999999949311431 -3 2.3883545080289421 -0.94497882694672608 -6 2.217625015551433 -2.5696135239339939 -6 4.3301270218486989 -2.4999999949311431 -6 5 0 -3 4.3301270218486989 -2.4999999949311431 -3 2.3883545080289421 -0.94497882694672608 -6 2.500000010727558 -4.3301270127286351 -6 4.3301270218486989 -2.4999999949311431 -6 4.3301270218486989 -2.4999999949311431 -3 2.217625015551433 -2.5696135239339939 -6 2.217625015551433 -2.5696135239339939 -9 2.500000010727558 -4.3301270127286351 -6 4.3301270218486989 -2.4999999949311431 -6 2.217625015551433 -2.5696135239339939 -6 2.217625015551433 -2.5696135239339939 -9 4.3301270218486989 -2.4999999949311431 -6 2.3883545080289421 -0.94497882694672608 -6 2.217625015551433 -2.5696135239339939 -6 2.3883545080289421 -0.94497882694672608 -9 4.3301270218486989 -2.4999999949311431 -9 4.3301270218486989 -2.4999999949311431 -6 5 0 -6 2.217625015551433 -2.5696135239339939 -9 2.3883545080289421 -0.94497882694672608 -9 4.3301270218486989 -2.4999999949311431 -6 2.3883545080289421 -0.94497882694672608 -6 2.3883545080289421 -0.94497882694672608 -9 2.465848112410058 1.4099871989758821 -9 5 0 -6 2.3883545080289421 -0.94497882694672608 -6 2.3883545080289421 -0.94497882694672608 -9 4.3301270218486989 -2.4999999949311431 -6 5 0 -6 2.3883545080289421 -0.94497882694672608 -6 2.465848112410058 1.4099871989758821 -9 5 0 -6 2.465848112410058 1.4099871989758821 -6 2.3883545080289421 -0.94497882694672608 -6 2.465848112410058 1.4099871989758821 -9 5 0 -9 5 0 -6 4.3301270155636349 2.5000000058171929 -6 2.465848112410058 1.4099871989758821 -9 5 0 -6 4.3301270155636349 2.5000000058171929 -6 2.465848112410058 1.4099871989758821 -6 2.465848112410058 1.4099871989758821 -9 4.3301270155636349 2.5000000058171929 -6 2.4999999879139869 4.3301270259000564 -6 2.465848112410058 1.4099871989758821 -6 5 0 -6 5 0 -3 4.3301270155636349 2.5000000058171929 -3 2.465848112410058 1.4099871989758821 -6 5 0 -6 4.3301270155636349 2.5000000058171929 -6 4.3301270155636349 2.5000000058171929 -3 2.465848112410058 1.4099871989758821 -6 5 0 -6 5 0 -3 2.465848112410058 1.4099871989758821 -6 2.3883545080289421 -0.94497882694672608 -6 5 0 -3 2.3883545080289421 -0.94497882694672608 -3 2.465848112410058 1.4099871989758821 -6 2.3883545080289421 -0.94497882694672608 -6 4.3301270218486989 -2.4999999949311431 -6 5 0 -6 5 0 -3 2.3883545080289421 -0.94497882694672608 -6 5 0 -3 2.465848112410058 1.4099871989758821 -3 2.3883545080289421 -0.94497882694672608 -3 2.465848112410058 1.4099871989758821 -6 5 0 -3 5 0 0 2.465848112410058 1.4099871989758821 -3 2.3883545080289421 -0.94497882694672608 -3 5 0 -3 5 0 0 4.3301270218486989 -2.4999999949311431 -3 2.3883545080289421 -0.94497882694672608 -3 5 0 -3 4.3301270218486989 -2.4999999949311431 -3 2.3883545080289421 -0.94497882694672608 -3 2.3883545080289421 -0.94497882694672608 -6 5 0 -3 4.3301270155636349 2.5000000058171929 -3 4.3301270155636349 2.5000000058171929 0 2.465848112410058 1.4099871989758821 -3 5 0 -3 4.3301270155636349 2.5000000058171929 -3 2.465848112410058 1.4099871989758821 -3 2.465848112410058 1.4099871989758821 -6 4.3301270155636349 2.5000000058171929 -3 2.4999999879139869 4.3301270259000564 -3 2.465848112410058 1.4099871989758821 -3 2.465848112410058 1.4099871989758821 -6 4.3301270155636349 2.5000000058171929 0 2.4999999879139869 4.3301270259000564 0 2.465848112410058 1.4099871989758821 0 2.465848112410058 1.4099871989758821 -3 5 0 -3 5 0 0 4.3301270155636349 2.5000000058171929 0 2.465848112410058 1.4099871989758821 -3 5 0 0 4.3301270155636349 2.5000000058171929 0 2.465848112410058 1.4099871989758821 0 2.465848112410058 1.4099871989758821 -3 5 0 0 4.3301270218486989 -2.4999999949311431 0 2.3883545080289421 -0.94497882694672608 0 2.3883545080289421 -0.94497882694672608 -3 5 0 0 2.3883545080289421 -0.94497882694672608 0 2.465848112410058 1.4099871989758821 0 2.465848112410058 1.4099871989758821 -3 5 0 0 2.3883545080289421 -0.94497882694672608 0 2.465848112410058 1.4099871989758821 -3 2.3883545080289421 -0.94497882694672608 -3 4.3301270218486989 -2.4999999949311431 0 2.500000010727558 -4.3301270127286351 0 2.217625015551433 -2.5696135239339939 -3 2.217625015551433 -2.5696135239339939 0 4.3301270218486989 -2.4999999949311431 0 2.3883545080289421 -0.94497882694672608 0 2.217625015551433 -2.5696135239339939 -3 2.217625015551433 -2.5696135239339939 0 4.3301270218486989 -2.4999999949311431 0 2.3883545080289421 -0.94497882694672608 0 2.3883545080289421 -0.94497882694672608 -3 2.217625015551433 -2.5696135239339939 -3 5 0 0 4.3301270218486989 -2.4999999949311431 0 4.3301270218486989 -2.4999999949311431 -3 2.3883545080289421 -0.94497882694672608 -3 4.3301270218486989 -2.4999999949311431 -3 2.500000010727558 -4.3301270127286351 -3 2.217625015551433 -2.5696135239339939 -6 2.217625015551433 -2.5696135239339939 -3 4.3301270218486989 -2.4999999949311431 0 4.3301270218486989 -2.4999999949311431 -3 2.3883545080289421 -0.94497882694672608 -3 2.217625015551433 -2.5696135239339939 -3 4.3301270218486989 -2.4999999949311431 -3 2.3883545080289421 -0.94497882694672608 -3 2.217625015551433 -2.5696135239339939 -6 2.217625015551433 -2.5696135239339939 -3 4.3301270218486989 -2.4999999949311431 0 4.3301270218486989 -2.4999999949311431 -3 2.500000010727558 -4.3301270127286351 -3 2.217625015551433 -2.5696135239339939 -3 4.3301270218486989 -2.4999999949311431 0 2.500000010727558 -4.3301270127286351 -3 2.500000010727558 -4.3301270127286351 0 2.217625015551433 -2.5696135239339939 -3 2.465848112410058 1.4099871989758821 -9 4.3301270155636349 2.5000000058171929 -9 4.3301270155636349 2.5000000058171929 -6 2.4999999879139869 4.3301270259000564 -6 4.3301270155636349 2.5000000058171929 -6 2.4999999879139869 4.3301270259000564 -3 2.4999999879139869 4.3301270259000564 -6 2.465848112410058 1.4099871989758821 -6 4.3301270155636349 2.5000000058171929 -6 4.3301270155636349 2.5000000058171929 -3 2.4999999879139869 4.3301270259000564 -3 2.465848112410058 1.4099871989758821 -6 4.3301270155636349 2.5000000058171929 -3 2.4999999879139869 4.3301270259000564 0 2.4999999879139869 4.3301270259000564 -3 2.465848112410058 1.4099871989758821 -3 4.3301270155636349 2.5000000058171929 -3 4.3301270155636349 2.5000000058171929 0 2.4999999879139869 4.3301270259000564 0 2.465848112410058 1.4099871989758821 -3 2.4999999879139869 4.3301270259000564 0 -6.2995949836986492e-09 5 0 0.37580157663508379 2.5408650916807378 0 0.37580157663508379 2.5408650916807378 -3 2.4999999879139869 4.3301270259000564 0 0.37580157663508379 2.5408650916807378 0 0.37580157663508379 2.5408650916807378 -3 2.465848112410058 1.4099871989758821 -3 2.4999999879139869 4.3301270259000564 0 -6.2995949836986492e-09 5 0 0.37580157663508379 2.5408650916807378 -3 2.4999999879139869 4.3301270259000564 -3 -6.2995949836986492e-09 5 0 -1.107852388446384 3.1911857209629071 -3 -6.2995949836986492e-09 5 -3 -2.4999999999999991 4.3301270189221936 0 -6.2995949836986492e-09 5 0 -1.107852388446384 3.1911857209629071 0 0.37580157663508379 2.5408650916807378 0 -1.107852388446384 3.1911857209629071 -3 -6.2995949836986492e-09 5 0 -1.107852388446384 3.1911857209629071 0 -1.107852388446384 3.1911857209629071 -3 -2.4999999999999991 4.3301270189221936 0 -6.2995949836986492e-09 5 0 0.37580157663508379 2.5408650916807378 0 -1.107852388446384 3.1911857209629071 -3 0.37580157663508379 2.5408650916807378 -3 -1.107852388446384 3.1911857209629071 0 0.37580157663508379 2.5408650916807378 0 -1.107852388446384 3.1911857209629071 -3 -0.91506351183037493 1.5849364925866429 0 -6.2995949836986492e-09 5 0 -1.107852388446384 3.1911857209629071 -3 0.37580157663508379 2.5408650916807378 -3 -6.2995949836986492e-09 5 -3 -6.2995949836986492e-09 5 0 0.37580157663508379 2.5408650916807378 -3 -6.2995949836986492e-09 5 -3 2.4999999879139869 4.3301270259000564 -3 2.4999999879139869 4.3301270259000564 0 0.37580157663508379 2.5408650916807378 -3 2.4999999879139869 4.3301270259000564 -3 2.465848112410058 1.4099871989758821 -3 0.37580157663508379 2.5408650916807378 -3 2.4999999879139869 4.3301270259000564 -3 0.37580157663508379 2.5408650916807378 -6 2.465848112410058 1.4099871989758821 -6 2.4999999879139869 4.3301270259000564 -3 0.37580157663508379 2.5408650916807378 -6 2.4999999879139869 4.3301270259000564 -6 2.465848112410058 1.4099871989758821 -6 -6.2995949836986492e-09 5 -3 2.4999999879139869 4.3301270259000564 -3 0.37580157663508379 2.5408650916807378 -6 2.4999999879139869 4.3301270259000564 -6 -6.2995949836986492e-09 5 -3 0.37580157663508379 2.5408650916807378 -6 2.4999999879139869 4.3301270259000564 -6 -6.2995949836986492e-09 5 -6 0.37580157663508379 2.5408650916807378 -3 -6.2995949836986492e-09 5 -3 2.4999999879139869 4.3301270259000564 -3 0.37580157663508379 2.5408650916807378 -6 -1.107852388446384 3.1911857209629071 -3 0.37580157663508379 2.5408650916807378 -3 -1.107852388446384 3.1911857209629071 -6 -0.91506351183037493 1.5849364925866429 -3 -1.107852388446384 3.1911857209629071 -3 0.37580157663508379 2.5408650916807378 -3 -6.2995949836986492e-09 5 -3 -1.107852388446384 3.1911857209629071 -6 -6.2995949836986492e-09 5 -3 -1.107852388446384 3.1911857209629071 -6 0.37580157663508379 2.5408650916807378 -6 -6.2995949836986492e-09 5 -6 0.37580157663508379 2.5408650916807378 -3 -6.2995949836986492e-09 5 -3 -1.107852388446384 3.1911857209629071 -6 0.37580157663508379 2.5408650916807378 -6 -1.107852388446384 3.1911857209629071 -3 -6.2995949836986492e-09 5 -3 -1.107852388446384 3.1911857209629071 -6 -2.4999999999999991 4.3301270189221936 -3 -1.107852388446384 3.1911857209629071 -9 -1.107852388446384 3.1911857209629071 -6 0.37580157663508379 2.5408650916807378 -6 -6.2995949836986492e-09 5 -6 -1.107852388446384 3.1911857209629071 -9 -1.107852388446384 3.1911857209629071 -6 -6.2995949836986492e-09 5 -6 -2.4999999999999991 4.3301270189221936 -6 0.37580157663508379 2.5408650916807378 -9 -1.107852388446384 3.1911857209629071 -9 0.37580157663508379 2.5408650916807378 -6 -6.2995949836986492e-09 5 -6 -1.107852388446384 3.1911857209629071 -9 -1.107852388446384 3.1911857209629071 -6 0.37580157663508379 2.5408650916807378 -6 -0.91506351183037493 1.5849364925866429 -6 2.4999999879139869 4.3301270259000564 -9 0.37580157663508379 2.5408650916807378 -9 2.4999999879139869 4.3301270259000564 -6 -6.2995949836986492e-09 5 -6 0.37580157663508379 2.5408650916807378 -9 0.37580157663508379 2.5408650916807378 -6 2.4999999879139869 4.3301270259000564 -6 -6.2995949836986492e-09 5 -6 2.465848112410058 1.4099871989758821 -9 0.37580157663508379 2.5408650916807378 -9 0.37580157663508379 2.5408650916807378 -6 2.4999999879139869 4.3301270259000564 -6 -6.2995949836986492e-09 5 -9 -1.107852388446384 3.1911857209629071 -9 -6.2995949836986492e-09 5 -6 -2.4999999999999991 4.3301270189221936 -6 -6.2995949836986492e-09 5 -3 -1.107852388446384 3.1911857209629071 -6 -6.2995949836986492e-09 5 -6 -2.4999999999999991 4.3301270189221936 -3 -2.2253246846922492 2.366533744740174 -9 -1.107852388446384 3.1911857209629071 -6 -2.4999999999999991 4.3301270189221936 -6 -2.2253246846922492 2.366533744740174 -6 -2.2253246846922492 2.366533744740174 -9 -1.107852388446384 3.1911857209629071 -9 -1.107852388446384 3.1911857209629071 -6 -0.91506351183037493 1.5849364925866429 -6 -2.2253246846922492 2.366533744740174 -9 -1.107852388446384 3.1911857209629071 -9 -1.107852388446384 3.1911857209629071 -6 -2.4999999999999991 4.3301270189221936 -6 -2.2253246846922492 2.366533744740174 -9 -2.4999999999999991 4.3301270189221936 -9 -2.4999999999999991 4.3301270189221936 -6 -4.3301270221112951 2.4999999944763132 -6 -2.2253246846922492 2.366533744740174 -9 -2.4999999999999991 4.3301270189221936 -6 -2.2253246846922492 2.366533744740174 -6 -4.3301270221112951 2.4999999944763132 -6 -1.107852388446384 3.1911857209629071 -3 -1.107852388446384 3.1911857209629071 -6 -0.91506351183037493 1.5849364925866429 -3 -2.2253246846922492 2.366533744740174 -6 -1.107852388446384 3.1911857209629071 -6 -2.4999999999999991 4.3301270189221936 -6 -2.4999999999999991 4.3301270189221936 -3 -2.2253246846922492 2.366533744740174 -6 -1.107852388446384 3.1911857209629071 -6 -6.2995949836986492e-09 5 -6 -2.4999999999999991 4.3301270189221936 -6 -2.4999999999999991 4.3301270189221936 -3 -1.107852388446384 3.1911857209629071 -3 -2.4999999999999991 4.3301270189221936 -3 -2.2253246846922492 2.366533744740174 -3 -2.2253246846922492 2.366533744740174 -6 -1.107852388446384 3.1911857209629071 -3 -1.107852388446384 3.1911857209629071 -6 -2.4999999999999991 4.3301270189221936 -3 -2.2253246846922492 2.366533744740174 -6 -2.4999999999999991 4.3301270189221936 -6 -2.4999999999999991 4.3301270189221936 -3 -4.3301270221112951 2.4999999944763132 -3 -2.2253246846922492 2.366533744740174 -6 -2.4999999999999991 4.3301270189221936 -3 -4.3301270221112951 2.4999999944763132 -3 -2.2253246846922492 2.366533744740174 -3 -2.2253246846922492 2.366533744740174 -6 -2.4999999999999991 4.3301270189221936 -6 -4.3301270221112951 2.4999999944763132 -3 -2.2253246846922492 2.366533744740174 -6 -4.3301270221112951 2.4999999944763132 -6 -2.4999999999999991 4.3301270189221936 -3 -4.3301270221112951 2.4999999944763132 0 -4.3301270221112951 2.4999999944763132 -3 -2.2253246846922492 2.366533744740174 -3 -1.107852388446384 3.1911857209629071 -3 -2.4999999999999991 4.3301270189221936 -3 -2.4999999999999991 4.3301270189221936 0 -2.2253246846922492 2.366533744740174 -3 -1.107852388446384 3.1911857209629071 -3 -6.2995949836986492e-09 5 -3 -2.4999999999999991 4.3301270189221936 -3 -2.4999999999999991 4.3301270189221936 0 -2.4999999999999991 4.3301270189221936 0 -4.3301270221112951 2.4999999944763132 0 -2.2253246846922492 2.366533744740174 -3 -2.2253246846922492 2.366533744740174 0 -1.107852388446384 3.1911857209629071 0 -1.107852388446384 3.1911857209629071 -3 -2.2253246846922492 2.366533744740174 -3 -0.91506351183037493 1.5849364925866429 0 -2.4999999999999991 4.3301270189221936 -3 -2.4999999999999991 4.3301270189221936 0 -4.3301270221112951 2.4999999944763132 0 -2.2253246846922492 2.366533744740174 -3 -1.107852388446384 3.1911857209629071 0 -1.107852388446384 3.1911857209629071 -3 -2.4999999999999991 4.3301270189221936 0 -2.2253246846922492 2.366533744740174 -3 -1.107852388446384 3.1911857209629071 0 -2.4999999999999991 4.3301270189221936 0 -2.2253246846922492 2.366533744740174 -3 -2.2253246846922492 2.366533744740174 0 -4.3301270221112951 2.4999999944763132 0 -5 -1.397247784140632e-08 0 -2.2735805010731909 0.22641949675281539 0 -2.2735805010731909 0.22641949675281539 -3 -4.3301270221112951 2.4999999944763132 0 -4.3301270221112951 2.4999999944763132 -3 -5 -1.397247784140632e-08 0 -2.2735805010731909 0.22641949675281539 -3 -4.3301270221112951 2.4999999944763132 0 -4.3301270221112951 2.4999999944763132 -3 -2.2735805010731909 0.22641949675281539 -3 -2.2253246846922492 2.366533744740174 -3 -4.3301270221112951 2.4999999944763132 -3 -5 -1.397247784140632e-08 -3 -5 -1.397247784140632e-08 0 -2.2735805010731909 0.22641949675281539 -3 -5 -1.397247784140632e-08 -3 -5 -1.397247784140632e-08 0 -2.2735805010731909 0.22641949675281539 -3 -2.9547160992544761 -1.820741508163664 -3 -5 -1.397247784140632e-08 -3 -5 -1.397247784140632e-08 0 -2.9547160992544761 -1.820741508163664 -3 -4.3301270160527148 -2.500000004970083 0 -5 -1.397247784140632e-08 0 -2.2735805010731909 0.22641949675281539 0 -2.2735805010731909 0.22641949675281539 -3 -2.9547160992544761 -1.820741508163664 -3 -5 -1.397247784140632e-08 0 -2.2735805010731909 0.22641949675281539 0 -2.9547160992544761 -1.820741508163664 -3 -2.9547160992544761 -1.820741508163664 0 -2.2735805010731909 0.22641949675281539 0 -2.2735805010731909 0.22641949675281539 -3 -0.66987297914647026 -2.499999999706382 -3 -2.9547160992544761 -1.820741508163664 -3 -2.2735805010731909 0.22641949675281539 0 -2.2735805010731909 0.22641949675281539 -3 0.20080558631870429 0.033909897404034287 -3 -0.66987297914647026 -2.499999999706382 -3 -2.2735805010731909 0.22641949675281539 0 -2.2735805010731909 0.22641949675281539 -3 0.20080558631870429 0.033909897404034287 -3 -0.91506351183037493 1.5849364925866429 -3 -2.2735805010731909 0.22641949675281539 0 -2.2735805010731909 0.22641949675281539 -3 -2.2253246846922492 2.366533744740174 -3 -0.91506351183037493 1.5849364925866429 -3 -1.107852388446384 3.1911857209629071 -3 -2.2253246846922492 2.366533744740174 -3 -0.91506351183037493 1.5849364925866429 0 -0.91506351183037493 1.5849364925866429 -3 -2.2735805010731909 0.22641949675281539 0 -2.2253246846922492 2.366533744740174 -3 -0.91506351183037493 1.5849364925866429 0 -0.91506351183037493 1.5849364925866429 -3 -1.107852388446384 3.1911857209629071 0 -2.2253246846922492 2.366533744740174 -3 -2.2253246846922492 2.366533744740174 0 -0.91506351183037493 1.5849364925866429 0 -4.3301270221112951 2.4999999944763132 0 -2.2735805010731909 0.22641949675281539 0 -2.2735805010731909 0.22641949675281539 -3 -2.2253246846922492 2.366533744740174 -3 -2.2735805010731909 0.22641949675281539 0 -2.2253246846922492 2.366533744740174 -3 -2.2253246846922492 2.366533744740174 0 -0.91506351183037493 1.5849364925866429 0 -4.3301270221112951 2.4999999944763132 0 -2.2735805010731909 0.22641949675281539 0 -2.2253246846922492 2.366533744740174 -3 -2.2253246846922492 2.366533744740174 0 0.37580157663508379 2.5408650916807378 0 -1.107852388446384 3.1911857209629071 -3 -0.91506351183037493 1.5849364925866429 0 -0.91506351183037493 1.5849364925866429 -3 0.37580157663508379 2.5408650916807378 0 -0.91506351183037493 1.5849364925866429 0 0.20080558631870429 0.033909897404034287 0 -0.91506351183037493 1.5849364925866429 -3 -2.2735805010731909 0.22641949675281539 0 -0.91506351183037493 1.5849364925866429 0 0.20080558631870429 0.033909897404034287 0 -0.91506351183037493 1.5849364925866429 -3 0.37580157663508379 2.5408650916807378 0 0.37580157663508379 2.5408650916807378 -3 0.20080558631870429 0.033909897404034287 0 -0.91506351183037493 1.5849364925866429 -3 -2.2735805010731909 0.22641949675281539 0 0.20080558631870429 0.033909897404034287 0 0.20080558631870429 0.033909897404034287 -3 -0.66987297914647026 -2.499999999706382 0 -2.2735805010731909 0.22641949675281539 0 0.20080558631870429 0.033909897404034287 0 0.20080558631870429 0.033909897404034287 -3 -0.91506351183037493 1.5849364925866429 -3 0.20080558631870429 0.033909897404034287 0 0.20080558631870429 0.033909897404034287 -3 0.95458002071209891 -1.657898275923388 -3 -0.66987297914647026 -2.499999999706382 0 -2.2735805010731909 0.22641949675281539 0 0.20080558631870429 0.033909897404034287 -3 -0.66987297914647026 -2.499999999706382 -3 -0.66987297914647026 -2.499999999706382 0 0.20080558631870429 0.033909897404034287 0 2.3883545080289421 -0.94497882694672608 0 0.95458002071209891 -1.657898275923388 -3 0.95458002071209891 -1.657898275923388 0 0.20080558631870429 0.033909897404034287 0 2.3883545080289421 -0.94497882694672608 0 0.20080558631870429 0.033909897404034287 -3 0.95458002071209891 -1.657898275923388 -3 0.20080558631870429 0.033909897404034287 0 2.3883545080289421 -0.94497882694672608 0 2.465848112410058 1.4099871989758821 -3 0.20080558631870429 0.033909897404034287 -3 0.20080558631870429 0.033909897404034287 0 2.3883545080289421 -0.94497882694672608 0 2.465848112410058 1.4099871989758821 0 2.465848112410058 1.4099871989758821 -3 2.4999999879139869 4.3301270259000564 0 0.37580157663508379 2.5408650916807378 0 2.465848112410058 1.4099871989758821 0 2.465848112410058 1.4099871989758821 -3 0.37580157663508379 2.5408650916807378 0 0.37580157663508379 2.5408650916807378 -3 0.20080558631870429 0.033909897404034287 0 2.465848112410058 1.4099871989758821 -3 0.37580157663508379 2.5408650916807378 0 0.20080558631870429 0.033909897404034287 0 2.465848112410058 1.4099871989758821 0 2.465848112410058 1.4099871989758821 -3 0.37580157663508379 2.5408650916807378 -3 0.20080558631870429 0.033909897404034287 0 2.465848112410058 1.4099871989758821 -3 0.20080558631870429 0.033909897404034287 -3 2.3883545080289421 -0.94497882694672608 0 2.465848112410058 1.4099871989758821 -3 2.3883545080289421 -0.94497882694672608 -3 0.20080558631870429 0.033909897404034287 -3 2.3883545080289421 -0.94497882694672608 0 2.3883545080289421 -0.94497882694672608 -3 0.20080558631870429 0.033909897404034287 -3 0.95458002071209891 -1.657898275923388 -3 0.37580157663508379 2.5408650916807378 0 -1.107852388446384 3.1911857209629071 -3 0.37580157663508379 2.5408650916807378 -3 -0.91506351183037493 1.5849364925866429 -3 0.37580157663508379 2.5408650916807378 -3 0.20080558631870429 0.033909897404034287 0 0.20080558631870429 0.033909897404034287 -3 -0.91506351183037493 1.5849364925866429 -3 0.37580157663508379 2.5408650916807378 -3 0.37580157663508379 2.5408650916807378 -6 0.20080558631870429 0.033909897404034287 -3 -0.91506351183037493 1.5849364925866429 -6 0.37580157663508379 2.5408650916807378 -6 0.20080558631870429 0.033909897404034287 -3 0.20080558631870429 0.033909897404034287 -6 -0.91506351183037493 1.5849364925866429 -6 0.37580157663508379 2.5408650916807378 -3 -1.107852388446384 3.1911857209629071 -6 0.37580157663508379 2.5408650916807378 -6 -0.91506351183037493 1.5849364925866429 -6 -2.2735805010731909 0.22641949675281539 -3 0.20080558631870429 0.033909897404034287 -3 -0.91506351183037493 1.5849364925866429 -3 -0.91506351183037493 1.5849364925866429 -6 0.37580157663508379 2.5408650916807378 -3 -1.107852388446384 3.1911857209629071 -6 -0.91506351183037493 1.5849364925866429 -3 -0.91506351183037493 1.5849364925866429 -6 0.37580157663508379 2.5408650916807378 -3 0.20080558631870429 0.033909897404034287 -3 -0.91506351183037493 1.5849364925866429 -3 -0.91506351183037493 1.5849364925866429 -6 0.20080558631870429 0.033909897404034287 -3 0.20080558631870429 0.033909897404034287 -6 0.95458002071209891 -1.657898275923388 -6 -0.66987297914647026 -2.499999999706382 -3 -2.2735805010731909 0.22641949675281539 -3 0.20080558631870429 0.033909897404034287 -6 -0.66987297914647026 -2.499999999706382 -6 -0.66987297914647026 -2.499999999706382 -3 -2.2735805010731909 0.22641949675281539 -3 0.20080558631870429 0.033909897404034287 -3 0.20080558631870429 0.033909897404034287 -6 -0.66987297914647026 -2.499999999706382 -3 -2.2735805010731909 0.22641949675281539 -3 0.20080558631870429 0.033909897404034287 -3 0.20080558631870429 0.033909897404034287 -6 -0.91506351183037493 1.5849364925866429 -6 2.3883545080289421 -0.94497882694672608 -3 0.20080558631870429 0.033909897404034287 -3 0.20080558631870429 0.033909897404034287 -6 0.95458002071209891 -1.657898275923388 -6 2.3883545080289421 -0.94497882694672608 -3 2.3883545080289421 -0.94497882694672608 -6 0.20080558631870429 0.033909897404034287 -6 0.95458002071209891 -1.657898275923388 -6 2.3883545080289421 -0.94497882694672608 -3 0.20080558631870429 0.033909897404034287 -3 0.95458002071209891 -1.657898275923388 -6 0.95458002071209891 -1.657898275923388 -3 2.3883545080289421 -0.94497882694672608 -3 0.20080558631870429 0.033909897404034287 -3 2.465848112410058 1.4099871989758821 -6 0.20080558631870429 0.033909897404034287 -6 2.3883545080289421 -0.94497882694672608 -3 2.465848112410058 1.4099871989758821 -6 2.3883545080289421 -0.94497882694672608 -6 0.20080558631870429 0.033909897404034287 -6 2.465848112410058 1.4099871989758821 -3 2.3883545080289421 -0.94497882694672608 -3 0.20080558631870429 0.033909897404034287 -3 2.465848112410058 1.4099871989758821 -6 0.37580157663508379 2.5408650916807378 -3 2.4999999879139869 4.3301270259000564 -3 2.465848112410058 1.4099871989758821 -3 2.465848112410058 1.4099871989758821 -6 0.37580157663508379 2.5408650916807378 -3 0.37580157663508379 2.5408650916807378 -6 0.20080558631870429 0.033909897404034287 -3 2.465848112410058 1.4099871989758821 -6 0.37580157663508379 2.5408650916807378 -6 0.20080558631870429 0.033909897404034287 -3 2.465848112410058 1.4099871989758821 -6 0.20080558631870429 0.033909897404034287 -6 0.37580157663508379 2.5408650916807378 -3 2.465848112410058 1.4099871989758821 -3 0.20080558631870429 0.033909897404034287 -3 2.465848112410058 1.4099871989758821 -6 2.465848112410058 1.4099871989758821 -9 0.37580157663508379 2.5408650916807378 -9 0.37580157663508379 2.5408650916807378 -6 0.20080558631870429 0.033909897404034287 -6 2.465848112410058 1.4099871989758821 -9 0.37580157663508379 2.5408650916807378 -6 2.4999999879139869 4.3301270259000564 -6 2.465848112410058 1.4099871989758821 -6 2.465848112410058 1.4099871989758821 -9 0.37580157663508379 2.5408650916807378 -6 2.465848112410058 1.4099871989758821 -6 0.20080558631870429 0.033909897404034287 -6 0.95458002071209891 -1.657898275923388 -9 0.20080558631870429 0.033909897404034287 -9 2.3883545080289421 -0.94497882694672608 -6 0.20080558631870429 0.033909897404034287 -6 0.95458002071209891 -1.657898275923388 -9 2.3883545080289421 -0.94497882694672608 -6 0.20080558631870429 0.033909897404034287 -6 0.95458002071209891 -1.657898275923388 -6 0.20080558631870429 0.033909897404034287 -9 2.465848112410058 1.4099871989758821 -9 2.3883545080289421 -0.94497882694672608 -6 0.20080558631870429 0.033909897404034287 -6 2.465848112410058 1.4099871989758821 -9 2.465848112410058 1.4099871989758821 -6 2.3883545080289421 -0.94497882694672608 -6 0.20080558631870429 0.033909897404034287 -6 -0.91506351183037493 1.5849364925866429 -9 0.20080558631870429 0.033909897404034287 -9 0.20080558631870429 0.033909897404034287 -6 -2.2735805010731909 0.22641949675281539 -6 0.20080558631870429 0.033909897404034287 -9 0.20080558631870429 0.033909897404034287 -6 -2.2735805010731909 0.22641949675281539 -6 -0.66987297914647026 -2.499999999706382 -6 -0.66987297914647026 -2.499999999706382 -9 0.20080558631870429 0.033909897404034287 -9 -2.2735805010731909 0.22641949675281539 -6 -0.66987297914647026 -2.499999999706382 -6 0.95458002071209891 -1.657898275923388 -9 0.20080558631870429 0.033909897404034287 -9 0.20080558631870429 0.033909897404034287 -6 -0.66987297914647026 -2.499999999706382 -6 -0.91506351183037493 1.5849364925866429 -9 -1.107852388446384 3.1911857209629071 -9 0.37580157663508379 2.5408650916807378 -6 -0.91506351183037493 1.5849364925866429 -6 -0.91506351183037493 1.5849364925866429 -9 0.20080558631870429 0.033909897404034287 -6 -0.91506351183037493 1.5849364925866429 -6 -2.2735805010731909 0.22641949675281539 -6 -0.91506351183037493 1.5849364925866429 -9 0.37580157663508379 2.5408650916807378 -9 0.37580157663508379 2.5408650916807378 -6 0.20080558631870429 0.033909897404034287 -6 -0.91506351183037493 1.5849364925866429 -9 0.37580157663508379 2.5408650916807378 -6 0.20080558631870429 0.033909897404034287 -6 -0.91506351183037493 1.5849364925866429 -6 -2.2253246846922492 2.366533744740174 -9 -2.2253246846922492 2.366533744740174 -6 -4.3301270221112951 2.4999999944763132 -6 -2.2735805010731909 0.22641949675281539 -6 -2.2253246846922492 2.366533744740174 -9 -1.107852388446384 3.1911857209629071 -6 -0.91506351183037493 1.5849364925866429 -6 -2.2253246846922492 2.366533744740174 -6 -2.2735805010731909 0.22641949675281539 -9 -2.2253246846922492 2.366533744740174 -9 -4.3301270221112951 2.4999999944763132 -6 -2.2735805010731909 0.22641949675281539 -6 -2.2253246846922492 2.366533744740174 -9 -0.91506351183037493 1.5849364925866429 -9 -0.91506351183037493 1.5849364925866429 -6 -2.2735805010731909 0.22641949675281539 -6 -2.2253246846922492 2.366533744740174 -9 -0.91506351183037493 1.5849364925866429 -6 -2.2253246846922492 2.366533744740174 -6 -2.2735805010731909 0.22641949675281539 -6 -2.2735805010731909 0.22641949675281539 -9 -4.3301270221112951 2.4999999944763132 -6 -5 -1.397247784140632e-08 -6 -2.2735805010731909 0.22641949675281539 -6 -2.2735805010731909 0.22641949675281539 -9 -4.3301270221112951 2.4999999944763132 -9 -4.3301270221112951 2.4999999944763132 -6 -5 -1.397247784140632e-08 -6 -4.3301270221112951 2.4999999944763132 -3 -5 -1.397247784140632e-08 -3 -2.2735805010731909 0.22641949675281539 -3 -2.2735805010731909 0.22641949675281539 -6 -4.3301270221112951 2.4999999944763132 -3 -2.2253246846922492 2.366533744740174 -6 -4.3301270221112951 2.4999999944763132 -6 -2.2735805010731909 0.22641949675281539 -6 -5 -1.397247784140632e-08 -3 -4.3301270221112951 2.4999999944763132 -6 -5 -1.397247784140632e-08 -6 -2.2735805010731909 0.22641949675281539 -6 -4.3301270221112951 2.4999999944763132 -3 -5 -1.397247784140632e-08 -3 -4.3301270221112951 2.4999999944763132 -6 -2.2735805010731909 0.22641949675281539 -6 -1.107852388446384 3.1911857209629071 -3 -2.2253246846922492 2.366533744740174 -3 -0.91506351183037493 1.5849364925866429 -3 -2.2253246846922492 2.366533744740174 -6 -4.3301270221112951 2.4999999944763132 -3 -2.2735805010731909 0.22641949675281539 -3 -2.2253246846922492 2.366533744740174 -3 -2.2253246846922492 2.366533744740174 -6 -1.107852388446384 3.1911857209629071 -6 -0.91506351183037493 1.5849364925866429 -3 -0.91506351183037493 1.5849364925866429 -6 -2.2253246846922492 2.366533744740174 -6 -2.2735805010731909 0.22641949675281539 -3 -2.2253246846922492 2.366533744740174 -3 -0.91506351183037493 1.5849364925866429 -3 -2.2253246846922492 2.366533744740174 -6 -2.2735805010731909 0.22641949675281539 -3 -0.91506351183037493 1.5849364925866429 -6 -2.2253246846922492 2.366533744740174 -6 -2.2735805010731909 0.22641949675281539 -6 -2.2735805010731909 0.22641949675281539 -3 -0.91506351183037493 1.5849364925866429 -3 -0.91506351183037493 1.5849364925866429 -6 -2.2253246846922492 2.366533744740174 -6 -4.3301270221112951 2.4999999944763132 -3 -2.2735805010731909 0.22641949675281539 -3 -2.2253246846922492 2.366533744740174 -6 -2.2735805010731909 0.22641949675281539 -6 -2.2735805010731909 0.22641949675281539 -3 0.20080558631870429 0.033909897404034287 -6 -2.2735805010731909 0.22641949675281539 -6 -0.66987297914647026 -2.499999999706382 -6 -2.2735805010731909 0.22641949675281539 -3 0.20080558631870429 0.033909897404034287 -6 -0.91506351183037493 1.5849364925866429 -6 -2.2735805010731909 0.22641949675281539 -6 -2.2735805010731909 0.22641949675281539 -3 -2.2735805010731909 0.22641949675281539 -6 -2.9547160992544761 -1.820741508163664 -6 -0.66987297914647026 -2.499999999706382 -6 -5 -1.397247784140632e-08 -3 -5 -1.397247784140632e-08 -6 -2.9547160992544761 -1.820741508163664 -6 -4.3301270160527148 -2.500000004970083 -3 -5 -1.397247784140632e-08 -3 -2.2735805010731909 0.22641949675281539 -3 -2.9547160992544761 -1.820741508163664 -6 -2.9547160992544761 -1.820741508163664 -3 -5 -1.397247784140632e-08 -3 -5 -1.397247784140632e-08 -6 -2.2735805010731909 0.22641949675281539 -6 -2.9547160992544761 -1.820741508163664 -6 -5 -1.397247784140632e-08 -3 -2.2735805010731909 0.22641949675281539 -3 -2.2735805010731909 0.22641949675281539 -6 -2.9547160992544761 -1.820741508163664 -6 -2.9547160992544761 -1.820741508163664 -9 -5 -1.397247784140632e-08 -9 -5 -1.397247784140632e-08 -6 -4.3301270160527148 -2.500000004970083 -6 -2.9547160992544761 -1.820741508163664 -9 -2.2735805010731909 0.22641949675281539 -9 -5 -1.397247784140632e-08 -6 -2.2735805010731909 0.22641949675281539 -6 -2.9547160992544761 -1.820741508163664 -9 -5 -1.397247784140632e-08 -6 -2.2735805010731909 0.22641949675281539 -6 -2.9547160992544761 -1.820741508163664 -6 -0.66987297914647026 -2.499999999706382 -9 -2.9547160992544761 -1.820741508163664 -9 -2.2735805010731909 0.22641949675281539 -6 -0.66987297914647026 -2.499999999706382 -6 -2.9547160992544761 -1.820741508163664 -9 -2.2735805010731909 0.22641949675281539 -6 -2.9547160992544761 -1.820741508163664 -6 -0.66987297914647026 -2.499999999706382 -6 -0.66987297914647026 -2.499999999706382 -9 -2.9547160992544761 -1.820741508163664 -9 -2.5000000000000022 -4.3301270189221919 -6 -0.66987297914647026 -2.499999999706382 -6 -2.9547160992544761 -1.820741508163664 -9 -2.9547160992544761 -1.820741508163664 -6 -2.5000000000000022 -4.3301270189221919 -6 -0.66987297914647026 -2.499999999706382 -6 -2.9547160992544761 -1.820741508163664 -9 -2.9547160992544761 -1.820741508163664 -6 -4.3301270160527148 -2.500000004970083 -6 -2.5000000000000022 -4.3301270189221919 -6 -2.9547160992544761 -1.820741508163664 -9 -5 -1.397247784140632e-08 -6 -2.9547160992544761 -1.820741508163664 -6 -4.3301270160527148 -2.500000004970083 -6 -4.3301270160527148 -2.500000004970083 -9 -2.9547160992544761 -1.820741508163664 -9 -4.3301270160527148 -2.500000004970083 -6 -2.5000000000000022 -4.3301270189221919 -6 -2.9547160992544761 -1.820741508163664 -6 -4.3301270160527148 -2.500000004970083 -6 -2.5000000000000022 -4.3301270189221919 -3 -4.3301270160527148 -2.500000004970083 -3 -5 -1.397247784140632e-08 -6 -2.9547160992544761 -1.820741508163664 -6 -4.3301270160527148 -2.500000004970083 -6 -4.3301270160527148 -2.500000004970083 -3 -5 -1.397247784140632e-08 -3 -2.9547160992544761 -1.820741508163664 -6 -2.9547160992544761 -1.820741508163664 -3 -4.3301270160527148 -2.500000004970083 -3 -2.9547160992544761 -1.820741508163664 -6 -2.5000000000000022 -4.3301270189221919 -3 -2.9547160992544761 -1.820741508163664 -3 -4.3301270160527148 -2.500000004970083 -3 -2.9547160992544761 -1.820741508163664 -6 -0.66987297914647026 -2.499999999706382 -3 -2.5000000000000022 -4.3301270189221919 -3 -2.9547160992544761 -1.820741508163664 -3 -2.2735805010731909 0.22641949675281539 -3 -2.9547160992544761 -1.820741508163664 -6 -0.66987297914647026 -2.499999999706382 -3 -2.9547160992544761 -1.820741508163664 -3 -2.9547160992544761 -1.820741508163664 -6 -0.66987297914647026 -2.499999999706382 -6 -0.66987297914647026 -2.499999999706382 -3 -2.5000000000000022 -4.3301270189221919 -3 -2.2735805010731909 0.22641949675281539 -3 -2.9547160992544761 -1.820741508163664 -6 -0.66987297914647026 -2.499999999706382 -6 -0.66987297914647026 -2.499999999706382 -3 -2.9547160992544761 -1.820741508163664 -6 -2.5000000000000022 -4.3301270189221919 -6 -0.66987297914647026 -2.499999999706382 -6 -2.5000000000000022 -4.3301270189221919 -3 -2.9547160992544761 -1.820741508163664 -6 -4.3301270160527148 -2.500000004970083 -6 -2.5000000000000022 -4.3301270189221919 -6 -2.5000000000000022 -4.3301270189221919 -3 -2.5000000000000022 -4.3301270189221919 -6 -0.66987297914647026 -2.499999999706382 -6 6.9142305214597846e-09 -5 -3 -2.5000000000000022 -4.3301270189221919 -3 -0.66987297914647026 -2.499999999706382 -9 -2.5000000000000022 -4.3301270189221919 -9 -2.5000000000000022 -4.3301270189221919 -6 6.9142305214597846e-09 -5 -6 0.91506351643986317 -3.4150635091400758 -9 -0.66987297914647026 -2.499999999706382 -9 6.9142305214597846e-09 -5 -6 -0.66987297914647026 -2.499999999706382 -6 -0.66987297914647026 -2.499999999706382 -9 -2.5000000000000022 -4.3301270189221919 -6 6.9142305214597846e-09 -5 -6 -0.66987297914647026 -2.499999999706382 -6 0.91506351643986317 -3.4150635091400758 -9 6.9142305214597846e-09 -5 -6 -0.66987297914647026 -2.499999999706382 -6 0.91506351643986317 -3.4150635091400758 -6 0.91506351643986317 -3.4150635091400758 -9 0.95458002071209891 -1.657898275923388 -9 -0.66987297914647026 -2.499999999706382 -6 0.91506351643986317 -3.4150635091400758 -6 0.95458002071209891 -1.657898275923388 -9 0.20080558631870429 0.033909897404034287 -6 -0.66987297914647026 -2.499999999706382 -6 0.95458002071209891 -1.657898275923388 -6 0.95458002071209891 -1.657898275923388 -9 -0.66987297914647026 -2.499999999706382 -6 0.95458002071209891 -1.657898275923388 -6 0.91506351643986317 -3.4150635091400758 -6 2.217625015551433 -2.5696135239339939 -9 2.3883545080289421 -0.94497882694672608 -6 2.217625015551433 -2.5696135239339939 -6 0.95458002071209891 -1.657898275923388 -6 0.95458002071209891 -1.657898275923388 -9 2.217625015551433 -2.5696135239339939 -9 2.3883545080289421 -0.94497882694672608 -6 0.95458002071209891 -1.657898275923388 -6 2.217625015551433 -2.5696135239339939 -9 2.217625015551433 -2.5696135239339939 -6 0.95458002071209891 -1.657898275923388 -6 0.91506351643986317 -3.4150635091400758 -6 0.95458002071209891 -1.657898275923388 -9 2.217625015551433 -2.5696135239339939 -9 0.95458002071209891 -1.657898275923388 -6 0.91506351643986317 -3.4150635091400758 -6 0.91506351643986317 -3.4150635091400758 -9 6.9142305214597846e-09 -5 -9 2.500000010727558 -4.3301270127286351 -6 6.9142305214597846e-09 -5 -6 0.91506351643986317 -3.4150635091400758 -9 2.500000010727558 -4.3301270127286351 -6 6.9142305214597846e-09 -5 -6 0.91506351643986317 -3.4150635091400758 -6 2.217625015551433 -2.5696135239339939 -9 2.500000010727558 -4.3301270127286351 -6 2.217625015551433 -2.5696135239339939 -6 0.91506351643986317 -3.4150635091400758 -6 0.91506351643986317 -3.4150635091400758 -9 2.217625015551433 -2.5696135239339939 -9 2.500000010727558 -4.3301270127286351 -6 0.91506351643986317 -3.4150635091400758 -6 2.500000010727558 -4.3301270127286351 -3 0.91506351643986317 -3.4150635091400758 -6 6.9142305214597846e-09 -5 -3 0.91506351643986317 -3.4150635091400758 -3 2.500000010727558 -4.3301270127286351 -6 2.500000010727558 -4.3301270127286351 -3 2.217625015551433 -2.5696135239339939 -6 0.91506351643986317 -3.4150635091400758 -6 2.500000010727558 -4.3301270127286351 -3 2.217625015551433 -2.5696135239339939 -6 0.91506351643986317 -3.4150635091400758 -6 0.91506351643986317 -3.4150635091400758 -3 2.500000010727558 -4.3301270127286351 -3 2.217625015551433 -2.5696135239339939 -6 2.217625015551433 -2.5696135239339939 -3 0.91506351643986317 -3.4150635091400758 -3 2.500000010727558 -4.3301270127286351 -6 2.500000010727558 -4.3301270127286351 -3 6.9142305214597846e-09 -5 -6 0.91506351643986317 -3.4150635091400758 -6 2.500000010727558 -4.3301270127286351 -3 6.9142305214597846e-09 -5 -6 0.91506351643986317 -3.4150635091400758 -6 6.9142305214597846e-09 -5 -3 2.217625015551433 -2.5696135239339939 -6 0.95458002071209891 -1.657898275923388 -6 0.95458002071209891 -1.657898275923388 -3 0.91506351643986317 -3.4150635091400758 -3 2.3883545080289421 -0.94497882694672608 -3 2.217625015551433 -2.5696135239339939 -6 0.95458002071209891 -1.657898275923388 -6 0.95458002071209891 -1.657898275923388 -3 2.3883545080289421 -0.94497882694672608 -3 2.3883545080289421 -0.94497882694672608 -6 2.217625015551433 -2.5696135239339939 -6 0.95458002071209891 -1.657898275923388 -6 2.3883545080289421 -0.94497882694672608 -3 2.217625015551433 -2.5696135239339939 -6 2.217625015551433 -2.5696135239339939 -3 0.95458002071209891 -1.657898275923388 -3 2.217625015551433 -2.5696135239339939 -6 2.217625015551433 -2.5696135239339939 -3 0.95458002071209891 -1.657898275923388 -3 0.91506351643986317 -3.4150635091400758 -3 2.217625015551433 -2.5696135239339939 -6 0.95458002071209891 -1.657898275923388 -6 0.91506351643986317 -3.4150635091400758 -6 0.91506351643986317 -3.4150635091400758 -3 0.20080558631870429 0.033909897404034287 -3 0.95458002071209891 -1.657898275923388 -6 -0.66987297914647026 -2.499999999706382 -3 0.95458002071209891 -1.657898275923388 -3 0.20080558631870429 0.033909897404034287 -6 -0.66987297914647026 -2.499999999706382 -6 0.95458002071209891 -1.657898275923388 -6 -0.66987297914647026 -2.499999999706382 -3 0.95458002071209891 -1.657898275923388 -6 -0.66987297914647026 -2.499999999706382 -3 0.95458002071209891 -1.657898275923388 -3 0.91506351643986317 -3.4150635091400758 -3 -0.66987297914647026 -2.499999999706382 -6 0.95458002071209891 -1.657898275923388 -6 0.91506351643986317 -3.4150635091400758 -6 -0.66987297914647026 -2.499999999706382 -3 0.95458002071209891 -1.657898275923388 -6 0.91506351643986317 -3.4150635091400758 -6 -0.66987297914647026 -2.499999999706382 -3 0.91506351643986317 -3.4150635091400758 -3 0.91506351643986317 -3.4150635091400758 -6 6.9142305214597846e-09 -5 -3 -0.66987297914647026 -2.499999999706382 -3 0.91506351643986317 -3.4150635091400758 -3 6.9142305214597846e-09 -5 -6 -0.66987297914647026 -2.499999999706382 -6 0.91506351643986317 -3.4150635091400758 -6 6.9142305214597846e-09 -5 -3 -0.66987297914647026 -2.499999999706382 -6 0.91506351643986317 -3.4150635091400758 -6 6.9142305214597846e-09 -5 -3 -0.66987297914647026 -2.499999999706382 -3 -2.5000000000000022 -4.3301270189221919 -6 6.9142305214597846e-09 -5 -6 -0.66987297914647026 -2.499999999706382 -6 6.9142305214597846e-09 -5 -3 -0.66987297914647026 -2.499999999706382 -6 6.9142305214597846e-09 -5 -3 -0.66987297914647026 -2.499999999706382 -3 -2.5000000000000022 -4.3301270189221919 -3 6.9142305214597846e-09 -5 -3 -0.66987297914647026 -2.499999999706382 -3 0.91506351643986317 -3.4150635091400758 -3 6.9142305214597846e-09 -5 0 6.9142305214597846e-09 -5 -3 -0.66987297914647026 -2.499999999706382 -3 6.9142305214597846e-09 -5 0 -2.5000000000000022 -4.3301270189221919 -3 -0.66987297914647026 -2.499999999706382 -3 0.95458002071209891 -1.657898275923388 -3 0.91506351643986317 -3.4150635091400758 -3 -0.66987297914647026 -2.499999999706382 0 0.20080558631870429 0.033909897404034287 -3 -0.66987297914647026 -2.499999999706382 -3 0.95458002071209891 -1.657898275923388 -3 -0.66987297914647026 -2.499999999706382 0 2.3883545080289421 -0.94497882694672608 0 2.3883545080289421 -0.94497882694672608 -3 2.217625015551433 -2.5696135239339939 -3 0.95458002071209891 -1.657898275923388 -3 2.217625015551433 -2.5696135239339939 -3 0.95458002071209891 -1.657898275923388 -3 0.91506351643986317 -3.4150635091400758 -3 0.91506351643986317 -3.4150635091400758 0 2.500000010727558 -4.3301270127286351 -3 2.500000010727558 -4.3301270127286351 0 2.217625015551433 -2.5696135239339939 -3 0.91506351643986317 -3.4150635091400758 -3 2.500000010727558 -4.3301270127286351 -3 2.500000010727558 -4.3301270127286351 0 6.9142305214597846e-09 -5 -3 0.91506351643986317 -3.4150635091400758 -3 2.500000010727558 -4.3301270127286351 0 2.217625015551433 -2.5696135239339939 -3 0.91506351643986317 -3.4150635091400758 0 2.217625015551433 -2.5696135239339939 0 2.500000010727558 -4.3301270127286351 0 2.217625015551433 -2.5696135239339939 -3 0.91506351643986317 -3.4150635091400758 -3 0.91506351643986317 -3.4150635091400758 0 2.500000010727558 -4.3301270127286351 0 0.91506351643986317 -3.4150635091400758 -3 0.91506351643986317 -3.4150635091400758 0 6.9142305214597846e-09 -5 0 2.500000010727558 -4.3301270127286351 0 6.9142305214597846e-09 -5 -3 0.91506351643986317 -3.4150635091400758 -3 6.9142305214597846e-09 -5 0 2.217625015551433 -2.5696135239339939 -3 0.91506351643986317 -3.4150635091400758 0 2.217625015551433 -2.5696135239339939 0 0.95458002071209891 -1.657898275923388 0 2.217625015551433 -2.5696135239339939 -3 0.95458002071209891 -1.657898275923388 -3 0.91506351643986317 -3.4150635091400758 0 0.95458002071209891 -1.657898275923388 0 2.3883545080289421 -0.94497882694672608 0 2.217625015551433 -2.5696135239339939 -3 2.217625015551433 -2.5696135239339939 0 0.95458002071209891 -1.657898275923388 0 2.3883545080289421 -0.94497882694672608 0 2.217625015551433 -2.5696135239339939 -3 0.95458002071209891 -1.657898275923388 -3 0.95458002071209891 -1.657898275923388 0 0.95458002071209891 -1.657898275923388 -3 0.91506351643986317 -3.4150635091400758 -3 0.91506351643986317 -3.4150635091400758 0 -0.66987297914647026 -2.499999999706382 0 0.95458002071209891 -1.657898275923388 -3 0.91506351643986317 -3.4150635091400758 0 0.95458002071209891 -1.657898275923388 0 -0.66987297914647026 -2.499999999706382 0 0.20080558631870429 0.033909897404034287 0 0.95458002071209891 -1.657898275923388 -3 0.95458002071209891 -1.657898275923388 0 -0.66987297914647026 -2.499999999706382 0 -0.66987297914647026 -2.499999999706382 -3 -0.66987297914647026 -2.499999999706382 0 6.9142305214597846e-09 -5 0 -2.5000000000000022 -4.3301270189221919 0 -0.66987297914647026 -2.499999999706382 -3 0.91506351643986317 -3.4150635091400758 -3 -0.66987297914647026 -2.499999999706382 0 6.9142305214597846e-09 -5 0 0.91506351643986317 -3.4150635091400758 -3 0.91506351643986317 -3.4150635091400758 0 -0.66987297914647026 -2.499999999706382 0 6.9142305214597846e-09 -5 0 -0.66987297914647026 -2.499999999706382 -3 6.9142305214597846e-09 -5 0 -2.5000000000000022 -4.3301270189221919 0 -2.5000000000000022 -4.3301270189221919 -3 -0.66987297914647026 -2.499999999706382 -3 -2.5000000000000022 -4.3301270189221919 0 -2.5000000000000022 -4.3301270189221919 -3 -2.9547160992544761 -1.820741508163664 -3 -2.5000000000000022 -4.3301270189221919 0 -2.5000000000000022 -4.3301270189221919 -3 -2.9547160992544761 -1.820741508163664 -3 -4.3301270160527148 -2.500000004970083 -3 -0.66987297914647026 -2.499999999706382 -3 -0.66987297914647026 -2.499999999706382 0 -2.5000000000000022 -4.3301270189221919 0 -2.9547160992544761 -1.820741508163664 -3 -0.66987297914647026 -2.499999999706382 0 -2.5000000000000022 -4.3301270189221919 0 -2.9547160992544761 -1.820741508163664 -3 -2.9547160992544761 -1.820741508163664 0 -2.2735805010731909 0.22641949675281539 0 -0.66987297914647026 -2.499999999706382 -3 -0.66987297914647026 -2.499999999706382 0 -2.9547160992544761 -1.820741508163664 -3 -2.2735805010731909 0.22641949675281539 0 -0.66987297914647026 -2.499999999706382 0 -2.9547160992544761 -1.820741508163664 -3 -2.9547160992544761 -1.820741508163664 0 -5 -1.397247784140632e-08 0 -2.9547160992544761 -1.820741508163664 -3 -2.9547160992544761 -1.820741508163664 0 -4.3301270160527148 -2.500000004970083 0 -2.5000000000000022 -4.3301270189221919 0 -2.9547160992544761 -1.820741508163664 -3 -2.9547160992544761 -1.820741508163664 0 -4.3301270160527148 -2.500000004970083 0 -2.5000000000000022 -4.3301270189221919 0 -2.9547160992544761 -1.820741508163664 -3 -4.3301270160527148 -2.500000004970083 0 -4.3301270160527148 -2.500000004970083 -3 -5 -1.397247784140632e-08 -3 -2.9547160992544761 -1.820741508163664 -3 -4.3301270160527148 -2.500000004970083 0 -4.3301270160527148 -2.500000004970083 -3 
</DataArray>
</Points>
<Cells>
<DataArray type="UInt32" Name="connectivity" format="ascii">
0 1 2 3 4 5 6 7 8 9 10 11 12 13 14 15 16 17 18 19 20 21 22 23 24 25 26 27 28 29 30 31 32 33 34 35 36 37 38 39 40 41 42 43 44 45 46 47 48 49 50 51 52 53 54 55 56 57 58 59 60 61 62 63 64 65 66 67 68 69 70 71 72 73 74 75 76 77 78 79 80 81 82 83 84 85 86 87 88 89 90 91 92 93 94 95 96 97 98 99 100 101 102 103 104 105 106 107 108 109 110 111 112 113 114 115 116 117 118 119 120 121 122 123 124 125 126 127 128 129 130 131 132 133 134 135 136 137 138 139 140 141 142 143 144 145 146 147 148 149 150 151 152 153 154 155 156 157 158 159 160 161 162 163 164 165 166 167 168 169 170 171 172 173 174 175 176 177 178 179 180 181 182 183 184 185 186 187 188 189 190 191 192 193 194 195 196 197 198 199 200 201 202 203 204 205 206 207 208 209 210 211 212 213 214 215 216 217 218 219 220 221 222 223 224 225 226 227 228 229 230 231 232 233 234 235 236 237 238 239 240 241 242 243 244 245 246 247 248 249 250 251 252 253 254 255 256 257 258 259 260 261 262 263 264 265 266 267 268 269 270 271 272 273 274 275 276 277 278 279 280 281 282 283 284 285 286 287 288 289 290 291 292 293 294 295 296 297 298 299 300 301 302 303 304 305 306 307 308 309 310 311 312 313 314 315 316 317 318 319 320 321 322 323 324 325 326 327 328 329 330 331 332 333 334 335 336 337 338 339 340 341 342 343 344 345 346 347 348 349 350 351 352 353 354 355 356 357 358 359 360 361 362 363 364 365 366 367 368 369 370 371 372 373 374 375 376 377 378 379 380 381 382 383 384 385 386 387 388 389 390 391 392 393 394 395 396 397 398 399 400 401 402 403 404 405 406 407 408 409 410 411 412 413 414 415 416 417 418 419 420 421 422 423 424 425 426 427 428 429 430 431 432 433 434 435 436 437 438 439 440 441 442 443 444 445 446 447 448 449 450 451 452 453 454 455 456 457 458 459 460 461 462 463 464 465 466 467 468 469 470 471 472 473 474 475 476 477 478 479 480 481 482 483 484 485 486 487 488 489 490 491 492 493 494 495 496 497 498 499 500 501 502 503 504 505 506 507 508 509 510 511 512 513 514 515 516 517 518 519 520 521 522 523 524 525 526 527 528 529 530 531 532 533 534 535 536 537 538 539 540 541 542 543 544 545 546 547 548 549 550 551 552 553 554 555 556 557 558 559 560 561 562 563 564 565 566 567 568 569 570 571 572 573 574 575 576 577 578 579 580 581 582 583 584 585 586 587 588 589 590 591 592 593 594 595 596 597 598 599 600 601 602 603 604 605 606 607 608 609 610 611 612 613 614 615 616 617 618 619 620 621 622 623 624 625 626 627 628 629 630 631 632 633 634 635 636 637 638 639 640 641 642 643 644 645 646 647 648 649 650 651 652 653 654 655 656 657 658 659 660 661 662 663 664 665 666 667 668 669 670 671 672 673 674 675 676 677 678 679 680 681 682 683 684 685 686 687 688 689 690 691 692 693 694 695 696 697 698 699 700 701 702 703 704 705 706 707 708 709 710 711 712 713 714 715 716 717 718 719 720 721 722 723 724 725 726 727 728 729 730 731 732 733 734 735 736 737 738 739 740 741 742 743 744 745 746 747 748 749 750 751 752 753 754 755 756 757 758 759 760 761 762 763 764 765 766 767 768 769 770 771 772 773 774 775 776 777 778 779 780 781 782 783 784 785 786 787 788 789 790 791 792 793 794 795 796 797 798 799 800 801 802 803 804 805 806 807 808 809 810 811 812 813 814 815 816 817 818 819 820 821 822 823 824 825 826 827 828 829 830 831 832 833 834 835 836 837 838 839 840 841 842 843 844 845 846 847 848 849 850 851 852 853 854 855 856 857 858 859 860 861 862 863 864 865 866 867 868 869 870 871 872 873 874 875 876 877 878 879 880 881 882 883 884 885 886 887 888 889 890 891 892 893 894 895 896 897 898 899 900 901 902 903 904 905 906 907 908 909 910 911 912 913 914 915 916 917 918 919 920 921 922 923 924 925 926 927 928 929 930 931 932 933 934 935 936 937 938 939 940 941 942 943 944 945 946 947 948 949 950 951 952 953 954 955 956 957 958 959 960 961 962 963 964 965 966 967 968 969 970 971 972 973 974 975 976 977 978 979 980 981 982 983 984 985 986 987 988 989 990 991 992 993 994 995 996 997 998 999 1000 1001 1002 1003 1004 1005 1006 1007 1008 1009 1010 1011 1012 1013 1014 1015 1016 1017 1018 1019 1020 1021 1022 1023 1024 1025 1026 1027 1028 1029 1030 1031 1032 1033 1034 1035 1036 1037 1038 1039 1040 1041 1042 1043 1044 1045 1046 1047 1048 1049 1050 1051 1052 1053 1054 1055 1056 1057 1058 1059 1060 1061 1062 1063 1064 1065 1066 1067 1068 1069 1070 1071 1072 1073 1074 1075 1076 1077 1078 1079 1080 1081 1082 1083 1084 1085 1086 1087 1088 1089 1090 1091 1092 1093 1094 1095 1096 1097 1098 1099 1100 1101 1102 1103 1104 1105 1106 1107 1108 1109 1110 1111 1112 1113 1114 1115 1116 1117 1118 1119 1120 1121 1122 1123 1124 1125 1126 1127 1128 1129 1130 1131 1132 1133 1134 1135 1136 1137 1138 1139 1140 1141 1142 1143 1144 1145 1146 1147 1148 1149 1150 1151 1152 1153 1154 1155 1156 1157 1158 1159 1160 1161 1162 1163 1164 1165 1166 1167 1168 1169 1170 1171 1172 1173 1174 1175 1176 1177 1178 1179 1180 1181 1182 1183 1184 1185 1186 1187 1188 1189 1190 1191 1192 1193 1194 1195 1196 1197 1198 1199 1200 1201 1202 1203 1204 1205 1206 1207 1208 1209 1210 1211 1212 1213 1214 1215 1216 1217 1218 1219 1220 1221 1222 1223 1224 1225 1226 1227 1228 1229 1230 1231 1232 1233 1234 1235 1236 1237 1238 1239 1240 1241 1242 1243 1244 1245 1246 1247 1248 1249 1250 1251 1252 1253 1254 1255 1256 1257 1258 1259 1260 1261 1262 1263 1264 1265 1266 1267 1268 1269 1270 1271 1272 1273 1274 1275 1276 1277 1278 1279 1280 1281 1282 1283 1284 1285 1286 1287 1288 1289 1290 1291 1292 1293 1294 1295 1296 1297 1298 1299 1300 1301 1302 1303 1304 1305 1306 1307 1308 1309 1310 1311 1312 1313 1314 1315 1316 1317 1318 1319 1320 1321 1322 1323 1324 1325 1326 1327 1328 1329 1330 1331 1332 1333 1334 1335 1336 1337 1338 1339 1340 1341 1342 1343 1344 1345 1346 1347 1348 1349 1350 1351 1352 1353 1354 1355 1356 1357 1358 1359 1360 1361 1362 1363 1364 1365 1366 1367 1368 1369 1370 1371 1372 1373 1374 1375 1376 1377 1378 1379 1380 1381 1382 1383 1384 1385 1386 1387 1388 1389 1390 1391 1392 1393 1394 1395 1396 1397 1398 1399 1400 1401 1402 1403 1404 1405 1406 1407 1408 1409 1410 1411 1412 1413 1414 1415 1416 1417 1418 1419 1420 1421 1422 1423 1424 1425 1426 1427 1428 1429 1430 1431 1432 1433 1434 1435 1436 1437 1438 1439 1440 1441 1442 1443 1444 1445 1446 1447 1448 1449 1450 1451 1452 1453 1454 1455 1456 1457 1458 1459 1460 1461 1462 1463 1464 1465 1466 1467 1468 1469 1470 1471 1472 1473 1474 1475 1476 1477 1478 1479 1480 1481 1482 1483 1484 1485 1486 1487 1488 1489 1490 1491 1492 1493 1494 1495 1496 1497 1498 1499 1500 1501 1502 1503 1504 1505 1506 1507 1508 1509 1510 1511 1512 1513 1514 1515 1516 1517 1518 1519 1520 1521 1522 1523 1524 1525 1526 1527 1528 1529 1530 1531 1532 1533 1534 1535 1536 1537 1538 1539 1540 1541 1542 1543 1544 1545 1546 1547 1548 1549 1550 1551 1552 1553 1554 1555 1556 1557 1558 1559 1560 1561 1562 1563 1564 1565 1566 1567 1568 1569 1570 1571 1572 1573 1574 1575 1576 1577 1578 1579 1580 1581 1582 1583 1584 1585 1586 1587 1588 1589 1590 1591 1592 1593 1594 1595 1596 1597 1598 1599 1600 1601 1602 1603 1604 1605 1606 1607 1608 1609 1610 1611 1612 1613 1614 1615 1616 1617 1618 1619 1620 1621 1622 1623 1624 1625 1626 1627 1628 1629 1630 1631 1632 1633 1634 1635 1636 1637 1638 1639 1640 1641 1642 1643 1644 1645 1646 1647 1648 1649 1650 1651 1652 1653 1654 1655 1656 1657 1658 1659 1660 1661 1662 1663 1664 1665 1666 1667 1668 1669 1670 1671 1672 1673 1674 1675 1676 1677 1678 1679 1680 1681 1682 1683 1684 1685 1686 1687 1688 1689 1690 1691 1692 1693 1694 1695 1696 1697 1698 1699 1700 1701 1702 1703 1704 1705 1706 1707 1708 1709 1710 1711 1712 1713 1714 1715 1716 1717 1718 1719 1720 1721 1722 1723 1724 1725 1726 1727 1728 1729 1730 1731 1732 1733 1734 1735 1736 1737 1738 1739 1740 1741 1742 1743 1744 1745 1746 1747 1748 1749 1750 1751 1752 1753 1754 1755 1756 1757 1758 1759 1760 1761 1762 1763 1764 1765 1766 1767 1768 1769 1770 1771 1772 1773 1774 1775 1776 1777 1778 1779 1780 1781 1782 1783 1784 1785 1786 1787 1788 1789 1790 1791 1792 1793 1794 1795 1796 1797 1798 1799 1800 1801 1802 1803 1804 1805 1806 1807 1808 1809 1810 1811 1812 1813 1814 1815 1816 1817 1818 1819 1820 1821 1822 1823 1824 1825 1826 1827 1828 1829 1830 1831 1832 1833 1834 1835 1836 1837 1838 1839 1840 1841 1842 1843 1844 1845 1846 1847 1848 1849 1850 1851 1852 1853 1854 1855 1856 1857 1858 1859 1860 1861 1862 1863 1864 1865 1866 1867 1868 1869 1870 1871 1872 1873 1874 1875 1876 1877 1878 1879 1880 1881 1882 1883 1884 1885 1886 1887 1888 1889 1890 1891 1892 1893 1894 1895 1896 1897 1898 1899 1900 1901 1902 1903 1904 1905 1906 1907 1908 1909 1910 1911 1912 1913 1914 1915 1916 1917 1918 1919 1920 1921 1922 1923 1924 1925 1926 1927 1928 1929 1930 1931 1932 1933 1934 1935 1936 1937 1938 1939 1940 1941 1942 1943 1944 1945 1946 1947 1948 1949 1950 1951 1952 1953 1954 1955 1956 1957 1958 1959 1960 1961 1962 1963 1964 1965 1966 1967 1968 1969 1970 1971 1972 1973 1974 1975 1976 1977 1978 1979 1980 1981 1982 1983 1984 1985 1986 1987 1988 1989 1990 1991 1992 1993 1994 1995 1996 1997 1998 1999 2000 2001 2002 2003 2004 2005 2006 2007 2008 2009 2010 2011 2012 2013 2014 2015 2016 2017 2018 2019 2020 2021 2022 2023 2024 2025 2026 2027 2028 2029 2030 2031 2032 2033 2034 2035 2036 2037 2038 2039 2040 2041 2042 2043 2044 2045 2046 2047 2048 2049 2050 2051 2052 2053 2054 2055 2056 2057 2058 2059 2060 2061 2062 2063 2064 2065 2066 2067 2068 2069 2070 2071 2072 2073 2074 2075 2076 2077 2078 2079 2080 2081 2082 2083 2084 2085 2086 2087 2088 2089 2090 2091 2092 2093 2094 2095 2096 2097 2098 2099 2100 2101 2102 2103 2104 2105 2106 2107 2108 2109 2110 2111 2112 2113 2114 2115 2116 2117 2118 2119 2120 2121 2122 2123 2124 2125 2126 2127 2128 2129 2130 2131 2132 2133 2134 2135 2136 2137 2138 2139 2140 2141 2142 2143 2144 2145 2146 2147 2148 2149 2150 2151 2152 2153 2154 2155 2156 2157 2158 2159 
</DataArray>
<DataArray type="UInt32" Name="offsets" format="ascii">
4 8 12 16 20 24 28 32 36 40 44 48 52 56 60 64 68 72 76 80 84 88 92 96 100 104 108 112 116 120 124 128 132 136 140 144 148 152 156 160 164 168 172 176 180 184 188 192 196 200 204 208 212 216 220 224 228 232 236 240 244 248 252 256 260 264 268 272 276 280 284 288 292 296 300 304 308 312 316 320 324 328 332 336 340 344 348 352 356 360 364 368 372 376 380 384 388 392 396 400 404 408 412 416 420 424 428 432 436 440 444 448 452 456 460 464 468 472 476 480 484 488 492 496 500 504 508 512 516 520 524 528 532 536 540 544 548 552 556 560 564 568 572 576 580 584 588 592 596 600 604 608 612 616 620 624 628 632 636 640 644 648 652 656 660 664 668 672 676 680 684 688 692 696 700 704 708 712 716 720 724 728 732 736 740 744 748 752 756 760 764 768 772 776 780 784 788 792 796 800 804 808 812 816 820 824 828 832 836 840 844 848 852 856 860 864 868 872 876 880 884 888 892 896 900 904 908 912 916 920 924 928 932 936 940 944 948 952 956 960 964 968 972 976 980 984 988 992 996 1000 1004 1008 1012 1016 1020 1024 1028 1032 1036 1040 1044 1048 1052 1056 1060 1064 1068 1072 1076 1080 1084 1088 1092 1096 1100 1104 1108 1112 1116 1120 1124 1128 1132 1136 1140 1144 1148 1152 1156 1160 1164 1168 1172 1176 1180 1184 1188 1192 1196 1200 1204 1208 1212 1216 1220 1224 1228 1232 1236 1240 1244 1248 1252 1256 1260 1264 1268 1272 1276 1280 1284 1288 1292 1296 1300 1304 1308 1312 1316 1320 1324 1328 1332 1336 1340 1344 1348 1352 1356 1360 1364 1368 1372 1376 1380 1384 1388 1392 1396 1400 1404 1408 1412 1416 1420 1424 1428 1432 1436 1440 1444 1448 1452 1456 1460 1464 1468 1472 1476 1480 1484 1488 1492 1496 1500 1504 1508 1512 1516 1520 1524 1528 1532 1536 1540 1544 1548 1552 1556 1560 1564 1568 1572 1576 1580 1584 1588 1592 1596 1600 1604 1608 1612 1616 1620 1624 1628 1632 1636 1640 1644 1648 1652 1656 1660 1664 1668 1672 1676 1680 1684 1688 1692 1696 1700 1704 1708 1712 1716 1720 1724 1728 1732 1736 1740 1744 1748 1752 1756 1760 1764 1768 1772 1776 1780 1784 1788 1792 1796 1800 1804 1808 1812 1816 1820 1824 1828 1832 1836 1840 1844 1848 1852 1856 1860 1864 1868 1872 1876 1880 1884 1888 1892 1896 1900 1904 1908 1912 1916 1920 1924 1928 1932 1936 1940 1944 1948 1952 1956 1960 1964 1968 1972 1976 1980 1984 1988 1992 1996 2000 2004 2008 2012 2016 2020 2024 2028 2032 2036 2040 2044 2048 2052 2056 2060 2064 2068 2072 2076 2080 2084 2088 2092 2096 2100 2104 2108 2112 2116 2120 2124 2128 2132 2136 2140 2144 2148 2152 2156 2160 
</DataArray>
<DataArray type="UInt32" Name="types" format="ascii">
10 10 10 10 10 10 10 10 10 10 10 10 10 10 10 10 10 10 10 10 10 10 10 10 10 10 10 10 10 10 10 10 10 10 10 10 10 10 10 10 10 10 10 10 10 10 10 10 10 10 10 10 10 10 10 10 10 10 10 10 10 10 10 10 10 10 10 10 10 10 10 10 10 10 10 10 10 10 10 10 10 10 10 10 10 10 10 10 10 10 10 10 10 10 10 10 10 10 10 10 10 10 10 10 10 10 10 10 10 10 10 10 10 10 10 10 10 10 10 10 10 10 10 10 10 10 10 10 10 10 10 10 10 10 10 10 10 10 10 10 10 10 10 10 10 10 10 10 10 10 10 10 10 10 10 10 10 10 10 10 10 10 10 10 10 10 10 10 10 10 10 10 10 10 10 10 10 10 10 10 10 10 10 10 10 10 10 10 10 10 10 10 10 10 10 10 10 10 10 10 10 10 10 10 10 10 10 10 10 10 10 10 10 10 10 10 10 10 10 10 10 10 10 10 10 10 10 10 10 10 10 10 10 10 10 10 10 10 10 10 10 10 10 10 10 10 10 10 10 10 10 10 10 10 10 10 10 10 10 10 10 10 10 10 10 10 10 10 10 10 10 10 10 10 10 10 10 10 10 10 10 10 10 10 10 10 10 10 10 10 10 10 10 10 10 10 10 10 10 10 10 10 10 10 10 10 10 10 10 10 10 10 10 10 10 10 10 10 10 10 10 10 10 10 10 10 10 10 10 10 10 10 10 10 10 10 10 10 10 10 10 10 10 10 10 10 10 10 10 10 10 10 10 10 10 10 10 10 10 10 10 10 10 10 10 10 10 10 10 10 10 10 10 10 10 10 10 10 10 10 10 10 10 10 10 10 10 10 10 10 10 10 10 10 10 10 10 10 10 10 10 10 10 10 10 10 10 10 10 10 10 10 10 10 10 10 10 10 10 10 10 10 10 10 10 10 10 10 10 10 10 10 10 10 10 10 10 10 10 10 10 10 10 10 10 10 10 10 10 10 10 10 10 10 10 10 10 10 10 10 10 10 10 10 10 10 10 10 10 10 10 10 10 10 10 10 10 10 10 10 10 10 10 10 10 10 10 10 10 10 10 10 10 10 10 10 10 10 10 10 10 10 10 10 10 10 10 10 10 10 10 10 10 10 10 10 10 10 10 10 10 10 10 10 10 10 10 10 10 10 10 10 10 10 10 10 10 10 10 10 
</DataArray>
</Cells>
<PointData Scalars="" Vectors="displacement," Tensors="">
<DataArray type="Float64" Name="displacement" NumberOfComponents="3" format="ascii">
-1.3342112749212736e-07 -1.9515371344627189e-08 -0.00025023055065717659 2.4513035452492942e-08 1.6151187005575489e-08 -1.8749937962886341e-07 -8.4329237491552092e-08 -2.3211154567633992e-08 -0.0002502298781993703 -1.2758676172451394e-07 4.9911961710428292e-08 -0.00025025006277462175 -1.3342112749212736e-07 -1.9515371344627189e-08 -0.00025023055065717659 2.4513035452492942e-08 1.6151187005575489e-08 -1.8749937962886341e-07 -8.4329237491552092e-08 -2.3211154567633992e-08 -0.0002502298781993703 -1.007453672145109e-07 -8.6359621156892222e-08 -0.00025024503284861035 -1.3342112749212736e-07 -1.9515371344627189e-08 -0.00025023055065717659 -5.4625148292733682e-08 -3.5565046393066019e-08 -1.0558485617532701e-07 2.4513035452492942e-08 1.6151187005575492e-08 -1.8749937962886341e-07 -1.007453672145109e-07 -8.6359621156892222e-08 -0.00025024503284861035 -1.3342112749212736e-07 -1.9515371344627189e-08 -0.00025023055065717659 -5.4625148292733682e-08 -3.5565046393066019e-08 -1.0558485617532701e-07 2.4513035452492945e-08 1.6151187005575495e-08 -1.8749937962885005e-07 -5.229116368673583e-08 -4.3710153444113426e-09 -2.4535999141835417e-07 2.4513035452492942e-08 1.6151187005575489e-08 -1.8749937962886341e-07 -2.6314966512668089e-09 1.1331073151293022e-08 -2.1468367014561138e-07 -4.0156390891806782e-08 -5.0910241974027788e-08 -0.00025021568070505382 -5.4680198569734002e-08 1.3875612879836995e-08 -0.00025021651399595126 2.4513035452492942e-08 1.6151187005575489e-08 -1.8749937962886341e-07 -1.0074536721451092e-07 -8.6359621156892236e-08 -0.00025024503284861035 -2.6314966512668031e-09 1.1331073151293021e-08 -2.1468367014562364e-07 -4.0156390891806736e-08 -5.0910241974027774e-08 -0.00025021568070505388 2.4513035452492942e-08 1.6151187005575489e-08 -1.8749937962886341e-07 -8.4329237491552092e-08 -2.3211154567633992e-08 -0.0002502298781993703 -4.0156390891806789e-08 -5.0910241974027814e-08 -0.00025021568070505382 -5.4680198569734015e-08 1.3875612879837003e-08 -0.00025021651399595126 2.4513035452492942e-08 1.6151187005575489e-08 -1.8749937962886341e-07 -8.4329237491552092e-08 -2.3211154567633992e-08 -0.0002502298781993703 -1.0074536721451091e-07 -8.6359621156892222e-08 -0.00025024503284861035 -4.0156390891806756e-08 -5.0910241974027774e-08 -0.00025021568070505382 -1.007453672145109e-07 -8.6359621156892222e-08 -0.00025024503284861035 -2.4654236967762237e-08 -4.646658281582576e-08 -2.3441203604590235e-07 -2.6314966512668044e-09 1.1331073151293019e-08 -2.1468367014561138e-07 -5.193615152084291e-08 -1.2723577010629297e-07 -0.00025021945115686066 2.4513035452492942e-08 1.6151187005575489e-08 -1.8749937962886341e-07 -1.007453672145109e-07 -8.6359621156892222e-08 -0.00025024503284861035 -2.4654236967762237e-08 -4.646658281582576e-08 -2.3441203604590235e-07 -2.6314966512668089e-09 1.1331073151293022e-08 -2.1468367014561138e-07 -5.4625148292733682e-08 -3.5565046393066019e-08 -1.0558485617532701e-07 2.4513035452492938e-08 1.6151187005575492e-08 -1.8749937962886341e-07 -1.007453672145109e-07 -8.6359621156892222e-08 -0.00025024503284861035 -2.4654236967762237e-08 -4.646658281582576e-08 -2.3441203604590235e-07 -2.4654236967762237e-08 -4.646658281582576e-08 -2.3441203604590235e-07 5.0243366713432142e-09 -5.2716067369760969e-08 -1.8098150174389331e-07 -2.6314966512668089e-09 1.1331073151293022e-08 -2.1468367014561138e-07 -5.1936151520842923e-08 -1.2723577010629297e-07 -0.00025021945115686071 5.0243366713432184e-09 -5.2716067369760969e-08 -1.8098150174386864e-07 -2.6314966512668089e-09 1.1331073151293022e-08 -2.1468367014561138e-07 -4.8803391842489851e-09 1.65451649069696e-08 -9.7709438606614893e-08 -5.193615152084291e-08 -1.2723577010629297e-07 -0.00025021945115686066 -2.6314966512668089e-09 1.1331073151293022e-08 -2.1468367014561138e-07 -4.8803391842489851e-09 1.65451649069696e-08 -9.7709438606614893e-08 -4.0156390891806782e-08 -5.0910241974027788e-08 -0.00025021568070505382 -5.193615152084291e-08 -1.27235770106293e-07 -0.00025021945115686066 -2.6314966512668089e-09 1.1331073151293022e-08 -2.1468367014561138e-07 5.7098635078888867e-09 -9.1888967665443383e-09 -7.2571548197048263e-08 -4.0156390891806782e-08 -5.0910241974027788e-08 -0.00025021568070505382 3.7894295517123942e-09 2.502851054381013e-09 -1.8649050520735467e-07 -2.6314966512668089e-09 1.1331073151293022e-08 -2.1468367014561138e-07 5.7098635078888867e-09 -9.1888967665443383e-09 -7.2571548197048263e-08 -4.8803391842489851e-09 1.65451649069696e-08 -9.7709438606614893e-08 -4.0156390891806782e-08 -5.0910241974027788e-08 -0.00025021568070505382 5.7098635078888867e-09 -9.1888967665443383e-09 -7.2571548197048263e-08 -4.8803391842489851e-09 1.65451649069696e-08 -9.7709438606614893e-08 -5.1096996103838258e-09 -8.4141449422045071e-08 -0.00025019676572903118 -4.0156390891806782e-08 -5.0910241974027788e-08 -0.00025021568070505382 5.7098635078888867e-09 -9.1888967665443383e-09 -7.2571548197048263e-08 -1.2700412048784008e-08 1.1313942276257401e-08 -9.8543748247463109e-08 1.2400984940865184e-08 -4.2726300582634152e-08 -0.00025019185750278376 5.3188321489822688e-08 -2.6640508610657887e-08 -0.00025020709295624704 5.7098635078888867e-09 -9.1888967665443383e-09 -7.2571548197048263e-08 -1.2700412048784008e-08 1.1313942276257401e-08 -9.8543748247463109e-08 5.3188321489822688e-08 -2.6640508610657887e-08 -0.00025020709295624704 -1.2599883497685581e-08 4.7776823499183468e-09 -1.7697880445634545e-07 5.7098635078888867e-09 -9.1888967665443383e-09 -7.2571548197048263e-08 -1.2700412048784008e-08 1.1313942276257401e-08 -9.8543748247463109e-08 -5.1096996103838258e-09 -8.4141449422045071e-08 -0.00025019676572903118 1.2400984940865184e-08 -4.2726300582634152e-08 -0.00025019185750278376 5.7098635078888867e-09 -9.1888967665443383e-09 -7.2571548197048263e-08 -1.2700412048784008e-08 1.1313942276257401e-08 -9.8543748247463109e-08 -4.8803391842489851e-09 1.65451649069696e-08 -9.7709438606614893e-08 -5.1096996103838258e-09 -8.4141449422045071e-08 -0.00025019676572903118 -1.2700412048784008e-08 1.1313942276257401e-08 -9.8543748247463109e-08 -4.8803391842489851e-09 1.65451649069696e-08 -9.7709438606614893e-08 2.9115907212430848e-08 -4.4969605863162071e-08 -1.3795281524971294e-07 1.9422468036242059e-08 -1.3541302400602122e-07 -0.00025020915248868324 5.0243366713432184e-09 -5.2716067369760969e-08 -1.8098150174386864e-07 -4.8803391842489958e-09 1.6545164906969617e-08 -9.770943860661488e-08 -5.193615152084291e-08 -1.2723577010629297e-07 -0.00025021945115686066 1.9422468036242095e-08 -1.3541302400602124e-07 -0.00025020915248868324 5.0243366713432184e-09 -5.2716067369760969e-08 -1.8098150174386864e-07 -4.8803391842489908e-09 1.6545164906969607e-08 -9.7709438606627228e-08 2.9115907212430848e-08 -4.4969605863162071e-08 -1.3795281524971294e-07 1.9422468036242059e-08 -1.3541302400602122e-07 -0.00025020915248868324 -1.2700412048784008e-08 1.1313942276257401e-08 -9.8543748247463109e-08 -4.8803391842489851e-09 1.65451649069696e-08 -9.7709438606614893e-08 -5.1096996103838258e-09 -8.4141449422045071e-08 -0.00025019676572903118 1.9422468036242059e-08 -1.3541302400602122e-07 -0.00025020915248868324 -4.8803391842489851e-09 1.65451649069696e-08 -9.7709438606614893e-08 -5.1096996103838258e-09 -8.4141449422045071e-08 -0.00025019676572903118 -5.193615152084291e-08 -1.2723577010629297e-07 -0.00025021945115686066 1.9422468036242059e-08 -1.3541302400602122e-07 -0.00025020915248868324 -1.2700412048784008e-08 1.1313942276257401e-08 -9.8543748247463109e-08 -5.1096996103838258e-09 -8.4141449422045071e-08 -0.00025019676572903118 3.6402772466569906e-08 -7.0369558519381028e-08 -0.00025020017925156429 1.9422468036242059e-08 -1.3541302400602122e-07 -0.00025020915248868324 -1.2700412048784008e-08 1.1313942276257401e-08 -9.8543748247463109e-08 3.6402772466569906e-08 -7.0369558519381028e-08 -0.00025020017925156429 1.2400984940865215e-08 -4.2726300582634125e-08 -0.00025019185750278376 5.3188321489822649e-08 -2.6640508610657874e-08 -0.00025020709295624704 -1.2700412048784008e-08 1.1313942276257401e-08 -9.8543748247463109e-08 -5.1096996103838258e-09 -8.4141449422045071e-08 -0.00025019676572903118 3.6402772466569906e-08 -7.0369558519381028e-08 -0.00025020017925156429 1.2400984940865184e-08 -4.2726300582634152e-08 -0.00025019185750278376 5.7098635078888867e-09 -9.1888967665443383e-09 -7.2571548197048263e-08 -5.1096996103838258e-09 -8.4141449422045071e-08 -0.00025019676572903118 1.2400984940865184e-08 -4.2726300582634152e-08 -0.00025019185750278376 -4.0156390891806782e-08 -5.0910241974027788e-08 -0.00025021568070505382 5.7098635078888867e-09 -9.1888967665443383e-09 -7.2571548197048263e-08 1.2400984940865184e-08 -4.2726300582634152e-08 -0.00025019185750278376 -4.0156390891806789e-08 -5.0910241974027761e-08 -0.00025021568070505377 4.6030281896766443e-09 -1.6797922315567009e-10 -0.00025020892051368007 -4.8803391842489851e-09 1.65451649069696e-08 -9.7709438606614893e-08 -5.1096996103838258e-09 -8.4141449422045071e-08 -0.00025019676572903118 -4.0156390891806782e-08 -5.0910241974027788e-08 -0.00025021568070505382 -5.193615152084291e-08 -1.2723577010629297e-07 -0.00025021945115686066 -1.007453672145109e-07 -8.6359621156892222e-08 -0.00025024503284861035 -2.6314966512668073e-09 1.1331073151293016e-08 -2.1468367014561138e-07 -4.0156390891806782e-08 -5.0910241974027788e-08 -0.00025021568070505382 -5.193615152084291e-08 -1.2723577010629297e-07 -0.00025021945115686066 -5.1096996103838258e-09 -8.4141449422045071e-08 -0.00025019676572903118 -4.0156390891806782e-08 -5.0910241974027788e-08 -0.00025021568070505382 -5.193615152084291e-08 -1.2723577010629297e-07 -0.00025021945115686066 1.3425209363479511e-08 -1.0927176129658706e-07 -0.00050026529130577395 -5.1096996103838258e-09 -8.4141449422045071e-08 -0.00025019676572903118 2.1579879136112437e-08 -7.384152077131151e-08 -0.00050026052741977494 -1.7766786079634366e-08 -5.5699011400140232e-08 -0.00050026420279216679 1.3425209363479511e-08 -1.0927176129658706e-07 -0.00050026529130577395 -5.1096996103838258e-09 -8.4141449422045071e-08 -0.00025019676572903118 -4.0156390891806782e-08 -5.0910241974027788e-08 -0.00025021568070505382 -1.7766786079634366e-08 -5.5699011400140232e-08 -0.00050026420279216679 1.3425209363479511e-08 -1.0927176129658706e-07 -0.00050026529130577395 -4.0156390891806782e-08 -5.0910241974027788e-08 -0.00025021568070505382 -1.7766786079634366e-08 -5.5699011400140232e-08 -0.00050026420279216679 1.3425209363479511e-08 -1.0927176129658708e-07 -0.00050026529130577395 -4.4954414694045959e-08 -1.0090934286393597e-07 -0.0005002749022026651 -1.007453672145109e-07 -8.6359621156892222e-08 -0.00025024503284861035 -4.0156390891806782e-08 -5.0910241974027794e-08 -0.00025021568070505382 -5.193615152084291e-08 -1.2723577010629297e-07 -0.00025021945115686066 1.3425209363479511e-08 -1.0927176129658706e-07 -0.00050026529130577395 1.2400984940865184e-08 -4.2726300582634152e-08 -0.00025019185750278376 -4.0156390891806782e-08 -5.0910241974027788e-08 -0.00025021568070505382 -1.7766786079634366e-08 -5.5699011400140232e-08 -0.00050026420279216679 4.6030281896766749e-09 -1.6797922315567402e-10 -0.00025020892051368007 -5.1096996103838258e-09 -8.4141449422045071e-08 -0.00025019676572903118 1.2400984940865184e-08 -4.2726300582634152e-08 -0.00025019185750278376 2.1579879136112437e-08 -7.384152077131151e-08 -0.00050026052741977494 -1.7766786079634366e-08 -5.5699011400140232e-08 -0.00050026420279216679 1.2400984940865184e-08 -4.2726300582634152e-08 -0.00025019185750278376 2.1892763878323036e-08 -3.3945911298452184e-08 -0.00050025966758237758 -1.7766786079634372e-08 -5.5699011400140219e-08 -0.00050026420279216679 5.2831070969516793e-09 3.3950633349224813e-09 -0.00050026364469961154 -5.1096996103838258e-09 -8.4141449422045071e-08 -0.00025019676572903118 1.2400984940865184e-08 -4.2726300582634152e-08 -0.00025019185750278376 -4.0156390891806782e-08 -5.0910241974027788e-08 -0.00025021568070505382 -1.7766786079634366e-08 -5.5699011400140232e-08 -0.00050026420279216679 1.2400984940865184e-08 -4.2726300582634152e-08 -0.00025019185750278376 2.1579879136112437e-08 -7.384152077131151e-08 -0.00050026052741977494 2.1892763878323036e-08 -3.3945911298452184e-08 -0.00050025966758237758 -1.7766786079634366e-08 -5.5699011400140232e-08 -0.00050026420279216679 3.6402772466569906e-08 -7.0369558519381028e-08 -0.00025020017925156429 2.1892763878323053e-08 -3.3945911298452165e-08 -0.00050025966758237758 5.1802801759959023e-08 -5.3004863118457342e-08 -0.0005002608937728978 5.4737276621035131e-08 -1.5673945749578985e-08 -0.0005002654335759635 3.6402772466569906e-08 -7.0369558519381028e-08 -0.00025020017925156429 1.2400984940865184e-08 -4.2726300582634152e-08 -0.00025019185750278376 5.4737276621035145e-08 -1.5673945749579005e-08 -0.0005002654335759635 5.3188321489822688e-08 -2.6640508610657887e-08 -0.00025020709295624704 3.6402772466569906e-08 -7.0369558519381028e-08 -0.00025020017925156429 1.2400984940865184e-08 -4.2726300582634152e-08 -0.00025019185750278376 2.1892763878323059e-08 -3.3945911298452158e-08 -0.00050025966758237758 5.4737276621035125e-08 -1.5673945749579025e-08 -0.0005002654335759635 3.6402772466569906e-08 -7.0369558519381028e-08 -0.00025020017925156429 1.2400984940865184e-08 -4.2726300582634152e-08 -0.00025019185750278376 2.1579879136112437e-08 -7.384152077131151e-08 -0.00050026052741977494 2.1892763878323036e-08 -3.3945911298452184e-08 -0.00050025966758237758 -5.1096996103838258e-09 -8.4141449422045071e-08 -0.00025019676572903118 3.6402772466569906e-08 -7.0369558519381028e-08 -0.00025020017925156429 1.2400984940865184e-08 -4.2726300582634152e-08 -0.00025019185750278376 2.1579879136112437e-08 -7.384152077131151e-08 -0.00050026052741977494 3.6402772466569906e-08 -7.0369558519381028e-08 -0.00025020017925156429 2.1579879136112437e-08 -7.384152077131151e-08 -0.00050026052741977494 2.1892763878323036e-08 -3.3945911298452184e-08 -0.00050025966758237758 5.1802801759959023e-08 -5.3004863118457336e-08 -0.0005002608937728978 -5.1096996103838258e-09 -8.4141449422045071e-08 -0.00025019676572903118 -5.193615152084291e-08 -1.2723577010629297e-07 -0.00025021945115686066 1.9422468036242059e-08 -1.3541302400602122e-07 -0.00025020915248868324 6.6414614440181971e-08 -8.7902407797968269e-08 -0.00050026153138336938 -5.1096996103838258e-09 -8.4141449422045071e-08 -0.00025019676572903118 2.1579879136112437e-08 -7.384152077131151e-08 -0.00050026052741977494 1.3425209363479511e-08 -1.0927176129658706e-07 -0.00050026529130577395 6.6414614440181971e-08 -8.7902407797968269e-08 -0.00050026153138336938 -5.1096996103838258e-09 -8.4141449422045071e-08 -0.00025019676572903118 -5.193615152084291e-08 -1.2723577010629297e-07 -0.00025021945115686066 1.3425209363479511e-08 -1.0927176129658706e-07 -0.00050026529130577395 6.6414614440181971e-08 -8.7902407797968269e-08 -0.00050026153138336938 -5.1096996103838258e-09 -8.4141449422045071e-08 -0.00025019676572903118 3.6402772466569906e-08 -7.0369558519381028e-08 -0.00025020017925156429 2.1579879136112437e-08 -7.384152077131151e-08 -0.00050026052741977494 6.6414614440181971e-08 -8.7902407797968269e-08 -0.00050026153138336938 -5.1096996103838258e-09 -8.4141449422045071e-08 -0.00025019676572903118 3.6402772466569906e-08 -7.0369558519381028e-08 -0.00025020017925156429 1.9422468036242059e-08 -1.3541302400602122e-07 -0.00025020915248868324 6.6414614440181971e-08 -8.7902407797968269e-08 -0.00050026153138336938 3.6402772466569906e-08 -7.0369558519381028e-08 -0.00025020017925156429 2.1579879136112437e-08 -7.384152077131151e-08 -0.00050026052741977494 5.1802801759959023e-08 -5.3004863118457336e-08 -0.0005002608937728978 6.6414614440181971e-08 -8.7902407797968269e-08 -0.00050026153138336938 2.1579879136112437e-08 -7.384152077131151e-08 -0.00050026052741977494 1.3425209363479511e-08 -1.0927176129658706e-07 -0.00050026529130577395 6.6414614440181971e-08 -8.7902407797968269e-08 -0.00050026153138336938 5.4066157111850684e-08 -9.770482760585606e-08 -0.00075030990449400248 2.1579879136112437e-08 -7.384152077131151e-08 -0.00050026052741977494 5.1802801759959023e-08 -5.3004863118457336e-08 -0.0005002608937728978 6.6414614440181971e-08 -8.7902407797968269e-08 -0.00050026153138336938 5.4066157111850684e-08 -9.770482760585606e-08 -0.00075030990449400248 2.1579879136112437e-08 -7.384152077131151e-08 -0.00050026052741977494 2.1892763878323036e-08 -3.3945911298452184e-08 -0.00050025966758237758 5.1802801759959023e-08 -5.3004863118457336e-08 -0.0005002608937728978 1.943329682880557e-08 -7.5927925998100555e-08 -0.0007503099159958857 2.1892763878323036e-08 -3.3945911298452184e-08 -0.00050025966758237758 5.1802801759959023e-08 -5.3004863118457336e-08 -0.0005002608937728978 5.4737276621035145e-08 -1.5673945749579005e-08 -0.0005002654335759635 5.3656130295588964e-08 -1.9715294864524696e-08 -0.00075031257800920262 2.1579879136112437e-08 -7.384152077131151e-08 -0.00050026052741977494 2.1892763878323036e-08 -3.3945911298452184e-08 -0.00050025966758237758 -1.7766786079634366e-08 -5.5699011400140232e-08 -0.00050026420279216679 -1.6517136819107087e-08 -5.5253836960849711e-08 -0.00075031071835029973 2.1892763878323036e-08 -3.3945911298452184e-08 -0.00050025966758237758 -1.7766786079634366e-08 -5.5699011400140232e-08 -0.00050026420279216679 5.2831070969517041e-09 3.3950633349224859e-09 -0.00050026364469961154 -1.6517136819107087e-08 -5.5253836960849711e-08 -0.00075031071835029973 -1.7766786079634366e-08 -5.5699011400140232e-08 -0.00050026420279216679 1.3425209363479511e-08 -1.0927176129658706e-07 -0.00050026529130577395 -4.4954414694045979e-08 -1.0090934286393597e-07 -0.0005002749022026651 -1.9356544440005978e-09 -1.1164138578088836e-07 -0.00075031021013506681 2.1579879136112437e-08 -7.384152077131151e-08 -0.00050026052741977494 -1.7766786079634366e-08 -5.5699011400140232e-08 -0.00050026420279216679 1.3425209363479511e-08 -1.0927176129658706e-07 -0.00050026529130577395 -1.9356544440005936e-09 -1.1164138578088836e-07 -0.0007503102101350667 -1.7766786079634366e-08 -5.5699011400140232e-08 -0.00050026420279216679 -4.4954414694045985e-08 -1.0090934286393597e-07 -0.0005002749022026651 -6.568067585763648e-08 -4.3491066216147982e-08 -0.00050026891754185088 -5.7164073029346424e-08 -9.5799864227391693e-08 -0.00075031337761402464 -4.4954414694045979e-08 -1.0090934286393597e-07 -0.0005002749022026651 -8.7978833489564886e-08 -6.6304081806391485e-08 -0.00050027017810675301 -6.568067585763648e-08 -4.3491066216147982e-08 -0.00050026891754185088 -5.7164073029346424e-08 -9.5799864227391693e-08 -0.00075031337761402464 -1.007453672145109e-07 -8.6359621156892222e-08 -0.00025024503284861035 -4.0156390891806776e-08 -5.0910241974027788e-08 -0.00025021568070505382 1.3425209363479518e-08 -1.0927176129658707e-07 -0.00050026529130577384 -4.4954414694045979e-08 -1.0090934286393597e-07 -0.0005002749022026651 -8.4329237491552092e-08 -2.3211154567633992e-08 -0.0002502298781993703 -1.007453672145109e-07 -8.6359621156892222e-08 -0.00025024503284861035 -4.0156390891806782e-08 -5.0910241974027788e-08 -0.00025021568070505382 -4.4954414694045979e-08 -1.0090934286393597e-07 -0.0005002749022026651 -1.3342112749212736e-07 -1.9515371344627189e-08 -0.00025023055065717659 -8.4329237491552092e-08 -2.3211154567633989e-08 -0.0002502298781993703 -1.007453672145109e-07 -8.6359621156892222e-08 -0.00025024503284861035 -4.4954414694045979e-08 -1.0090934286393597e-07 -0.0005002749022026651 -8.4329237491552092e-08 -2.3211154567633992e-08 -0.0002502298781993703 -1.7766786079634346e-08 -5.5699011400140239e-08 -0.00050026420279216679 -6.5680675857636493e-08 -4.3491066216147982e-08 -0.00050026891754185098 -5.0933426496295537e-08 3.0296124648343368e-09 -0.00050026611098429963 -8.4329237491552092e-08 -2.3211154567633992e-08 -0.0002502298781993703 -1.7766786079634346e-08 -5.5699011400140205e-08 -0.00050026420279216679 -4.4954414694045992e-08 -1.0090934286393596e-07 -0.00050027490220266499 -6.568067585763648e-08 -4.3491066216147982e-08 -0.00050026891754185088 -8.4329237491552092e-08 -2.3211154567633992e-08 -0.0002502298781993703 -4.0156390891806782e-08 -5.0910241974027788e-08 -0.00025021568070505382 -1.7766786079634366e-08 -5.5699011400140232e-08 -0.00050026420279216679 -4.4954414694045979e-08 -1.0090934286393597e-07 -0.0005002749022026651 -8.4329237491552092e-08 -2.3211154567633992e-08 -0.0002502298781993703 -4.0156390891806782e-08 -5.0910241974027788e-08 -0.00025021568070505382 -1.7766786079634366e-08 -5.5699011400140232e-08 -0.00050026420279216679 -5.0933426496295523e-08 3.0296124648343322e-09 -0.00050026611098429963 -8.4329237491552092e-08 -2.3211154567633992e-08 -0.0002502298781993703 -4.4954414694045999e-08 -1.0090934286393597e-07 -0.0005002749022026651 -8.7978833489564886e-08 -6.6304081806391498e-08 -0.00050027017810675301 -6.568067585763648e-08 -4.3491066216147982e-08 -0.00050026891754185088 -1.3342112749212736e-07 -1.9515371344627189e-08 -0.00025023055065717659 -8.4329237491552092e-08 -2.3211154567633992e-08 -0.0002502298781993703 -4.4954414694045979e-08 -1.0090934286393597e-07 -0.0005002749022026651 -8.7978833489564886e-08 -6.6304081806391485e-08 -0.00050027017810675301 -8.4329237491552092e-08 -2.3211154567633992e-08 -0.0002502298781993703 -8.7978833489564886e-08 -6.6304081806391485e-08 -0.00050027017810675301 -6.568067585763648e-08 -4.3491066216147982e-08 -0.00050026891754185088 -1.0915607961334935e-07 -1.3237494929609959e-08 -0.00050027730816612135 -1.3342112749212736e-07 -1.9515371344627189e-08 -0.00025023055065717659 -8.4329237491552092e-08 -2.3211154567633992e-08 -0.0002502298781993703 -8.7978833489564886e-08 -6.6304081806391485e-08 -0.00050027017810675301 -1.2758676172451394e-07 4.9911961710428292e-08 -0.00025025006277462175 -8.7978833489564886e-08 -6.6304081806391485e-08 -0.00050027017810675301 -6.568067585763648e-08 -4.3491066216147982e-08 -0.00050026891754185088 -1.0915607961334935e-07 -1.3237494929609959e-08 -0.00050027730816612135 -9.7760355213956367e-08 -5.4073576180789424e-08 -0.00075031179121420129 -1.7766786079634366e-08 -5.5699011400140232e-08 -0.00050026420279216679 -5.0933426496295523e-08 3.0296124648343322e-09 -0.00050026611098429963 5.2831070969517041e-09 3.3950633349224859e-09 -0.00050026364469961154 -5.0693584051624471e-08 5.236672325286203e-09 -0.00075031177266769483 -1.7766786079634366e-08 -5.5699011400140232e-08 -0.00050026420279216679 -6.568067585763648e-08 -4.3491066216147982e-08 -0.00050026891754185088 -5.0933426496295523e-08 3.0296124648343322e-09 -0.00050026611098429963 -5.0693584051624471e-08 5.236672325286208e-09 -0.00075031177266769483 -5.0933426496295523e-08 3.0296124648343322e-09 -0.00050026611098429963 -1.9839856947121333e-08 3.6181240238938388e-08 -0.00050026202665775837 5.2831070969517041e-09 3.3950633349224859e-09 -0.00050026364469961154 -5.0693584051624478e-08 5.2366723252862022e-09 -0.00075031177266769473 -6.568067585763648e-08 -4.3491066216147982e-08 -0.00050026891754185088 -5.0933426496295523e-08 3.0296124648343322e-09 -0.00050026611098429963 -1.0915607961334935e-07 -1.3237494929609959e-08 -0.00050027730816612135 -1.1166738648886808e-07 1.9369761580282106e-09 -0.00075031488169099861 -8.4329237491552092e-08 -2.3211154567633992e-08 -0.0002502298781993703 -6.568067585763648e-08 -4.3491066216147982e-08 -0.00050026891754185088 -5.0933426496295523e-08 3.0296124648343331e-09 -0.00050026611098429963 -1.0915607961334935e-07 -1.3237494929609959e-08 -0.00050027730816612135 -8.4329237491552092e-08 -2.3211154567633992e-08 -0.0002502298781993703 -1.0915607961334935e-07 -1.3237494929609974e-08 -0.00050027730816612145 -5.4680198569734002e-08 1.3875612879836995e-08 -0.00025021651399595126 -1.2758676172451394e-07 4.9911961710428292e-08 -0.00025025006277462175 -8.4329237491552092e-08 -2.3211154567633992e-08 -0.0002502298781993703 -5.093342649629553e-08 3.0296124648343343e-09 -0.00050026611098429963 -1.0915607961334935e-07 -1.3237494929609959e-08 -0.00050027730816612135 -5.4680198569734002e-08 1.3875612879836995e-08 -0.00025021651399595126 -8.4329237491552092e-08 -2.3211154567633992e-08 -0.0002502298781993703 -8.7978833489564886e-08 -6.6304081806391485e-08 -0.00050027017810675301 -1.0915607961334935e-07 -1.3237494929609959e-08 -0.00050027730816612135 -1.2758676172451394e-07 4.9911961710428292e-08 -0.00025025006277462175 -8.4329237491552092e-08 -2.3211154567633992e-08 -0.0002502298781993703 -4.0156390891806782e-08 -5.0910241974027788e-08 -0.00025021568070505382 -5.0933426496295523e-08 3.0296124648343322e-09 -0.00050026611098429963 -5.4680198569734002e-08 1.3875612879836995e-08 -0.00025021651399595126 -5.0933426496295523e-08 3.0296124648343322e-09 -0.00050026611098429963 -7.0324753902497474e-09 4.0874044491153259e-08 -0.00025019161464200957 4.6030281896766799e-09 -1.6797922315569219e-10 -0.00025020892051368012 -5.4680198569734002e-08 1.3875612879836995e-08 -0.00025021651399595126 -4.0156390891806782e-08 -5.0910241974027788e-08 -0.00025021568070505382 -5.093342649629551e-08 3.0296124648343355e-09 -0.00050026611098429985 4.6030281896766749e-09 -1.6797922315567402e-10 -0.00025020892051368007 -5.4680198569734002e-08 1.3875612879836995e-08 -0.00025021651399595126 -5.1287601991033966e-08 5.0047131812441032e-08 -0.00050026321427565248 -1.9839856947121333e-08 3.6181240238938388e-08 -0.00050026202665775837 -3.5774950588320906e-08 6.6271465112600011e-08 -0.00025020538314194648 -2.5385489648611243e-08 6.9256565868496146e-08 -0.00050026405332457527 -5.0933426496295523e-08 3.0296124648343322e-09 -0.00050026611098429963 -7.032475390249759e-09 4.0874044491153292e-08 -0.00025019161464200952 -3.5774950588320906e-08 6.6271465112600011e-08 -0.00025020538314194648 -5.4680198569734002e-08 1.3875612879836995e-08 -0.00025021651399595126 -1.9839856947121333e-08 3.6181240238938388e-08 -0.00050026202665775837 -7.0324753902497474e-09 4.0874044491153259e-08 -0.00025019161464200957 -3.5774950588320906e-08 6.6271465112600011e-08 -0.00025020538314194648 -5.508131484491792e-10 8.0952532468212265e-08 -0.0002502021460966692 -5.0933426496295523e-08 3.0296124648343322e-09 -0.00050026611098429963 -5.1287601991033966e-08 5.0047131812441032e-08 -0.00050026321427565248 -1.9839856947121333e-08 3.6181240238938388e-08 -0.00050026202665775837 -3.5774950588320906e-08 6.6271465112600011e-08 -0.00025020538314194648 -5.0933426496295523e-08 3.0296124648343322e-09 -0.00050026611098429963 -1.9839856947121333e-08 3.6181240238938388e-08 -0.00050026202665775837 -7.0324753902497474e-09 4.0874044491153259e-08 -0.00025019161464200957 -3.5774950588320906e-08 6.6271465112600011e-08 -0.00025020538314194648 -5.0933426496295523e-08 3.0296124648343322e-09 -0.00050026611098429963 -1.0131685404650116e-07 4.3159948382106675e-08 -0.00050027161067855411 -5.1287601991033966e-08 5.0047131812441032e-08 -0.00050026321427565248 -3.5774950588320906e-08 6.6271465112600011e-08 -0.00025020538314194648 -5.0933426496295523e-08 3.0296124648343322e-09 -0.00050026611098429963 -1.0131685404650115e-07 4.3159948382106675e-08 -0.00050027161067855411 -3.5774950588320906e-08 6.6271465112600011e-08 -0.00025020538314194648 -5.4680198569734002e-08 1.3875612879836995e-08 -0.00025021651399595126 -1.0915607961334935e-07 -1.3237494929609959e-08 -0.00050027730816612135 -1.0131685404650116e-07 4.3159948382106681e-08 -0.00050027161067855421 -5.4680198569734002e-08 1.3875612879836995e-08 -0.00025021651399595126 -8.5140404751904348e-08 1.0635627985915118e-07 -0.00025023723105119803 -1.0915607961334935e-07 -1.3237494929609959e-08 -0.00050027730816612135 -5.4680198569734015e-08 1.3875612879836972e-08 -0.00025021651399595132 -1.2758676172451394e-07 4.9911961710428292e-08 -0.00025025006277462175 -8.5140404751904348e-08 1.0635627985915118e-07 -0.00025023723105119803 -5.0933426496295523e-08 3.0296124648343322e-09 -0.00050026611098429963 -1.0915607961334935e-07 -1.3237494929609959e-08 -0.00050027730816612135 -1.0131685404650118e-07 4.3159948382106661e-08 -0.00050027161067855411 -5.4680198569734002e-08 1.3875612879836995e-08 -0.00025021651399595126 -1.0131685404650118e-07 4.3159948382106661e-08 -0.00050027161067855411 -3.5774950588320926e-08 6.6271465112600038e-08 -0.00025020538314194643 -5.4680198569734002e-08 1.3875612879836995e-08 -0.00025021651399595126 -8.5140404751904348e-08 1.0635627985915118e-07 -0.00025023723105119803 -5.0933426496295523e-08 3.0296124648343322e-09 -0.00050026611098429963 -1.0915607961334935e-07 -1.3237494929609959e-08 -0.00050027730816612135 -1.0131685404650118e-07 4.3159948382106661e-08 -0.00050027161067855411 -1.1166738648886808e-07 1.9369761580282106e-09 -0.00075031488169099861 -5.0933426496295523e-08 3.0296124648343322e-09 -0.00050026611098429963 -1.0131685404650116e-07 4.3159948382106675e-08 -0.00050027161067855411 -5.1287601991033966e-08 5.0047131812441032e-08 -0.00050026321427565248 -9.5736576528642596e-08 5.7463181003121103e-08 -0.000750313613910029 -5.1287601991033966e-08 5.0047131812441032e-08 -0.00050026321427565248 -1.9839856947121333e-08 3.6181240238938388e-08 -0.00050026202665775837 -2.5385489648611243e-08 6.9256565868496146e-08 -0.00050026405332457527 -1.9287126487585589e-08 3.6134909971063498e-08 -0.00075031146659318166 -5.0933426496295523e-08 3.0296124648343322e-09 -0.00050026611098429963 -5.1287601991033966e-08 5.0047131812441032e-08 -0.00050026321427565248 -1.9839856947121333e-08 3.6181240238938388e-08 -0.00050026202665775837 -5.0693584051624478e-08 5.2366723252862022e-09 -0.00075031177266769473 -1.9839856947121333e-08 3.6181240238938388e-08 -0.00050026202665775837 5.2831070969517041e-09 3.3950633349224859e-09 -0.00050026364469961154 1.2953987594393263e-08 5.6980037399442877e-08 -0.00050026935424992759 4.8999275747479048e-09 1.8448823223276411e-09 -0.00075031121014270481 -1.9839856947121333e-08 3.6181240238938388e-08 -0.00050026202665775837 1.2953987594393263e-08 5.6980037399442877e-08 -0.00050026935424992759 -2.5385489648611243e-08 6.9256565868496146e-08 -0.00050026405332457527 1.0862878472569955e-08 5.7021338362302091e-08 -0.00075031437062986607 5.2831070969517041e-09 3.3950633349224859e-09 -0.00050026364469961154 5.4737276621035145e-08 -1.5673945749579005e-08 -0.0005002654335759635 5.7241954074201849e-08 3.470090854209444e-08 -0.00050027919683690838 5.3656130295588958e-08 -1.9715294864524696e-08 -0.00075031257800920251 2.1892763878323036e-08 -3.3945911298452184e-08 -0.00050025966758237758 5.2831070969517041e-09 3.3950633349224859e-09 -0.00050026364469961154 5.4737276621035145e-08 -1.5673945749579002e-08 -0.0005002654335759635 5.3656130295588964e-08 -1.9715294864524696e-08 -0.00075031257800920262 5.2831070969517041e-09 3.3950633349224859e-09 -0.00050026364469961154 5.7241954074201849e-08 3.470090854209444e-08 -0.00050027919683690838 1.2953987594393263e-08 5.6980037399442877e-08 -0.00050026935424992759 4.8999275747479048e-09 1.8448823223276411e-09 -0.00075031121014270481 5.2831070969517041e-09 3.3950633349224859e-09 -0.00050026364469961154 6.9844629063720467e-08 1.9621710108240916e-08 -0.00025025284037350718 1.2953987594393263e-08 5.6980037399442877e-08 -0.00050026935424992759 3.7096477014822289e-08 5.4392695807712283e-08 -0.00025021921270176244 5.7241954074201849e-08 3.470090854209444e-08 -0.00050027919683690838 6.9844629063720467e-08 1.9621710108240916e-08 -0.00025025284037350718 4.4874074251181929e-08 1.0090077806735122e-07 -0.00050028898436074341 1.2953987594393263e-08 5.6980037399442877e-08 -0.00050026935424992759 5.2831070969517041e-09 3.3950633349224859e-09 -0.00050026364469961154 5.7241954074201849e-08 3.470090854209444e-08 -0.00050027919683690838 6.9844629063720467e-08 1.9621710108240916e-08 -0.00025025284037350718 1.2953987594393263e-08 5.6980037399442877e-08 -0.00050026935424992759 5.2831070969517041e-09 3.3950633349224859e-09 -0.00050026364469961154 4.6030281896766749e-09 -1.6797922315567402e-10 -0.00025020892051368007 6.9844629063720467e-08 1.9621710108240936e-08 -0.00025025284037350718 3.7096477014822296e-08 5.4392695807712283e-08 -0.00025021921270176249 1.2400984940865184e-08 -4.2726300582634152e-08 -0.00025019185750278376 5.4737276621035145e-08 -1.5673945749579005e-08 -0.0005002654335759635 4.6030281896766749e-09 -1.6797922315567402e-10 -0.00025020892051368007 5.3188321489822688e-08 -2.6640508610657887e-08 -0.00025020709295624704 1.2400984940865184e-08 -4.2726300582634152e-08 -0.00025019185750278376 5.2831070969517041e-09 3.3950633349224859e-09 -0.00050026364469961154 5.4737276621035145e-08 -1.5673945749579005e-08 -0.0005002654335759635 4.6030281896766749e-09 -1.6797922315567402e-10 -0.00025020892051368007 5.2831070969517041e-09 3.3950633349224859e-09 -0.00050026364469961154 5.4737276621035145e-08 -1.5673945749579005e-08 -0.0005002654335759635 5.7241954074201849e-08 3.470090854209444e-08 -0.00050027919683690838 6.9844629063720467e-08 1.9621710108240916e-08 -0.00025025284037350718 5.4737276621035145e-08 -1.5673945749579005e-08 -0.0005002654335759635 4.6030281896766865e-09 -1.6797922315569464e-10 -0.00025020892051368001 5.3188321489822688e-08 -2.6640508610657887e-08 -0.00025020709295624704 6.9844629063720467e-08 1.9621710108240916e-08 -0.00025025284037350718 5.2831070969517041e-09 3.3950633349224859e-09 -0.00050026364469961154 5.4737276621035145e-08 -1.5673945749579005e-08 -0.0005002654335759635 4.6030281896766749e-09 -1.6797922315567402e-10 -0.00025020892051368007 6.9844629063720467e-08 1.9621710108240916e-08 -0.00025025284037350718 1.2400984940865184e-08 -4.2726300582634152e-08 -0.00025019185750278376 2.1892763878323036e-08 -3.3945911298452184e-08 -0.00050025966758237758 5.2831070969517041e-09 3.3950633349224859e-09 -0.00050026364469961154 5.4737276621035145e-08 -1.5673945749579005e-08 -0.0005002654335759635 -5.0933426496295523e-08 3.0296124648343322e-09 -0.00050026611098429963 5.2831070969517041e-09 3.3950633349224859e-09 -0.00050026364469961154 -7.0324753902497474e-09 4.0874044491153259e-08 -0.00025019161464200957 4.6030281896766609e-09 -1.6797922315571426e-10 -0.00025020892051367996 -4.0156390891806782e-08 -5.0910241974027788e-08 -0.00025021568070505382 -1.7766786079634366e-08 -5.5699011400140232e-08 -0.00050026420279216679 -5.0933426496295556e-08 3.0296124648343335e-09 -0.00050026611098429963 4.6030281896766749e-09 -1.6797922315567402e-10 -0.00025020892051368007 1.2400984940865184e-08 -4.2726300582634152e-08 -0.00025019185750278376 -1.7766786079634349e-08 -5.5699011400140225e-08 -0.00050026420279216668 5.2831070969516859e-09 3.3950633349224797e-09 -0.00050026364469961154 4.6030281896766749e-09 -1.6797922315567402e-10 -0.00025020892051368007 -1.7766786079634366e-08 -5.5699011400140232e-08 -0.00050026420279216679 -5.0933426496295523e-08 3.0296124648343322e-09 -0.00050026611098429963 5.2831070969517041e-09 3.3950633349224859e-09 -0.00050026364469961154 4.6030281896766749e-09 -1.6797922315567402e-10 -0.00025020892051368007 -5.0933426496295523e-08 3.0296124648343322e-09 -0.00050026611098429963 -1.9839856947121333e-08 3.6181240238938388e-08 -0.00050026202665775837 5.2831070969517041e-09 3.3950633349224859e-09 -0.00050026364469961154 -7.0324753902497474e-09 4.0874044491153259e-08 -0.00025019161464200957 -1.9839856947121333e-08 3.6181240238938388e-08 -0.00050026202665775837 5.2831070969517041e-09 3.3950633349224859e-09 -0.00050026364469961154 -7.0324753902497474e-09 4.0874044491153259e-08 -0.00025019161464200957 1.2953987594393263e-08 5.6980037399442877e-08 -0.00050026935424992759 5.2831070969517041e-09 3.3950633349224859e-09 -0.00050026364469961154 -7.0324753902497457e-09 4.0874044491153252e-08 -0.00025019161464200957 4.6030281896766749e-09 -1.6797922315567394e-10 -0.00025020892051368007 3.7096477014822316e-08 5.4392695807712276e-08 -0.00025021921270176244 5.2831070969517041e-09 3.3950633349224859e-09 -0.00050026364469961154 -7.0324753902497499e-09 4.0874044491153252e-08 -0.00025019161464200963 1.2953987594393263e-08 5.6980037399442877e-08 -0.00050026935424992759 3.7096477014822322e-08 5.4392695807712276e-08 -0.00025021921270176244 -1.9839856947121333e-08 3.6181240238938388e-08 -0.00050026202665775837 -7.0324753902497474e-09 4.0874044491153259e-08 -0.00025019161464200957 1.2953987594393263e-08 5.6980037399442877e-08 -0.00050026935424992759 -5.508131484491792e-10 8.0952532468212265e-08 -0.0002502021460966692 -7.0324753902497474e-09 4.0874044491153259e-08 -0.00025019161464200957 1.2953987594393263e-08 5.6980037399442877e-08 -0.00050026935424992759 3.7096477014822276e-08 5.4392695807712283e-08 -0.00025021921270176244 -5.508131484491792e-10 8.0952532468212265e-08 -0.0002502021460966692 -7.0324753902497474e-09 4.0874044491153259e-08 -0.00025019161464200957 4.6030281896766749e-09 -1.6797922315567402e-10 -0.00025020892051368007 -6.1936369055439555e-09 8.8910002254655708e-09 -6.9361770877388936e-08 -5.4680198569734002e-08 1.3875612879836995e-08 -0.00025021651399595126 -7.0324753902497474e-09 4.0874044491153259e-08 -0.00025019161464200957 4.6030281896766749e-09 -1.6797922315567402e-10 -0.00025020892051368007 -6.1936369055439555e-09 8.8910002254655708e-09 -6.9361770877388936e-08 3.7096477014822276e-08 5.439269580771229e-08 -0.00025021921270176244 -4.0156390891806782e-08 -5.0910241974027788e-08 -0.00025021568070505382 4.6030281896766749e-09 -1.6797922315567402e-10 -0.00025020892051368007 3.7894295517123942e-09 2.502851054381013e-09 -1.8649050520735467e-07 -5.4680198569734002e-08 1.3875612879836995e-08 -0.00025021651399595126 4.6030281896766749e-09 -1.6797922315567402e-10 -0.00025020892051368007 5.3188321489822688e-08 -2.6640508610657887e-08 -0.00025020709295624704 6.9844629063720467e-08 1.9621710108240916e-08 -0.00025025284037350718 -1.9808449050750454e-08 -1.3052033244294472e-08 -2.5384928344770991e-07 5.7098635078888867e-09 -9.1888967665443383e-09 -7.2571548197048263e-08 1.2400984940865184e-08 -4.2726300582634152e-08 -0.00025019185750278376 4.6030281896766749e-09 -1.6797922315567402e-10 -0.00025020892051368007 5.3188321489822688e-08 -2.6640508610657887e-08 -0.00025020709295624704 6.9844629063720467e-08 1.9621710108240916e-08 -0.00025025284037350718 -1.9808449050750454e-08 -1.3052033244294472e-08 -2.5384928344770991e-07 1.0162522160566051e-07 8.6133467382300043e-08 -0.00025026901688398169 3.7096477014822276e-08 5.439269580771229e-08 -0.00025021921270176244 4.6030281896766749e-09 -1.6797922315567402e-10 -0.00025020892051368007 6.9844629063720467e-08 1.9621710108240916e-08 -0.00025025284037350718 -1.9808449050750454e-08 -1.3052033244294472e-08 -2.5384928344770991e-07 3.7096477014822276e-08 5.439269580771229e-08 -0.00025021921270176244 4.6030281896766749e-09 -1.6797922315567402e-10 -0.00025020892051368007 -1.9808449050750457e-08 -1.3052033244294492e-08 -2.5384928344767672e-07 3.7096477014822276e-08 5.439269580771229e-08 -0.00025021921270176244 -6.1788572438165355e-10 -1.3446316741415911e-08 -1.8495017062063584e-07 4.6030281896766749e-09 -1.6797922315567402e-10 -0.00025020892051368007 -1.9808449050750444e-08 -1.305203324429447e-08 -2.5384928344776312e-07 3.7894295517123942e-09 2.5028510543810139e-09 -1.8649050520736788e-07 -6.1788572438165996e-10 -1.3446316741415919e-08 -1.8495017062062242e-07 5.3188321489822688e-08 -2.6640508610657887e-08 -0.00025020709295624704 -1.9808449050750464e-08 -1.3052033244294474e-08 -2.5384928344768916e-07 -1.2599883497685581e-08 4.7776823499183468e-09 -1.7697880445634545e-07 3.7894295517123876e-09 2.5028510543810122e-09 -1.864905052073547e-07 5.7098635078888867e-09 -9.1888967665443383e-09 -7.2571548197048263e-08 4.6030281896766749e-09 -1.6797922315567402e-10 -0.00025020892051368007 5.3188321489822688e-08 -2.6640508610657887e-08 -0.00025020709295624704 3.7894295517123942e-09 2.502851054381013e-09 -1.8649050520735467e-07 4.6030281896766749e-09 -1.6797922315567402e-10 -0.00025020892051368007 5.3188321489822688e-08 -2.6640508610657887e-08 -0.00025020709295624704 -1.9808449050750454e-08 -1.3052033244294472e-08 -2.5384928344770991e-07 3.7894295517123942e-09 2.502851054381013e-09 -1.8649050520735467e-07 5.7098635078888867e-09 -9.1888967665443383e-09 -7.2571548197048263e-08 5.3188321489822688e-08 -2.6640508610657887e-08 -0.00025020709295624704 -1.2599883497685581e-08 4.7776823499183468e-09 -1.7697880445634545e-07 3.7894295517123942e-09 2.502851054381013e-09 -1.8649050520735467e-07 -2.6314966512668089e-09 1.1331073151293022e-08 -2.1468367014561138e-07 -4.0156390891806782e-08 -5.0910241974027788e-08 -0.00025021568070505382 3.7894295517123942e-09 2.502851054381013e-09 -1.8649050520735467e-07 -5.4680198569734022e-08 1.3875612879837039e-08 -0.00025021651399595126 4.6030281896766749e-09 -1.6797922315567402e-10 -0.00025020892051368007 3.7894295517123942e-09 2.502851054381013e-09 -1.8649050520735467e-07 -6.1936369055439555e-09 8.8910002254655708e-09 -6.9361770877388936e-08 -5.4680198569734002e-08 1.3875612879836995e-08 -0.00025021651399595126 5.7098635078888867e-09 -9.1888967665443383e-09 -7.2571548197048263e-08 -4.0156390891806749e-08 -5.0910241974027768e-08 -0.00025021568070505382 4.6030281896766485e-09 -1.6797922315569555e-10 -0.00025020892051368007 3.7894295517123942e-09 2.502851054381013e-09 -1.8649050520735467e-07 4.6030281896766749e-09 -1.6797922315567402e-10 -0.00025020892051368007 -6.1936369055439472e-09 8.8910002254655808e-09 -6.9361770877459968e-08 3.7096477014822276e-08 5.439269580771229e-08 -0.00025021921270176244 -6.1788572438165944e-10 -1.3446316741415971e-08 -1.8495017062062197e-07 -6.1936369055439555e-09 8.8910002254655708e-09 -6.9361770877388936e-08 3.7096477014822276e-08 5.439269580771229e-08 -0.00025021921270176244 5.4293323859655023e-09 -1.6139099745983119e-08 -8.8469812188985032e-08 -6.1788572438165148e-10 -1.3446316741415921e-08 -1.849501706206224e-07 -7.0324753902497474e-09 4.0874044491153259e-08 -0.00025019161464200957 -6.1936369055439555e-09 8.8910002254655708e-09 -6.9361770877388936e-08 3.7096477014822276e-08 5.439269580771229e-08 -0.00025021921270176244 5.4293323859655023e-09 -1.6139099745983123e-08 -8.8469812188980241e-08 4.6030281896766749e-09 -1.6797922315567402e-10 -0.00025020892051368007 3.7894295517123942e-09 2.502851054381013e-09 -1.8649050520735467e-07 -6.1936369055439588e-09 8.8910002254655874e-09 -6.9361770877340933e-08 -6.1788572438164217e-10 -1.3446316741415939e-08 -1.8495017062062256e-07 -7.0324753902497474e-09 4.0874044491153259e-08 -0.00025019161464200957 -6.1936369055439555e-09 8.8910002254655708e-09 -6.9361770877388936e-08 1.3273314037607561e-08 -1.1031806476398187e-08 -1.0743402997107549e-07 -5.4680198569734002e-08 1.3875612879836995e-08 -0.00025021651399595126 -6.1936369055439555e-09 8.8910002254655708e-09 -6.9361770877388936e-08 1.3273314037607561e-08 -1.1031806476398187e-08 -1.0743402997107549e-07 -5.4680198569734002e-08 1.3875612879836991e-08 -0.00025021651399595126 9.367873793903718e-09 -6.9485850060726811e-09 -2.3280772279501425e-07 1.3273314037607561e-08 -1.1031806476398187e-08 -1.0743402997107549e-07 -5.4680198569734002e-08 1.3875612879836995e-08 -0.00025021651399595126 9.367873793903718e-09 -6.9485850060726811e-09 -2.3280772279501425e-07 -8.5140404751904348e-08 1.0635627985915118e-07 -0.00025023723105119803 -7.0324753902497474e-09 4.0874044491153259e-08 -0.00025019161464200957 -6.1936369055439555e-09 8.8910002254655708e-09 -6.9361770877388936e-08 1.3273314037607561e-08 -1.1031806476398187e-08 -1.0743402997107549e-07 5.4293323859655023e-09 -1.6139099745983123e-08 -8.8469812188980241e-08 -7.0324753902497474e-09 4.0874044491153259e-08 -0.00025019161464200957 1.3273314037607556e-08 -1.1031806476398178e-08 -1.0743402997107549e-07 -3.5774950588320906e-08 6.6271465112600011e-08 -0.00025020538314194648 -5.4680198569734002e-08 1.3875612879836995e-08 -0.00025021651399595126 1.3273314037607561e-08 -1.1031806476398187e-08 -1.0743402997107549e-07 -3.5774950588320906e-08 6.6271465112600011e-08 -0.00025020538314194648 -5.4680198569734002e-08 1.3875612879836995e-08 -0.00025021651399595126 -8.5140404751904348e-08 1.0635627985915118e-07 -0.00025023723105119803 -7.0324753902497474e-09 4.0874044491153259e-08 -0.00025019161464200957 1.327331403760755e-08 -1.1031806476398185e-08 -1.0743402997107549e-07 -3.5774950588320906e-08 6.6271465112600011e-08 -0.00025020538314194648 -5.508131484491792e-10 8.0952532468212265e-08 -0.0002502021460966692 2.4513035452492942e-08 1.6151187005575489e-08 -1.8749937962886341e-07 -2.6314966512668089e-09 1.1331073151293022e-08 -2.1468367014561138e-07 -5.4680198569734002e-08 1.3875612879836995e-08 -0.00025021651399595126 9.367873793903718e-09 -6.9485850060726811e-09 -2.3280772279501425e-07 3.7894295517123942e-09 2.502851054381013e-09 -1.8649050520735467e-07 -6.1936369055439555e-09 8.8910002254655708e-09 -6.9361770877388936e-08 -5.4680198569734002e-08 1.3875612879836998e-08 -0.00025021651399595126 9.367873793903718e-09 -6.9485850060726811e-09 -2.3280772279501425e-07 -2.6314966512668089e-09 1.1331073151293022e-08 -2.1468367014561138e-07 3.7894295517123942e-09 2.502851054381013e-09 -1.8649050520735467e-07 -5.4680198569734028e-08 1.3875612879837003e-08 -0.00025021651399595137 9.367873793903718e-09 -6.9485850060726811e-09 -2.3280772279501425e-07 -1.3342112749212736e-07 -1.9515371344627189e-08 -0.00025023055065717659 2.4513035452492889e-08 1.6151187005575416e-08 -1.8749937962881214e-07 -5.229116368673587e-08 -4.3710153444113732e-09 -2.4535999141832637e-07 -1.2758676172451394e-07 4.9911961710428292e-08 -0.00025025006277462175 2.4513035452492942e-08 1.6151187005575489e-08 -1.8749937962886341e-07 -5.4680198569734028e-08 1.3875612879837e-08 -0.00025021651399595126 9.367873793903718e-09 -6.9485850060726811e-09 -2.3280772279501425e-07 -1.2758676172451394e-07 4.9911961710428292e-08 -0.00025025006277462175 2.4513035452492942e-08 1.6151187005575489e-08 -1.8749937962886341e-07 9.367873793903718e-09 -6.9485850060726811e-09 -2.3280772279501425e-07 -5.229116368673589e-08 -4.3710153444113782e-09 -2.4535999141835411e-07 -1.2758676172451394e-07 4.9911961710428292e-08 -0.00025025006277462175 2.4513035452492942e-08 1.6151187005575489e-08 -1.8749937962886341e-07 -8.4329237491552092e-08 -2.3211154567633992e-08 -0.0002502298781993703 -5.4680198569734008e-08 1.3875612879836996e-08 -0.00025021651399595126 -1.2758676172451394e-07 4.9911961710428292e-08 -0.00025025006277462175 -5.4680198569734002e-08 1.3875612879836995e-08 -0.00025021651399595126 9.367873793903718e-09 -6.9485850060726811e-09 -2.3280772279501425e-07 -1.2758676172451394e-07 4.9911961710428292e-08 -0.00025025006277462175 -8.5140404751904348e-08 1.0635627985915118e-07 -0.00025023723105119803 9.367873793903718e-09 -6.9485850060726811e-09 -2.3280772279501425e-07 -5.229116368673589e-08 -4.3710153444113782e-09 -2.4535999141835411e-07 -1.2758676172451394e-07 4.9911961710428292e-08 -0.00025025006277462175 -4.6479830861587397e-08 2.5654279567406155e-08 -2.4541159524264332e-07 9.367873793903718e-09 -6.9485850060726811e-09 -2.3280772279501425e-07 -1.2758676172451394e-07 4.9911961710428292e-08 -0.00025025006277462175 -8.5140404751904334e-08 1.0635627985915121e-07 -0.00025023723105119808 -4.6479830861587397e-08 2.5654279567406155e-08 -2.4541159524264332e-07 1.3273314037607561e-08 -1.1031806476398187e-08 -1.0743402997107549e-07 9.367873793903718e-09 -6.9485850060726811e-09 -2.3280772279501425e-07 -8.5140404751904348e-08 1.0635627985915118e-07 -0.00025023723105119797 -4.6479830861587397e-08 2.5654279567406155e-08 -2.4541159524264332e-07 1.3273314037607561e-08 -1.1031806476398187e-08 -1.0743402997107549e-07 -8.5140404751904348e-08 1.0635627985915118e-07 -0.00025023723105119797 -4.6479830861587397e-08 2.5654279567406155e-08 -2.4541159524264332e-07 -2.9777000530538384e-08 4.4550391764484512e-08 -1.4612566325839004e-07 -7.0324753902497474e-09 4.0874044491153259e-08 -0.00025019161464200957 1.3273314037607551e-08 -1.103180647639824e-08 -1.074340299709992e-07 -5.5081314844917848e-10 8.0952532468212265e-08 -0.0002502021460966692 5.4293323859655023e-09 -1.6139099745983123e-08 -8.8469812188980241e-08 1.3273314037607561e-08 -1.1031806476398187e-08 -1.0743402997107549e-07 -8.5140404751904387e-08 1.0635627985915117e-07 -0.00025023723105119797 -2.9777000530538384e-08 4.4550391764484512e-08 -1.4612566325839004e-07 -1.9501591743280328e-08 1.3538249334682275e-07 -0.0002502139232096648 1.3273314037607561e-08 -1.1031806476398187e-08 -1.0743402997107549e-07 -2.9777000530538384e-08 4.4550391764484518e-08 -1.4612566325840237e-07 -1.9501591743280395e-08 1.3538249334682278e-07 -0.0002502139232096648 5.4293323859655023e-09 -1.6139099745983123e-08 -8.8469812188980241e-08 1.3273314037607561e-08 -1.1031806476398187e-08 -1.0743402997107549e-07 -1.9501591743280395e-08 1.3538249334682278e-07 -0.0002502139232096648 -5.5081314844917868e-10 8.0952532468212265e-08 -0.0002502021460966692 5.4293323859655023e-09 -1.6139099745983123e-08 -8.8469812188980241e-08 -2.9777000530538384e-08 4.4550391764484512e-08 -1.4612566325839004e-07 -1.9501591743280395e-08 1.3538249334682278e-07 -0.0002502139232096648 5.4293323859655064e-09 -1.6139099745983139e-08 -8.8469812188980214e-08 -3.9991963878634742e-09 5.3146321194098002e-08 -2.0220333974957441e-07 1.3273314037607561e-08 -1.1031806476398187e-08 -1.0743402997107549e-07 -3.5774950588320906e-08 6.6271465112600011e-08 -0.00025020538314194648 -1.9501591743280401e-08 1.353824933468228e-07 -0.0002502139232096648 -5.508131484491792e-10 8.0952532468212265e-08 -0.0002502021460966692 1.3273314037607561e-08 -1.1031806476398187e-08 -1.0743402997107549e-07 -3.5774950588320906e-08 6.6271465112600011e-08 -0.00025020538314194648 -8.5140404751904348e-08 1.0635627985915114e-07 -0.00025023723105119803 -1.9501591743280368e-08 1.3538249334682278e-07 -0.0002502139232096648 -1.0131685404650118e-07 4.3159948382106661e-08 -0.00050027161067855411 -3.5774950588320906e-08 6.6271465112600011e-08 -0.00025020538314194648 -8.5140404751904348e-08 1.0635627985915118e-07 -0.00025023723105119803 -1.9501591743280395e-08 1.3538249334682278e-07 -0.0002502139232096648 -1.9501591743280395e-08 1.3538249334682278e-07 -0.0002502139232096648 -6.6332645902921318e-08 8.7942167428312948e-08 -0.00050026448487118036 5.2022672497922564e-08 1.2722328293202086e-07 -0.00025023521259694799 -5.508131484491792e-10 8.0952532468212265e-08 -0.0002502021460966692 -1.9839856947121333e-08 3.6181240238938388e-08 -0.00050026202665775837 -3.5774950588320853e-08 6.6271465112600011e-08 -0.00025020538314194643 -2.538548964861125e-08 6.9256565868496146e-08 -0.00050026405332457538 -5.508131484491792e-10 8.0952532468212265e-08 -0.0002502021460966692 -1.0131685404650118e-07 4.3159948382106661e-08 -0.00050027161067855411 -3.57749505883209e-08 6.6271465112600011e-08 -0.00025020538314194643 -1.9501591743280395e-08 1.3538249334682278e-07 -0.0002502139232096648 -6.6332645902921318e-08 8.7942167428312948e-08 -0.00050026448487118036 -1.0131685404650118e-07 4.3159948382106661e-08 -0.00050027161067855411 -5.1287601991033966e-08 5.0047131812441032e-08 -0.00050026321427565248 -3.5774950588320906e-08 6.6271465112600011e-08 -0.00025020538314194648 -6.6332645902921318e-08 8.7942167428312948e-08 -0.00050026448487118036 -5.1287601991033966e-08 5.0047131812441032e-08 -0.00050026321427565248 -3.5774950588320906e-08 6.6271465112600011e-08 -0.00025020538314194648 -6.6332645902921318e-08 8.7942167428312948e-08 -0.00050026448487118036 -2.5385489648611243e-08 6.9256565868496146e-08 -0.00050026405332457527 -3.5774950588320906e-08 6.6271465112600011e-08 -0.00025020538314194648 -1.9501591743280395e-08 1.3538249334682278e-07 -0.0002502139232096648 -6.6332645902921318e-08 8.7942167428312948e-08 -0.00050026448487118036 -5.508131484491792e-10 8.0952532468212265e-08 -0.0002502021460966692 -3.5774950588320906e-08 6.6271465112600011e-08 -0.00025020538314194648 -6.6332645902921318e-08 8.7942167428312961e-08 -0.00050026448487118036 -2.5385489648611247e-08 6.9256565868496146e-08 -0.00050026405332457527 -5.508131484491792e-10 8.0952532468212265e-08 -0.0002502021460966692 -6.6332645902921318e-08 8.7942167428312948e-08 -0.00050026448487118036 -1.3461098486872719e-08 1.0926965039364961e-07 -0.00050027381745660281 -2.5385489648611243e-08 6.9256565868496146e-08 -0.00050026405332457527 -5.4060112134516672e-08 9.7711289080357602e-08 -0.00075031145926141593 -5.1287601991033966e-08 5.0047131812441032e-08 -0.00050026321427565248 -6.6332645902921318e-08 8.7942167428312948e-08 -0.00050026448487118036 -2.5385489648611243e-08 6.9256565868496146e-08 -0.00050026405332457527 -5.4060112134516672e-08 9.7711289080357602e-08 -0.00075031145926141593 -1.0131685404650118e-07 4.3159948382106661e-08 -0.00050027161067855411 -5.1287601991033966e-08 5.0047131812441032e-08 -0.00050026321427565248 -6.6332645902921318e-08 8.7942167428312948e-08 -0.00050026448487118036 -9.5736576528642596e-08 5.7463181003121103e-08 -0.000750313613910029 -6.6332645902921318e-08 8.7942167428312948e-08 -0.00050026448487118036 -1.3461098486872715e-08 1.0926965039364961e-07 -0.00050027381745660281 5.2022672497922551e-08 1.2722328293202086e-07 -0.00025023521259694799 -5.508131484491792e-10 8.0952532468212265e-08 -0.0002502021460966692 -1.3461098486872722e-08 1.092696503936496e-07 -0.00050027381745660281 4.4874074251181922e-08 1.0090077806735122e-07 -0.00050028898436074341 1.2953987594393263e-08 5.6980037399442877e-08 -0.00050026935424992759 1.9984972733869093e-09 1.1164709801115407e-07 -0.0007503151084822915 5.7241954074201849e-08 3.470090854209444e-08 -0.00050027919683690838 4.4874074251181929e-08 1.0090077806735122e-07 -0.00050028898436074341 1.2953987594393263e-08 5.6980037399442877e-08 -0.00050026935424992759 5.7202649989338377e-08 9.5787935008964096e-08 -0.00075032104893709231 -1.3461098486872722e-08 1.092696503936496e-07 -0.00050027381745660281 1.2953987594393263e-08 5.6980037399442877e-08 -0.00050026935424992759 -2.5385489648611243e-08 6.9256565868496146e-08 -0.00050026405332457527 1.9984972733869093e-09 1.1164709801115407e-07 -0.0007503151084822915 -1.9839856947121333e-08 3.6181240238938388e-08 -0.00050026202665775837 1.2953987594393263e-08 5.6980037399442877e-08 -0.00050026935424992759 -2.5385489648611243e-08 6.9256565868496146e-08 -0.00050026405332457527 -5.508131484491792e-10 8.0952532468212265e-08 -0.0002502021460966692 -1.3461098486872722e-08 1.092696503936496e-07 -0.00050027381745660281 1.2953987594393263e-08 5.6980037399442877e-08 -0.00050026935424992759 3.7096477014822276e-08 5.439269580771229e-08 -0.00025021921270176244 -5.508131484491792e-10 8.0952532468212265e-08 -0.0002502021460966692 -1.3461098486872722e-08 1.092696503936496e-07 -0.00050027381745660281 5.2022672497922551e-08 1.2722328293202086e-07 -0.00025023521259694799 3.7096477014822276e-08 5.439269580771229e-08 -0.00025021921270176244 -5.508131484491792e-10 8.0952532468212265e-08 -0.0002502021460966692 -6.6332645902921318e-08 8.7942167428312948e-08 -0.00050026448487118036 -1.3461098486872719e-08 1.0926965039364961e-07 -0.00050027381745660281 -2.5385489648611243e-08 6.9256565868496146e-08 -0.00050026405332457527 -5.508131484491792e-10 8.0952532468212265e-08 -0.0002502021460966692 -1.3461098486872722e-08 1.092696503936496e-07 -0.00050027381745660281 1.2953987594393263e-08 5.6980037399442877e-08 -0.00050026935424992759 -2.5385489648611243e-08 6.9256565868496146e-08 -0.00050026405332457527 -5.508131484491792e-10 8.0952532468212265e-08 -0.0002502021460966692 6.9844629063720467e-08 1.9621710108240916e-08 -0.00025025284037350718 4.4874074251181922e-08 1.0090077806735122e-07 -0.00050028898436074341 1.016252216056605e-07 8.6133467382300043e-08 -0.00025026901688398169 3.7096477014822276e-08 5.439269580771229e-08 -0.00025021921270176244 -1.3461098486872722e-08 1.092696503936496e-07 -0.00050027381745660281 4.4874074251181922e-08 1.0090077806735122e-07 -0.00050028898436074341 1.2953987594393263e-08 5.6980037399442877e-08 -0.00050026935424992759 3.7096477014822276e-08 5.439269580771229e-08 -0.00025021921270176244 -1.3461098486872722e-08 1.092696503936496e-07 -0.00050027381745660281 1.0162522160566047e-07 8.613346738230003e-08 -0.00025026901688398175 5.2022672497922538e-08 1.2722328293202086e-07 -0.00025023521259694804 3.7096477014822276e-08 5.439269580771229e-08 -0.00025021921270176244 -1.3461098486872722e-08 1.092696503936496e-07 -0.00050027381745660281 4.4874074251181922e-08 1.0090077806735122e-07 -0.00050028898436074341 1.0162522160566049e-07 8.6133467382300017e-08 -0.00025026901688398175 3.7096477014822276e-08 5.439269580771229e-08 -0.00025021921270176244 6.9844629063720467e-08 1.9621710108240916e-08 -0.00025025284037350718 4.4874074251181929e-08 1.0090077806735124e-07 -0.00050028898436074341 1.2953987594393265e-08 5.6980037399442877e-08 -0.00050026935424992748 3.7096477014822276e-08 5.439269580771229e-08 -0.00025021921270176244 1.016252216056605e-07 8.6133467382300043e-08 -0.00025026901688398169 5.2022672497922551e-08 1.2722328293202086e-07 -0.00025023521259694799 3.7096477014822276e-08 5.439269580771229e-08 -0.00025021921270176244 -6.1788572438166823e-10 -1.3446316741415949e-08 -1.8495017062050651e-07 -1.9501591743280395e-08 1.3538249334682278e-07 -0.0002502139232096648 5.2022672497922564e-08 1.2722328293202086e-07 -0.00025023521259694799 -5.508131484491792e-10 8.0952532468212265e-08 -0.0002502021460966692 5.4293323859655023e-09 -1.6139099745983123e-08 -8.8469812188980241e-08 -7.0324753902497474e-09 4.0874044491153259e-08 -0.00025019161464200957 3.7096477014822276e-08 5.439269580771229e-08 -0.00025021921270176244 -5.508131484491792e-10 8.0952532468212265e-08 -0.0002502021460966692 5.4293323859655023e-09 -1.6139099745983123e-08 -8.8469812188980241e-08 5.2022672497922551e-08 1.2722328293202086e-07 -0.00025023521259694799 3.7096477014822276e-08 5.439269580771229e-08 -0.00025021921270176244 -5.508131484491792e-10 8.0952532468212265e-08 -0.0002502021460966692 5.4293323859655023e-09 -1.6139099745983123e-08 -8.8469812188980241e-08 5.2022672497922551e-08 1.2722328293202086e-07 -0.00025023521259694799 3.7096477014822276e-08 5.439269580771229e-08 -0.00025021921270176244 5.4293323859655023e-09 -1.6139099745983123e-08 -8.8469812188980241e-08 -6.1788572438165148e-10 -1.3446316741415921e-08 -1.849501706206224e-07 5.2022672497922551e-08 1.2722328293202086e-07 -0.00025023521259694799 5.4293323859655023e-09 -1.6139099745983123e-08 -8.8469812188980241e-08 -6.1788572438165148e-10 -1.3446316741415921e-08 -1.849501706206224e-07 -3.9991963878634742e-09 5.3146321194098002e-08 -2.0220333974957441e-07 -1.9501591743280395e-08 1.3538249334682278e-07 -0.0002502139232096648 5.2022672497922544e-08 1.2722328293202086e-07 -0.00025023521259694799 5.4293323859655023e-09 -1.6139099745983123e-08 -8.8469812188980241e-08 -3.9991963878634742e-09 5.3146321194098002e-08 -2.0220333974957441e-07 1.016252216056605e-07 8.6133467382300043e-08 -0.00025026901688398169 5.2022672497922551e-08 1.2722328293202086e-07 -0.00025023521259694799 -6.1788572438165344e-10 -1.3446316741415977e-08 -1.8495017062060233e-07 2.4285179691440714e-08 4.6337375738623791e-08 -2.7341333984991487e-07 -1.9808449050750454e-08 -1.3052033244294472e-08 -2.5384928344770991e-07 1.0162522160566053e-07 8.6133467382300057e-08 -0.00025026901688398169 3.7096477014822269e-08 5.4392695807712283e-08 -0.00025021921270176238 -6.1788572438165148e-10 -1.3446316741415921e-08 -1.849501706206224e-07 -1.9808449050750454e-08 -1.3052033244294472e-08 -2.5384928344770991e-07 1.016252216056605e-07 8.6133467382300043e-08 -0.00025026901688398169 -6.1788572438165148e-10 -1.3446316741415921e-08 -1.849501706206224e-07 2.4285179691440714e-08 4.6337375738623791e-08 -2.7341333984991487e-07 5.2022672497922551e-08 1.2722328293202086e-07 -0.00025023521259694799 -6.1788572438164414e-10 -1.3446316741415918e-08 -1.8495017062061713e-07 -3.9991963878634742e-09 5.3146321194098002e-08 -2.0220333974957441e-07 2.4285179691440707e-08 4.6337375738623791e-08 -2.7341333984991482e-07 -1.9808449050750454e-08 -1.3052033244294472e-08 -2.5384928344770991e-07 1.016252216056605e-07 8.6133467382300043e-08 -0.00025026901688398169 5.371054388222309e-08 3.4988974990418077e-08 -1.8640964119177123e-07 1.3376079413421546e-07 1.9290610689962842e-08 -0.00025025890794052474 -1.9808449050750454e-08 -1.3052033244294472e-08 -2.5384928344770991e-07 1.0162522160566051e-07 8.6133467382300043e-08 -0.00025026901688398169 2.4285179691440714e-08 4.6337375738623791e-08 -2.7341333984991487e-07 5.371054388222309e-08 3.4988974990418077e-08 -1.8640964119177123e-07 6.9844629063720467e-08 1.9621710108240916e-08 -0.00025025284037350718 4.4874074251181929e-08 1.0090077806735122e-07 -0.00050028898436074341 1.3376079413421546e-07 1.9290610689962842e-08 -0.00025025890794052474 8.7875855626196465e-08 6.6375448493001254e-08 -0.00050028591710472533 6.9844629063720467e-08 1.9621710108240916e-08 -0.00025025284037350718 4.4874074251181929e-08 1.0090077806735122e-07 -0.00050028898436074341 1.016252216056605e-07 8.6133467382300043e-08 -0.00025026901688398169 1.3376079413421546e-07 1.9290610689962842e-08 -0.00025025890794052474 5.7241954074201849e-08 3.470090854209444e-08 -0.00050027919683690838 4.4874074251181922e-08 1.0090077806735122e-07 -0.00050028898436074341 8.7875855626196465e-08 6.6375448493001254e-08 -0.00050028591710472533 5.7202649989338377e-08 9.5787935008964096e-08 -0.00075032104893709231 -1.2700412048784008e-08 1.1313942276257401e-08 -9.8543748247463109e-08 2.9115907212430848e-08 -4.4969605863162071e-08 -1.3795281524971294e-07 1.9422468036242059e-08 -1.3541302400602122e-07 -0.00025020915248868324 8.4813312445865888e-08 -1.0695123567922903e-07 -0.0002502296274009936 -1.2700412048784008e-08 1.1313942276257401e-08 -9.8543748247463109e-08 3.6402772466569906e-08 -7.0369558519381028e-08 -0.00025020017925156429 1.9422468036242059e-08 -1.3541302400602122e-07 -0.00025020915248868324 8.4813312445865888e-08 -1.0695123567922903e-07 -0.0002502296274009936 -1.2700412048784008e-08 1.1313942276257401e-08 -9.8543748247463109e-08 3.6402772466569906e-08 -7.0369558519381028e-08 -0.00025020017925156429 5.3188321489822688e-08 -2.6640508610657887e-08 -0.00025020709295624704 8.4813312445865888e-08 -1.0695123567922903e-07 -0.0002502296274009936 -1.2700412048784008e-08 1.1313942276257401e-08 -9.8543748247463109e-08 2.9115907212430848e-08 -4.4969605863162071e-08 -1.3795281524971294e-07 8.4813312445865888e-08 -1.0695123567922903e-07 -0.0002502296274009936 4.728534154162953e-08 -2.4813201677455651e-08 -2.0212897478945179e-07 -1.2700412048784008e-08 1.1313942276257401e-08 -9.8543748247463109e-08 5.3188321489822688e-08 -2.6640508610657887e-08 -0.00025020709295624704 -1.2599883497685581e-08 4.7776823499183468e-09 -1.7697880445634545e-07 8.4813312445865888e-08 -1.0695123567922903e-07 -0.0002502296274009936 -1.2700412048784008e-08 1.1313942276257401e-08 -9.8543748247463109e-08 -1.2599883497685581e-08 4.7776823499183468e-09 -1.7697880445634545e-07 8.4813312445865888e-08 -1.0695123567922903e-07 -0.0002502296274009936 4.728534154162953e-08 -2.4813201677455651e-08 -2.0212897478945179e-07 -1.2599883497685581e-08 4.7776823499183468e-09 -1.7697880445634545e-07 8.4813312445865875e-08 -1.0695123567922904e-07 -0.00025022962740099366 4.728534154162953e-08 -2.4813201677455651e-08 -2.0212897478945179e-07 1.2750695346504742e-07 -4.9475010094974265e-08 -0.00025026417053939948 -1.2599883497685581e-08 4.7776823499183468e-09 -1.7697880445634545e-07 4.728534154162953e-08 -2.4813201677455651e-08 -2.0212897478945179e-07 5.2078251276649016e-08 4.061260304391014e-09 -2.7385058548468616e-07 1.2750695346504742e-07 -4.9475010094974285e-08 -0.00025026417053939954 -1.9808449050750454e-08 -1.3052033244294472e-08 -2.5384928344770991e-07 -1.2599883497685581e-08 4.7776823499183468e-09 -1.7697880445634545e-07 5.2078251276649023e-08 4.0612603043910082e-09 -2.7385058548471083e-07 1.2750695346504739e-07 -4.9475010094974265e-08 -0.00025026417053939943 5.3188321489822688e-08 -2.6640508610657887e-08 -0.00025020709295624704 -1.9808449050750454e-08 -1.3052033244294472e-08 -2.5384928344770991e-07 -1.2599883497685581e-08 4.7776823499183468e-09 -1.7697880445634545e-07 1.2750695346504739e-07 -4.9475010094974265e-08 -0.00025026417053939943 -1.9808449050750454e-08 -1.3052033244294472e-08 -2.5384928344770991e-07 5.371054388222309e-08 3.4988974990418077e-08 -1.8640964119177123e-07 1.3376079413421546e-07 1.9290610689962842e-08 -0.00025025890794052474 5.2078251276649016e-08 4.061260304391014e-09 -2.7385058548468616e-07 -1.9808449050750454e-08 -1.3052033244294472e-08 -2.5384928344770991e-07 1.3376079413421546e-07 1.9290610689962743e-08 -0.00025025890794052485 5.2078251276649016e-08 4.061260304391014e-09 -2.7385058548468616e-07 1.2750695346504742e-07 -4.9475010094974212e-08 -0.00025026417053939943 6.9844629063720467e-08 1.9621710108240916e-08 -0.00025025284037350718 -1.9808449050750454e-08 -1.3052033244294472e-08 -2.5384928344770991e-07 1.016252216056605e-07 8.6133467382300043e-08 -0.00025026901688398169 1.3376079413421546e-07 1.9290610689962842e-08 -0.00025025890794052474 6.9844629063720467e-08 1.9621710108240916e-08 -0.00025025284037350718 -1.9808449050750454e-08 -1.3052033244294472e-08 -2.5384928344770991e-07 1.3376079413421546e-07 1.9290610689962842e-08 -0.00025025890794052474 1.2750695346504739e-07 -4.9475010094974265e-08 -0.00025026417053939943 5.3188321489822688e-08 -2.6640508610657887e-08 -0.00025020709295624704 -1.2599883497685581e-08 4.7776823499183468e-09 -1.7697880445634545e-07 8.4813312445865888e-08 -1.0695123567922903e-07 -0.0002502296274009936 1.2750695346504739e-07 -4.9475010094974265e-08 -0.00025026417053939943 5.3188321489822688e-08 -2.6640508610657887e-08 -0.00025020709295624704 6.9844629063720467e-08 1.9621710108240916e-08 -0.00025025284037350718 -1.9808449050750454e-08 -1.3052033244294472e-08 -2.5384928344770991e-07 1.2750695346504739e-07 -4.9475010094974265e-08 -0.00025026417053939943 5.4737276621035145e-08 -1.5673945749579005e-08 -0.0005002654335759635 5.3188321489822688e-08 -2.6640508610657887e-08 -0.00025020709295624704 1.0921040965903083e-07 1.3356401312679102e-08 -0.00050028524779069958 1.0145959862879338e-07 -4.2922709364776555e-08 -0.00050027046109071057 5.3188321489822688e-08 -2.6640508610657887e-08 -0.00025020709295624704 8.4813312445865888e-08 -1.0695123567922903e-07 -0.0002502296274009936 1.2750695346504739e-07 -4.9475010094974265e-08 -0.00025026417053939943 1.0921040965903082e-07 1.3356401312679133e-08 -0.00050028524779069969 5.4737276621035145e-08 -1.5673945749579005e-08 -0.0005002654335759635 5.3188321489822688e-08 -2.6640508610657887e-08 -0.00025020709295624704 6.9844629063720467e-08 1.9621710108240916e-08 -0.00025025284037350718 1.0921040965903083e-07 1.3356401312679102e-08 -0.00050028524779069958 5.4737276621035145e-08 -1.5673945749579005e-08 -0.0005002654335759635 5.7241954074201849e-08 3.470090854209444e-08 -0.00050027919683690838 6.9844629063720467e-08 1.9621710108240916e-08 -0.00025025284037350718 1.0921040965903083e-07 1.3356401312679102e-08 -0.00050028524779069958 5.3188321489822688e-08 -2.6640508610657887e-08 -0.00025020709295624704 6.9844629063720467e-08 1.9621710108240916e-08 -0.00025025284037350718 1.2750695346504739e-07 -4.9475010094974265e-08 -0.00025026417053939943 1.0921040965903083e-07 1.3356401312679128e-08 -0.00050028524779069969 5.7241954074201849e-08 3.470090854209444e-08 -0.00050027919683690838 6.9844629063720467e-08 1.9621710108240916e-08 -0.00025025284037350718 4.4874074251181922e-08 1.0090077806735122e-07 -0.00050028898436074341 8.7875855626196465e-08 6.6375448493001254e-08 -0.00050028591710472533 6.9844629063720467e-08 1.9621710108240916e-08 -0.00025025284037350718 8.7875855626196439e-08 6.6375448493001267e-08 -0.00050028591710472544 1.2750695346504739e-07 -4.9475010094974265e-08 -0.00025026417053939943 1.0921040965903085e-07 1.3356401312679117e-08 -0.00050028524779069958 6.9844629063720467e-08 1.9621710108240916e-08 -0.00025025284037350718 1.3376079413421546e-07 1.9290610689962842e-08 -0.00025025890794052474 8.7875855626196465e-08 6.6375448493001254e-08 -0.00050028591710472533 1.2750695346504739e-07 -4.9475010094974265e-08 -0.00025026417053939943 5.7241954074201849e-08 3.470090854209444e-08 -0.00050027919683690838 6.9844629063720467e-08 1.9621710108240916e-08 -0.00025025284037350718 8.7875855626196465e-08 6.6375448493001254e-08 -0.00050028591710472533 1.0921040965903083e-07 1.3356401312679102e-08 -0.00050028524779069958 5.7241954074201849e-08 3.470090854209444e-08 -0.00050027919683690838 8.7875855626196465e-08 6.6375448493001254e-08 -0.00050028591710472533 1.0921040965903083e-07 1.3356401312679102e-08 -0.00050028524779069958 9.7721812407617969e-08 5.4127626082319896e-08 -0.00075031983973412625 5.4737276621035145e-08 -1.5673945749579005e-08 -0.0005002654335759635 1.0921040965903083e-07 1.3356401312679102e-08 -0.00050028524779069958 1.0145959862879338e-07 -4.2922709364776555e-08 -0.00050027046109071057 1.1165218109767298e-07 -1.8627327780469577e-09 -0.00075031950527053423 5.4737276621035145e-08 -1.5673945749579005e-08 -0.0005002654335759635 5.7241954074201849e-08 3.470090854209444e-08 -0.00050027919683690838 1.0921040965903083e-07 1.3356401312679102e-08 -0.00050028524779069958 1.1165218109767299e-07 -1.8627327780469565e-09 -0.00075031950527053423 5.1802801759959023e-08 -5.3004863118457336e-08 -0.0005002608937728978 5.4737276621035145e-08 -1.5673945749579005e-08 -0.0005002654335759635 1.0145959862879338e-07 -4.2922709364776555e-08 -0.00050027046109071057 9.5722622060014529e-08 -5.7482387421909664e-08 -0.00075031383498270869 5.1802801759959023e-08 -5.3004863118457336e-08 -0.0005002608937728978 1.0145959862879338e-07 -4.2922709364776555e-08 -0.00050027046109071057 6.6414614440181971e-08 -8.7902407797968269e-08 -0.00050026153138336938 9.5722622060014529e-08 -5.7482387421909664e-08 -0.00075031383498270869 3.6402772466569906e-08 -7.0369558519381028e-08 -0.00025020017925156429 5.3188321489822688e-08 -2.6640508610657887e-08 -0.00025020709295624704 8.4813312445865888e-08 -1.0695123567922903e-07 -0.0002502296274009936 1.0145959862879338e-07 -4.2922709364776555e-08 -0.00050027046109071057 3.6402772466569906e-08 -7.0369558519381028e-08 -0.00025020017925156429 5.1802801759959023e-08 -5.3004863118457336e-08 -0.0005002608937728978 5.4737276621035145e-08 -1.5673945749579005e-08 -0.0005002654335759635 1.0145959862879338e-07 -4.2922709364776555e-08 -0.00050027046109071057 5.3188321489822688e-08 -2.6640508610657887e-08 -0.00025020709295624704 8.4813312445865888e-08 -1.0695123567922903e-07 -0.0002502296274009936 1.0921040965903085e-07 1.335640131267912e-08 -0.00050028524779069969 1.0145959862879338e-07 -4.2922709364776555e-08 -0.00050027046109071057 3.6402772466569906e-08 -7.0369558519381028e-08 -0.00025020017925156429 5.4737276621035145e-08 -1.5673945749579005e-08 -0.0005002654335759635 5.3188321489822688e-08 -2.6640508610657887e-08 -0.00025020709295624704 1.0145959862879338e-07 -4.2922709364776555e-08 -0.00050027046109071057 3.6402772466569906e-08 -7.0369558519381028e-08 -0.00025020017925156429 5.1802801759959023e-08 -5.3004863118457336e-08 -0.0005002608937728978 1.0145959862879338e-07 -4.2922709364776555e-08 -0.00050027046109071057 6.6414614440181971e-08 -8.7902407797968269e-08 -0.00050026153138336938 3.6402772466569906e-08 -7.0369558519381028e-08 -0.00025020017925156429 1.9422468036242059e-08 -1.3541302400602122e-07 -0.00025020915248868324 8.4813312445865888e-08 -1.0695123567922903e-07 -0.0002502296274009936 1.0145959862879338e-07 -4.2922709364776555e-08 -0.00050027046109071057 3.6402772466569906e-08 -7.0369558519381028e-08 -0.00025020017925156429 1.9422468036242059e-08 -1.3541302400602122e-07 -0.00025020915248868324 1.0145959862879338e-07 -4.2922709364776555e-08 -0.00050027046109071057 6.6414614440181971e-08 -8.7902407797968269e-08 -0.00050026153138336938 5.1802801759959023e-08 -5.3004863118457336e-08 -0.0005002608937728978 6.6414614440181971e-08 -8.7902407797968269e-08 -0.00050026153138336938 5.4066157111850684e-08 -9.770482760585606e-08 -0.00075030990449400248 9.5722622060014529e-08 -5.7482387421909664e-08 -0.00075031383498270869 5.4066157111850684e-08 -9.770482760585606e-08 -0.00075030990449400248 9.6694520770485163e-08 -5.5718859821485966e-08 -0.0010003578109917745 5.589580082263173e-08 -9.6586477639070356e-08 -0.001000355901854113 4.9134885335954333e-08 -5.6863573852026357e-08 -0.00075031049795767858 9.6694520770485176e-08 -5.5718859821485973e-08 -0.0010003578109917745 5.3545427876262705e-08 -2.0497237570887247e-08 -0.0010003576553828596 5.3656130295588964e-08 -1.9715294864524696e-08 -0.00075031257800920262 4.9134885335954333e-08 -5.6863573852026357e-08 -0.00075031049795767858 9.5722622060014529e-08 -5.7482387421909664e-08 -0.00075031383498270869 9.6694520770485176e-08 -5.5718859821485973e-08 -0.0010003578109917745 5.3656130295588958e-08 -1.97152948645247e-08 -0.00075031257800920262 4.9134885335954333e-08 -5.6863573852026357e-08 -0.00075031049795767858 9.5722622060014529e-08 -5.7482387421909664e-08 -0.00075031383498270869 1.1159802597890994e-07 1.0376326728813231e-10 -0.0010003603404922113 9.6694520770485176e-08 -5.5718859821485973e-08 -0.0010003578109917745 5.3656130295588964e-08 -1.9715294864524696e-08 -0.00075031257800920262 5.4066157111850684e-08 -9.770482760585606e-08 -0.00075030990449400248 9.5722622060014529e-08 -5.7482387421909664e-08 -0.00075031383498270869 9.6694520770485176e-08 -5.5718859821485973e-08 -0.0010003578109917745 4.9134885335954333e-08 -5.6863573852026357e-08 -0.00075031049795767858 5.1802801759959023e-08 -5.3004863118457336e-08 -0.0005002608937728978 5.4066157111850684e-08 -9.770482760585606e-08 -0.00075030990449400248 9.5722622060014529e-08 -5.7482387421909664e-08 -0.00075031383498270869 4.9134885335954333e-08 -5.6863573852026357e-08 -0.00075031049795767858 5.1802801759959023e-08 -5.3004863118457336e-08 -0.0005002608937728978 9.5722622060014529e-08 -5.7482387421909664e-08 -0.00075031383498270869 5.3656130295588964e-08 -1.9715294864524696e-08 -0.00075031257800920262 4.9134885335954333e-08 -5.6863573852026357e-08 -0.00075031049795767858 5.4737276621035145e-08 -1.5673945749579005e-08 -0.0005002654335759635 1.0145959862879338e-07 -4.2922709364776555e-08 -0.00050027046109071057 9.5722622060014542e-08 -5.7482387421909645e-08 -0.00075031383498270858 1.1165218109767299e-07 -1.8627327780469449e-09 -0.00075031950527053423 5.1802801759959023e-08 -5.3004863118457336e-08 -0.0005002608937728978 5.4737276621035145e-08 -1.5673945749579005e-08 -0.0005002654335759635 9.5722622060014529e-08 -5.7482387421909664e-08 -0.00075031383498270869 5.3656130295588964e-08 -1.9715294864524696e-08 -0.00075031257800920262 5.4737276621035145e-08 -1.5673945749579005e-08 -0.0005002654335759635 5.7241954074201849e-08 3.470090854209444e-08 -0.00050027919683690838 1.11652181097673e-07 -1.8627327780469519e-09 -0.00075031950527053412 5.3656130295588964e-08 -1.9715294864524696e-08 -0.00075031257800920262 5.4737276621035145e-08 -1.5673945749579005e-08 -0.0005002654335759635 9.5722622060014556e-08 -5.7482387421909664e-08 -0.00075031383498270869 1.11652181097673e-07 -1.8627327780469433e-09 -0.00075031950527053412 5.3656130295588964e-08 -1.9715294864524696e-08 -0.00075031257800920262 5.7241954074201849e-08 3.470090854209444e-08 -0.00050027919683690838 1.1165218109767298e-07 -1.8627327780469507e-09 -0.00075031950527053412 5.6586038036544469e-08 3.2003142125931251e-08 -0.00075031756059762086 5.3656130295588964e-08 -1.9715294864524696e-08 -0.00075031257800920262 5.7241954074201849e-08 3.470090854209444e-08 -0.00050027919683690838 1.0921040965903083e-07 1.3356401312679102e-08 -0.00050028524779069958 1.1165218109767299e-07 -1.86273277804693e-09 -0.00075031950527053412 9.7721812407617969e-08 5.412762608231987e-08 -0.00075031983973412636 5.7241954074201849e-08 3.470090854209444e-08 -0.00050027919683690838 1.1165218109767299e-07 -1.8627327780469321e-09 -0.00075031950527053412 9.7721812407617982e-08 5.4127626082319883e-08 -0.00075031983973412625 5.6586038036544469e-08 3.2003142125931251e-08 -0.00075031756059762086 5.7241954074201849e-08 3.470090854209444e-08 -0.00050027919683690838 9.7721812407617956e-08 5.4127626082319909e-08 -0.00075031983973412614 5.7202649989338377e-08 9.5787935008964096e-08 -0.00075032104893709231 5.6586038036544469e-08 3.2003142125931251e-08 -0.00075031756059762086 1.1165218109767298e-07 -1.8627327780469507e-09 -0.00075031950527053412 1.1159802597890994e-07 1.0376326728813231e-10 -0.0010003603404922113 9.6572430866852682e-08 5.5888028292397943e-08 -0.0010003606777332676 5.6586038036544469e-08 3.2003142125931251e-08 -0.00075031756059762086 1.1165218109767298e-07 -1.8627327780469507e-09 -0.00075031950527053412 9.7721812407617969e-08 5.4127626082319896e-08 -0.00075031983973412625 9.6572430866852682e-08 5.5888028292397943e-08 -0.0010003606777332676 5.6586038036544469e-08 3.2003142125931251e-08 -0.00075031756059762086 1.1165218109767298e-07 -1.8627327780469507e-09 -0.00075031950527053412 1.1159802597890994e-07 1.0376326728813231e-10 -0.0010003603404922113 5.6586038036544469e-08 3.2003142125931251e-08 -0.00075031756059762086 5.3656130295588964e-08 -1.9715294864524696e-08 -0.00075031257800920262 1.1159802597890994e-07 1.0376326728813231e-10 -0.0010003603404922113 5.3545427876262712e-08 -2.0497237570887247e-08 -0.0010003576553828596 5.6586038036544469e-08 3.2003142125931251e-08 -0.00075031756059762086 5.3656130295588971e-08 -1.9715294864524733e-08 -0.00075031257800920251 9.5722622060014529e-08 -5.7482387421909664e-08 -0.00075031383498270869 1.1165218109767298e-07 -1.8627327780469507e-09 -0.00075031950527053412 1.1159802597890994e-07 1.0376326728813231e-10 -0.0010003603404922113 5.3656130295588964e-08 -1.9715294864524696e-08 -0.00075031257800920262 1.1159802597890994e-07 1.0376326728813231e-10 -0.0010003603404922113 5.5593659622806817e-08 3.1821899503464224e-08 -0.0010003598244413834 5.3545427876262712e-08 -2.0497237570887247e-08 -0.0010003576553828596 5.6586038036544469e-08 3.2003142125931251e-08 -0.00075031756059762086 1.1159802597890994e-07 1.0376326728813231e-10 -0.0010003603404922113 1.1151856621304998e-07 6.6307437452600728e-11 -0.0012504039583780345 5.5593659622806817e-08 3.1821899503464224e-08 -0.0010003598244413834 5.3545427876262712e-08 -2.0497237570887247e-08 -0.0010003576553828596 1.1159802597890994e-07 1.0376326728813231e-10 -0.0010003603404922113 1.1151856621304998e-07 6.6307437452600728e-11 -0.0012504039583780345 9.6694520770485176e-08 -5.5718859821485973e-08 -0.0010003578109917745 5.3545427876262712e-08 -2.0497237570887247e-08 -0.0010003576553828596 1.1159802597890994e-07 1.0376326728813231e-10 -0.0010003603404922113 9.6694520770485176e-08 -5.5718859821485973e-08 -0.0010003578109917745 5.3545427876262712e-08 -2.0497237570887247e-08 -0.0010003576553828596 5.3656130295588971e-08 -1.97152948645247e-08 -0.00075031257800920251 1.1159802597890994e-07 1.0376326728813231e-10 -0.0010003603404922113 9.6572430866852682e-08 5.5888028292397943e-08 -0.0010003606777332676 9.6556643251472062e-08 5.5806090272010773e-08 -0.0012504043219663391 5.5593659622806817e-08 3.1821899503464224e-08 -0.0010003598244413834 1.1159802597890994e-07 1.0376326728813231e-10 -0.0010003603404922113 9.6572430866852682e-08 5.5888028292397943e-08 -0.0010003606777332676 5.5593659622806817e-08 3.1821899503464224e-08 -0.0010003598244413834 5.6586038036544469e-08 3.2003142125931251e-08 -0.00075031756059762086 9.6572430866852682e-08 5.5888028292397943e-08 -0.0010003606777332676 5.575346236052557e-08 9.6682970756557073e-08 -0.0010003610582726369 5.5593659622806817e-08 3.1821899503464224e-08 -0.0010003598244413834 5.6586038036544469e-08 3.2003142125931251e-08 -0.00075031756059762086 9.6556643251472062e-08 5.5806090272010773e-08 -0.0012504043219663391 5.5730752761788708e-08 9.6594808938190412e-08 -0.0012504044217545973 5.5733286979759687e-08 3.2028113089595605e-08 -0.0012504037043202798 5.5593659622806817e-08 3.1821899503464224e-08 -0.0010003598244413834 1.1159802597890994e-07 1.0376326728813231e-10 -0.0010003603404922113 1.1151856621304998e-07 6.6307437452600728e-11 -0.0012504039583780345 9.6556643251472062e-08 5.5806090272010773e-08 -0.0012504043219663391 5.5593659622806817e-08 3.1821899503464224e-08 -0.0010003598244413834 1.1151856621304998e-07 6.6307437452600728e-11 -0.0012504039583780345 9.6556643251472062e-08 5.5806090272010773e-08 -0.0012504043219663391 5.5733286979759687e-08 3.2028113089595605e-08 -0.0012504037043202798 5.5593659622806817e-08 3.1821899503464224e-08 -0.0010003598244413834 1.1151856621304998e-07 6.6307437452600728e-11 -0.0012504039583780345 9.6614256472385837e-08 -5.5696110112428212e-08 -0.0012504023050779523 5.3722393311089015e-08 -2.0305505445664725e-08 -0.0012504022230280386 5.3545427876262719e-08 -2.049723757088725e-08 -0.0010003576553828594 1.1151856621304998e-07 6.6307437452600728e-11 -0.0012504039583780345 5.3722393311089015e-08 -2.0305505445664725e-08 -0.0012504022230280386 5.5733286979759687e-08 3.2028113089595605e-08 -0.0012504037043202798 5.5593659622806817e-08 3.1821899503464224e-08 -0.0010003598244413834 1.1151856621304998e-07 6.6307437452600728e-11 -0.0012504039583780345 5.3722393311089015e-08 -2.0305505445664725e-08 -0.0012504022230280386 5.5593659622806817e-08 3.1821899503464224e-08 -0.0010003598244413834 5.3545427876262719e-08 -2.0497237570887284e-08 -0.0010003576553828594 9.6614256472385837e-08 -5.5696110112428212e-08 -0.0012504023050779523 5.5804037502134138e-08 -9.6552595102930998e-08 -0.0012504009367234063 4.9516855796403865e-08 -5.7027694704955546e-08 -0.00100035643777546 4.9741372049663065e-08 -5.6809375081919713e-08 -0.0012504013661131196 9.6614256472385837e-08 -5.5696110112428212e-08 -0.0012504023050779523 5.3722393311089009e-08 -2.0305505445664729e-08 -0.0012504022230280384 4.9516855796403852e-08 -5.7027694704955546e-08 -0.00100035643777546 4.9741372049663065e-08 -5.6809375081919713e-08 -0.0012504013661131196 9.6614256472385837e-08 -5.5696110112428212e-08 -0.0012504023050779523 5.3722393311089009e-08 -2.0305505445664725e-08 -0.0012504022230280386 5.3545427876262712e-08 -2.0497237570887247e-08 -0.0010003576553828596 4.9516855796403865e-08 -5.7027694704955546e-08 -0.00100035643777546 1.1151856621304998e-07 6.6307437452600728e-11 -0.0012504039583780345 9.6614256472385837e-08 -5.5696110112428212e-08 -0.0012504023050779523 9.6694520770485176e-08 -5.5718859821485973e-08 -0.0010003578109917745 5.3545427876262679e-08 -2.0497237570887237e-08 -0.0010003576553828596 9.6694520770485176e-08 -5.5718859821485973e-08 -0.0010003578109917745 5.589580082263173e-08 -9.6586477639070343e-08 -0.001000355901854113 4.9134885335954333e-08 -5.6863573852026357e-08 -0.00075031049795767858 4.9516855796403865e-08 -5.7027694704955546e-08 -0.00100035643777546 9.6614256472385837e-08 -5.5696110112428212e-08 -0.0012504023050779523 9.6694520770485176e-08 -5.5718859821485973e-08 -0.0010003578109917745 5.3545427876262712e-08 -2.0497237570887247e-08 -0.0010003576553828596 4.9516855796403865e-08 -5.7027694704955546e-08 -0.00100035643777546 9.6694520770485176e-08 -5.5718859821485973e-08 -0.0010003578109917745 5.3545427876262705e-08 -2.049723757088725e-08 -0.0010003576553828594 4.913488533595432e-08 -5.6863573852026357e-08 -0.00075031049795767847 4.9516855796403865e-08 -5.7027694704955546e-08 -0.00100035643777546 9.6614256472385837e-08 -5.5696110112428212e-08 -0.0012504023050779523 9.6694520770485176e-08 -5.5718859821485973e-08 -0.0010003578109917745 5.589580082263173e-08 -9.6586477639070356e-08 -0.001000355901854113 4.9516855796403865e-08 -5.7027694704955546e-08 -0.00100035643777546 9.6614256472385837e-08 -5.5696110112428212e-08 -0.0012504023050779523 5.5895800822631697e-08 -9.658647763907033e-08 -0.001000355901854113 5.5804037502134138e-08 -9.6552595102930998e-08 -0.0012504009367234063 4.9516855796403865e-08 -5.7027694704955546e-08 -0.00100035643777546 5.7241954074201849e-08 3.470090854209444e-08 -0.00050027919683690838 8.7875855626196465e-08 6.6375448493001254e-08 -0.00050028591710472533 9.7721812407617969e-08 5.4127626082319896e-08 -0.00075031983973412625 5.7202649989338377e-08 9.5787935008964096e-08 -0.00075032104893709231 9.7721812407617969e-08 5.4127626082319896e-08 -0.00075031983973412625 5.575346236052557e-08 9.6682970756557073e-08 -0.0010003610582726369 5.7202649989338377e-08 9.5787935008964096e-08 -0.00075032104893709231 5.6586038036544469e-08 3.2003142125931251e-08 -0.00075031756059762086 9.7721812407617969e-08 5.4127626082319896e-08 -0.00075031983973412625 9.6572430866852682e-08 5.5888028292397943e-08 -0.0010003606777332676 5.575346236052557e-08 9.6682970756557073e-08 -0.0010003610582726369 5.6586038036544469e-08 3.2003142125931251e-08 -0.00075031756059762086 9.6572430866852682e-08 5.5888028292397943e-08 -0.0010003606777332676 5.5730752761788708e-08 9.6594808938190412e-08 -0.0012504044217545973 5.575346236052557e-08 9.6682970756557073e-08 -0.0010003610582726369 5.5593659622806817e-08 3.1821899503464224e-08 -0.0010003598244413834 9.6572430866852682e-08 5.5888028292397943e-08 -0.0010003606777332676 9.6556643251472062e-08 5.5806090272010773e-08 -0.0012504043219663391 5.5730752761788708e-08 9.6594808938190412e-08 -0.0012504044217545973 5.5593659622806817e-08 3.1821899503464224e-08 -0.0010003598244413834 5.5730752761788708e-08 9.6594808938190412e-08 -0.0012504044217545973 -1.5785983463622851e-11 1.1151515548669937e-07 -0.0012504027549516167 9.2472994188394085e-09 5.7058125121400994e-08 -0.0012504026963549831 9.2253934129017589e-09 5.6953250589967878e-08 -0.0010003584601676056 5.5730752761788708e-08 9.6594808938190412e-08 -0.0012504044217545973 9.2472994188394085e-09 5.7058125121400994e-08 -0.0012504026963549829 9.2253934129017407e-09 5.6953250589967911e-08 -0.0010003584601676059 5.5593659622806817e-08 3.1821899503464224e-08 -0.0010003598244413834 5.5730752761788708e-08 9.6594808938190412e-08 -0.0012504044217545973 -1.5785983463622851e-11 1.1151515548669937e-07 -0.0012504027549516167 9.2253934129017556e-09 5.6953250589967852e-08 -0.0010003584601676061 5.575346236052557e-08 9.6682970756557073e-08 -0.0010003610582726369 -1.5785983463622851e-11 1.1151515548669937e-07 -0.0012504027549516167 -2.4309672175174287e-08 7.1339981976172887e-08 -0.0010003574788015343 -8.3243516877326074e-11 1.11595716009713e-07 -0.0010003584658326305 -5.5772327068258408e-08 9.6569168326070108e-08 -0.001250401706235586 -1.5785983463622851e-11 1.1151515548669937e-07 -0.0012504027549516167 -2.4215321980066779e-08 7.1432366602584921e-08 -0.0012504020744704557 9.2472994188394085e-09 5.7058125121400994e-08 -0.0012504026963549831 -2.4309672175174287e-08 7.1339981976172887e-08 -0.0010003574788015343 -1.5785983463622851e-11 1.1151515548669937e-07 -0.0012504027549516167 -2.4215321980066779e-08 7.1432366602584921e-08 -0.0012504020744704557 -2.4309672175174287e-08 7.1339981976172887e-08 -0.0010003574788015343 -5.5772327068258408e-08 9.6569168326070108e-08 -0.001250401706235586 -1.5785983463622851e-11 1.1151515548669937e-07 -0.0012504027549516167 9.2472994188394085e-09 5.7058125121400994e-08 -0.0012504026963549831 -2.4309672175174287e-08 7.1339981976172887e-08 -0.0010003574788015343 9.2253934129017606e-09 5.6953250589967878e-08 -0.0010003584601676059 -2.4215321980066779e-08 7.1432366602584921e-08 -0.0012504020744704557 9.2472994188394085e-09 5.7058125121400994e-08 -0.0012504026963549831 -2.4309672175174287e-08 7.1339981976172887e-08 -0.0010003574788015343 -1.9836406131668026e-08 3.5891151207900854e-08 -0.0012504018085565695 -1.5785983463622851e-11 1.1151515548669937e-07 -0.0012504027549516167 -2.4309672175174287e-08 7.1339981976172887e-08 -0.0010003574788015343 9.2253934129017606e-09 5.6953250589967878e-08 -0.0010003584601676059 -8.3243516877326074e-11 1.11595716009713e-07 -0.0010003584658326305 -1.5785983463622851e-11 1.1151515548669937e-07 -0.0012504027549516167 9.2253934129017771e-09 5.6953250589967885e-08 -0.0010003584601676056 -8.3243516877326074e-11 1.11595716009713e-07 -0.0010003584658326305 5.575346236052555e-08 9.6682970756557073e-08 -0.0010003610582726369 5.5730752761788708e-08 9.6594808938190412e-08 -0.0012504044217545973 9.2253934129017192e-09 5.6953250589967885e-08 -0.0010003584601676059 5.575346236052557e-08 9.6682970756557073e-08 -0.0010003610582726369 5.5593659622806817e-08 3.1821899503464224e-08 -0.0010003598244413834 9.2253934129017606e-09 5.6953250589967878e-08 -0.0010003584601676059 5.575346236052557e-08 9.6682970756557073e-08 -0.0010003610582726369 1.0862878472569955e-08 5.7021338362302091e-08 -0.00075031437062986607 5.6586038036544456e-08 3.2003142125931258e-08 -0.00075031756059762086 5.575346236052557e-08 9.6682970756557073e-08 -0.0010003610582726369 1.0862878472569915e-08 5.7021338362302097e-08 -0.00075031437062986607 5.7202649989338377e-08 9.5787935008964096e-08 -0.00075032104893709231 5.6586038036544469e-08 3.2003142125931251e-08 -0.00075031756059762086 -8.3243516877326074e-11 1.11595716009713e-07 -0.0010003584658326305 5.575346236052557e-08 9.6682970756557073e-08 -0.0010003610582726369 1.0862878472569955e-08 5.7021338362302091e-08 -0.00075031437062986607 5.720264998933837e-08 9.5787935008964083e-08 -0.00075032104893709242 -8.3243516877326074e-11 1.11595716009713e-07 -0.0010003584658326305 1.0862878472569972e-08 5.7021338362302097e-08 -0.00075031437062986607 5.7202649989338357e-08 9.5787935008964096e-08 -0.00075032104893709231 1.9984972733869093e-09 1.1164709801115407e-07 -0.0007503151084822915 9.2253934129017606e-09 5.6953250589967878e-08 -0.0010003584601676059 -8.324351687732239e-11 1.1159571600971301e-07 -0.0010003584658326305 5.575346236052557e-08 9.6682970756557073e-08 -0.0010003610582726369 1.0862878472569955e-08 5.7021338362302091e-08 -0.00075031437062986607 -2.4309672175174287e-08 7.1339981976172887e-08 -0.0010003574788015343 9.2253934129017606e-09 5.6953250589967878e-08 -0.0010003584601676059 -2.3145552391773388e-08 7.1583044536193098e-08 -0.00075031229235508041 -2.0014519177123397e-08 3.5777285633424067e-08 -0.0010003570711503069 -2.4309672175174287e-08 7.1339981976172887e-08 -0.0010003574788015343 9.2253934129017606e-09 5.6953250589967878e-08 -0.0010003584601676059 -8.3243516877326074e-11 1.11595716009713e-07 -0.0010003584658326305 -2.3145552391773388e-08 7.1583044536193098e-08 -0.00075031229235508041 -8.3243516877326074e-11 1.11595716009713e-07 -0.0010003584658326305 -2.3145552391773388e-08 7.1583044536193098e-08 -0.00075031229235508041 1.0862878472569955e-08 5.7021338362302091e-08 -0.00075031437062986607 1.9984972733869093e-09 1.1164709801115407e-07 -0.0007503151084822915 9.2253934129017606e-09 5.6953250589967878e-08 -0.0010003584601676059 -8.3243516877326074e-11 1.11595716009713e-07 -0.0010003584658326305 -2.3145552391773388e-08 7.1583044536193098e-08 -0.00075031229235508041 1.0862878472569955e-08 5.7021338362302091e-08 -0.00075031437062986607 -2.4309672175174287e-08 7.1339981976172887e-08 -0.0010003574788015343 -8.3243516877326074e-11 1.11595716009713e-07 -0.0010003584658326305 -2.3145552391773388e-08 7.1583044536193098e-08 -0.00075031229235508041 -5.587752370684461e-08 9.6597808249789507e-08 -0.0010003568776522967 -2.5385489648611243e-08 6.9256565868496146e-08 -0.00050026405332457527 -2.3145552391773388e-08 7.1583044536193098e-08 -0.00075031229235508041 1.0862878472569955e-08 5.7021338362302091e-08 -0.00075031437062986607 1.9984972733869093e-09 1.1164709801115407e-07 -0.0007503151084822915 -2.5385489648611243e-08 6.9256565868496146e-08 -0.00050026405332457527 -2.3145552391773388e-08 7.1583044536193098e-08 -0.00075031229235508041 1.9984972733868903e-09 1.1164709801115408e-07 -0.0007503151084822915 -5.4060112134516659e-08 9.7711289080357615e-08 -0.00075031145926141593 1.2953987594393263e-08 5.6980037399442877e-08 -0.00050026935424992759 -2.5385489648611243e-08 6.9256565868496146e-08 -0.00050026405332457527 1.0862878472569955e-08 5.7021338362302091e-08 -0.00075031437062986607 1.9984972733869093e-09 1.1164709801115407e-07 -0.0007503151084822915 -2.5385489648611243e-08 6.9256565868496146e-08 -0.00050026405332457527 -2.3145552391773388e-08 7.1583044536193098e-08 -0.00075031229235508041 1.0862878472569955e-08 5.7021338362302091e-08 -0.00075031437062986607 -1.9287126487585589e-08 3.6134909971063498e-08 -0.00075031146659318166 4.4874074251181922e-08 1.0090077806735122e-07 -0.00050028898436074341 1.2953987594393255e-08 5.6980037399442884e-08 -0.00050026935424992759 5.7202649989338377e-08 9.5787935008964096e-08 -0.00075032104893709231 1.9984972733869242e-09 1.1164709801115404e-07 -0.0007503151084822915 1.2953987594393263e-08 5.6980037399442877e-08 -0.00050026935424992759 1.0862878472569955e-08 5.7021338362302091e-08 -0.00075031437062986607 5.720264998933841e-08 9.5787935008964123e-08 -0.00075032104893709242 1.9984972733869093e-09 1.1164709801115407e-07 -0.0007503151084822915 5.7241954074201849e-08 3.470090854209444e-08 -0.00050027919683690838 1.295398759439326e-08 5.6980037399442877e-08 -0.00050026935424992759 1.0862878472569955e-08 5.7021338362302091e-08 -0.00075031437062986607 5.720264998933839e-08 9.578793500896411e-08 -0.00075032104893709231 -1.3461098486872722e-08 1.092696503936496e-07 -0.00050027381745660281 -2.5385489648611243e-08 6.9256565868496146e-08 -0.00050026405332457527 1.9984972733869093e-09 1.1164709801115407e-07 -0.0007503151084822915 -5.4060112134516672e-08 9.7711289080357602e-08 -0.00075031145926141593 -8.3243516877326074e-11 1.11595716009713e-07 -0.0010003584658326305 -2.3145552391773388e-08 7.1583044536193098e-08 -0.00075031229235508041 1.9984972733869093e-09 1.1164709801115407e-07 -0.0007503151084822915 -5.587752370684461e-08 9.6597808249789507e-08 -0.0010003568776522967 -5.1287601991033966e-08 5.0047131812441032e-08 -0.00050026321427565248 -2.3145552391773388e-08 7.1583044536193098e-08 -0.00075031229235508041 -5.4060112134516672e-08 9.7711289080357602e-08 -0.00075031145926141593 -4.8829604526033309e-08 5.3216627910407168e-08 -0.00075031150051722611 -5.1287601991033966e-08 5.0047131812441032e-08 -0.00050026321427565248 -2.5385489648611243e-08 6.9256565868496146e-08 -0.00050026405332457516 -2.3145552391773388e-08 7.1583044536193098e-08 -0.00075031229235508041 -1.9287126487585589e-08 3.6134909971063498e-08 -0.00075031146659318166 -5.1287601991033966e-08 5.0047131812441032e-08 -0.00050026321427565248 -2.5385489648611243e-08 6.9256565868496146e-08 -0.00050026405332457527 -2.3145552391773388e-08 7.1583044536193098e-08 -0.00075031229235508041 -5.4060112134516672e-08 9.7711289080357602e-08 -0.00075031145926141593 -5.1287601991033966e-08 5.0047131812441032e-08 -0.00050026321427565248 -6.6332645902921305e-08 8.7942167428312948e-08 -0.00050026448487118025 -5.4060112134516659e-08 9.7711289080357602e-08 -0.00075031145926141593 -9.5736576528642609e-08 5.7463181003121096e-08 -0.00075031361391002889 -5.1287601991033966e-08 5.0047131812441032e-08 -0.00050026321427565248 -5.4060112134516652e-08 9.7711289080357589e-08 -0.00075031145926141582 -4.8829604526033315e-08 5.3216627910407168e-08 -0.00075031150051722611 -9.5736576528642596e-08 5.7463181003121083e-08 -0.000750313613910029 -2.4309672175174287e-08 7.1339981976172887e-08 -0.0010003574788015343 -2.3145552391773388e-08 7.1583044536193098e-08 -0.00075031229235508041 -2.0014519177123397e-08 3.5777285633424067e-08 -0.0010003570711503069 -4.8829604526033309e-08 5.3216627910407168e-08 -0.00075031150051722611 -2.3145552391773388e-08 7.1583044536193098e-08 -0.00075031229235508041 -5.4060112134516672e-08 9.7711289080357602e-08 -0.00075031145926141593 -5.587752370684461e-08 9.6597808249789507e-08 -0.0010003568776522967 -4.8829604526033309e-08 5.3216627910407168e-08 -0.00075031150051722611 -2.3145552391773388e-08 7.1583044536193098e-08 -0.00075031229235508041 1.9984972733869093e-09 1.1164709801115407e-07 -0.0007503151084822915 -5.4060112134516672e-08 9.7711289080357602e-08 -0.00075031145926141593 -5.587752370684461e-08 9.6597808249789507e-08 -0.0010003568776522967 -2.4309672175174287e-08 7.1339981976172887e-08 -0.0010003574788015343 -5.587752370684461e-08 9.6597808249789507e-08 -0.0010003568776522967 -4.9444916136429986e-08 5.2938671980723247e-08 -0.0010003569140837692 -4.8829604526033309e-08 5.3216627910407168e-08 -0.00075031150051722611 -2.4309672175174287e-08 7.1339981976172887e-08 -0.0010003574788015343 -2.3145552391773388e-08 7.1583044536193098e-08 -0.00075031229235508041 -5.587752370684461e-08 9.6597808249789507e-08 -0.0010003568776522967 -4.8829604526033309e-08 5.3216627910407168e-08 -0.00075031150051722611 -5.4060112134516672e-08 9.7711289080357602e-08 -0.00075031145926141593 -5.587752370684461e-08 9.6597808249789507e-08 -0.0010003568776522967 -9.6687343986806272e-08 5.5731246162019784e-08 -0.0010003573039025731 -4.8829604526033309e-08 5.3216627910407168e-08 -0.00075031150051722611 -5.587752370684461e-08 9.6597808249789507e-08 -0.0010003568776522967 -9.6687343986806272e-08 5.5731246162019784e-08 -0.0010003573039025731 -4.9444916136429986e-08 5.2938671980723247e-08 -0.0010003569140837692 -4.8829604526033309e-08 5.3216627910407168e-08 -0.00075031150051722611 -5.4060112134516672e-08 9.7711289080357602e-08 -0.00075031145926141593 -9.6687343986806272e-08 5.5731246162019784e-08 -0.0010003573039025731 -4.8829604526033309e-08 5.3216627910407168e-08 -0.00075031150051722611 -9.5736576528642596e-08 5.7463181003121103e-08 -0.000750313613910029 -5.587752370684461e-08 9.6597808249789507e-08 -0.0010003568776522967 -9.6590565438372391e-08 5.5732516400269097e-08 -0.0012504017282863554 -9.6687343986806272e-08 5.5731246162019784e-08 -0.0010003573039025731 -4.9444916136429986e-08 5.2938671980723247e-08 -0.0010003569140837692 -2.4309672175174287e-08 7.1339981976172887e-08 -0.0010003574788015343 -5.587752370684461e-08 9.6597808249789507e-08 -0.0010003568776522967 -5.5772327068258408e-08 9.6569168326070108e-08 -0.001250401706235586 -4.9444916136429986e-08 5.2938671980723247e-08 -0.0010003569140837692 -2.4309672175174287e-08 7.1339981976172887e-08 -0.0010003574788015343 -8.3243516877326074e-11 1.11595716009713e-07 -0.0010003584658326305 -5.587752370684461e-08 9.6597808249789507e-08 -0.0010003568776522967 -5.5772327068258408e-08 9.6569168326070108e-08 -0.001250401706235586 -5.5772327068258408e-08 9.6569168326070108e-08 -0.001250401706235586 -9.6590565438372391e-08 5.5732516400269097e-08 -0.0012504017282863554 -4.9444916136429986e-08 5.2938671980723254e-08 -0.0010003569140837692 -4.9302724000177996e-08 5.3043096258905783e-08 -0.0012504016652960686 -2.4215321980066779e-08 7.1432366602584921e-08 -0.0012504020744704557 -2.4309672175174287e-08 7.1339981976172887e-08 -0.0010003574788015343 -4.9444916136429979e-08 5.2938671980723247e-08 -0.0010003569140837692 -1.9836406131668026e-08 3.5891151207900854e-08 -0.0012504018085565695 -5.587752370684461e-08 9.6597808249789507e-08 -0.0010003568776522967 -5.5772327068258408e-08 9.6569168326070108e-08 -0.001250401706235586 -9.6590565438372391e-08 5.5732516400269097e-08 -0.0012504017282863554 -4.9444916136429986e-08 5.2938671980723247e-08 -0.0010003569140837692 -2.4215321980066779e-08 7.1432366602584921e-08 -0.0012504020744704557 -2.4309672175174287e-08 7.1339981976172887e-08 -0.0010003574788015343 -5.5772327068258408e-08 9.6569168326070108e-08 -0.001250401706235586 -4.9444916136429986e-08 5.2938671980723247e-08 -0.0010003569140837692 -2.4215321980066779e-08 7.1432366602584921e-08 -0.0012504020744704557 -5.5772327068258408e-08 9.6569168326070108e-08 -0.001250401706235586 -4.9444916136429986e-08 5.293867198072324e-08 -0.0010003569140837692 -4.9302724000177996e-08 5.3043096258905783e-08 -0.0012504016652960686 -9.6590565438372391e-08 5.5732516400269097e-08 -0.0012504017282863554 -1.1151590662872988e-07 -1.8733386335310705e-11 -0.0012504015817700958 -5.0406941276361606e-08 5.4698209229666212e-09 -0.0012504013621595252 -5.0584738416657117e-08 5.2428618847133474e-09 -0.0010003566786153111 -9.6590565438372391e-08 5.5732516400269097e-08 -0.0012504017282863554 -9.6687343986806272e-08 5.5731246162019784e-08 -0.0010003573039025731 -1.1151590662872988e-07 -1.8733386335305826e-11 -0.001250401581770096 -5.0584738416657117e-08 5.2428618847133474e-09 -0.0010003566786153111 -9.6590565438372391e-08 5.5732516400269097e-08 -0.0012504017282863554 -9.6687343986806272e-08 5.5731246162019784e-08 -0.0010003573039025731 -5.0584738416657117e-08 5.2428618847133474e-09 -0.0010003566786153111 -4.9444916136429986e-08 5.2938671980723247e-08 -0.0010003569140837692 -9.6687343986806272e-08 5.5731246162019784e-08 -0.0010003573039025731 -1.1159281550927159e-07 -1.0403387608500009e-10 -0.0010003574466978533 -1.1151590662872988e-07 -1.8733386335310162e-11 -0.0012504015817700958 -5.0584738416657117e-08 5.2428618847133474e-09 -0.0010003566786153111 -1.1159281550927159e-07 -1.0403387608500022e-10 -0.0010003574466978531 -1.1151590662872988e-07 -1.8733386335310162e-11 -0.0012504015817700958 -5.0584738416657117e-08 5.2428618847133474e-09 -0.0010003566786153111 -6.6076906879655819e-08 -4.049515883584487e-08 -0.0010003563514290235 -1.1159281550927159e-07 -1.0403387608500022e-10 -0.0010003574466978531 -1.1151590662872988e-07 -1.8733386335310162e-11 -0.0012504015817700958 -6.6076906879655819e-08 -4.049515883584487e-08 -0.0010003563514290235 -9.6567788577865153e-08 -5.5786404225484727e-08 -0.0012504007484890685 -1.1151590662872988e-07 -1.8733386335310162e-11 -0.0012504015817700958 -5.0406941276361599e-08 5.469820922966627e-09 -0.0012504013621595254 -5.0584738416657117e-08 5.2428618847133474e-09 -0.0010003566786153111 -6.6076906879655819e-08 -4.049515883584487e-08 -0.0010003563514290235 -1.1151590662872988e-07 -1.8733386335310162e-11 -0.0012504015817700958 -5.0406941276361599e-08 5.469820922966627e-09 -0.0012504013621595254 -6.6076906879655819e-08 -4.049515883584487e-08 -0.0010003563514290235 -6.588552800454017e-08 -4.0339068354507545e-08 -0.0012504009903927132 -5.0406941276361599e-08 5.469820922966627e-09 -0.0012504013621595254 -5.0584738416657117e-08 5.2428618847133474e-09 -0.0010003566786153111 -1.528933825011896e-08 -5.5518931207142109e-08 -0.0010003559737335058 -6.6076906879655819e-08 -4.049515883584487e-08 -0.0010003563514290235 -5.0406941276361599e-08 5.469820922966627e-09 -0.0012504013621595254 -5.0584738416657117e-08 5.2428618847133474e-09 -0.0010003566786153111 4.833077937100863e-09 1.3976210440824567e-09 -0.0010003567326883078 -1.528933825011898e-08 -5.5518931207142109e-08 -0.0010003559737335058 -5.0406941276361599e-08 5.469820922966627e-09 -0.0012504013621595254 -5.0584738416657117e-08 5.2428618847133474e-09 -0.0010003566786153111 4.8330779371008655e-09 1.3976210440824573e-09 -0.0010003567326883076 -2.0014519177123397e-08 3.5777285633424067e-08 -0.0010003570711503069 -5.0406941276361599e-08 5.469820922966627e-09 -0.0012504013621595254 -5.0584738416657117e-08 5.2428618847133474e-09 -0.0010003566786153111 -4.9444916136429986e-08 5.2938671980723247e-08 -0.0010003569140837692 -2.0014519177123397e-08 3.5777285633424067e-08 -0.0010003570711503069 -2.4309672175174287e-08 7.1339981976172887e-08 -0.0010003574788015343 -4.9444916136429986e-08 5.2938671980723247e-08 -0.0010003569140837692 -1.9836406131668026e-08 3.5891151207900854e-08 -0.0012504018085565695 -2.0014519177123397e-08 3.5777285633424067e-08 -0.0010003570711503069 -5.0406941276361599e-08 5.469820922966627e-09 -0.0012504013621595254 -4.9444916136429986e-08 5.2938671980723247e-08 -0.0010003569140837692 -1.9836406131668026e-08 3.5891151207900854e-08 -0.0012504018085565695 -2.0014519177123397e-08 3.5777285633424067e-08 -0.0010003570711503069 -2.4215321980066779e-08 7.1432366602584921e-08 -0.0012504020744704557 -4.9444916136429992e-08 5.2938671980723247e-08 -0.0010003569140837692 -4.9302724000177996e-08 5.3043096258905783e-08 -0.0012504016652960686 -1.9836406131668026e-08 3.5891151207900854e-08 -0.0012504018085565695 -9.6590565438372391e-08 5.5732516400269097e-08 -0.0012504017282863554 -5.0406941276361599e-08 5.469820922966627e-09 -0.0012504013621595254 -5.0584738416657117e-08 5.2428618847133474e-09 -0.0010003566786153111 -4.9444916136429986e-08 5.2938671980723247e-08 -0.0010003569140837692 -5.0406941276361599e-08 5.469820922966627e-09 -0.0012504013621595254 -4.9444916136429986e-08 5.2938671980723247e-08 -0.0010003569140837692 -4.9302724000177996e-08 5.3043096258905783e-08 -0.0012504016652960686 -1.9836406131668026e-08 3.5891151207900854e-08 -0.0012504018085565695 -9.6590565438372391e-08 5.5732516400269097e-08 -0.0012504017282863554 -5.0406941276361599e-08 5.469820922966627e-09 -0.0012504013621595254 -4.9444916136429986e-08 5.2938671980723247e-08 -0.0010003569140837692 -4.9302724000177996e-08 5.3043096258905783e-08 -0.0012504016652960686 9.2472994188394085e-09 5.7058125121400994e-08 -0.0012504026963549831 -2.4309672175174287e-08 7.1339981976172887e-08 -0.0010003574788015343 -1.9836406131668026e-08 3.5891151207900854e-08 -0.0012504018085565695 -2.0014519177123397e-08 3.5777285633424067e-08 -0.0010003570711503069 9.2472994188394085e-09 5.7058125121400994e-08 -0.0012504026963549831 -1.9836406131668026e-08 3.5891151207900854e-08 -0.0012504018085565695 5.0726836190017765e-09 1.5897319023470179e-09 -0.0012504015667910229 -2.0014519177123397e-08 3.5777285633424067e-08 -0.0010003570711503069 -5.0406941276361599e-08 5.469820922966627e-09 -0.0012504013621595254 -1.9836406131668026e-08 3.5891151207900854e-08 -0.0012504018085565695 5.0726836190017765e-09 1.5897319023470179e-09 -0.0012504015667910229 -2.0014519177123397e-08 3.5777285633424067e-08 -0.0010003570711503069 9.2472994188394085e-09 5.7058125121400994e-08 -0.0012504026963549831 9.2253934129017606e-09 5.6953250589967878e-08 -0.0010003584601676059 5.0726836190017765e-09 1.5897319023470179e-09 -0.0012504015667910229 -2.0014519177123397e-08 3.5777285633424067e-08 -0.0010003570711503069 -5.0406941276361599e-08 5.469820922966627e-09 -0.0012504013621595254 5.0726836190017765e-09 1.5897319023470179e-09 -0.0012504015667910229 4.8330779371008473e-09 1.3976210440824652e-09 -0.0010003567326883074 -1.4918266964377378e-08 -5.5351690514413126e-08 -0.0012504008041907702 -5.0406941276361599e-08 5.469820922966627e-09 -0.0012504013621595254 5.0726836190017765e-09 1.5897319023470179e-09 -0.0012504015667910229 4.8330779371008473e-09 1.3976210440824381e-09 -0.0010003567326883076 -2.0014519177123397e-08 3.5777285633424067e-08 -0.0010003570711503069 5.0726836190017765e-09 1.5897319023470179e-09 -0.0012504015667910229 4.8330779371008481e-09 1.3976210440824652e-09 -0.0010003567326883076 2.1347430306924358e-08 -3.654964174545143e-08 -0.0010003563330486683 -1.4918266964377378e-08 -5.5351690514413126e-08 -0.0012504008041907702 -5.0406941276361599e-08 5.469820922966627e-09 -0.0012504013621595254 4.8330779371008473e-09 1.3976210440824675e-09 -0.0010003567326883076 -1.5289338250119013e-08 -5.5518931207142103e-08 -0.0010003559737335058 -1.4918266964377378e-08 -5.5351690514413126e-08 -0.0012504008041907702 5.0726836190017765e-09 1.5897319023470179e-09 -0.0012504015667910229 5.3722393311089015e-08 -2.0305505445664725e-08 -0.0012504022230280386 2.1347430306924361e-08 -3.6549641745451437e-08 -0.0010003563330486683 2.1635598361807348e-08 -3.6325625481314104e-08 -0.001250401309791998 5.0726836190017765e-09 1.5897319023470179e-09 -0.0012504015667910229 5.3722393311089015e-08 -2.0305505445664725e-08 -0.0012504022230280386 4.8330779371008481e-09 1.3976210440824652e-09 -0.0010003567326883076 2.1347430306924364e-08 -3.654964174545143e-08 -0.0010003563330486683 5.0726836190017765e-09 1.5897319023470179e-09 -0.0012504015667910229 5.3722393311089015e-08 -2.0305505445664725e-08 -0.0012504022230280386 5.5593659622806817e-08 3.1821899503464224e-08 -0.0010003598244413834 4.8330779371008481e-09 1.3976210440824652e-09 -0.0010003567326883076 5.0726836190017765e-09 1.5897319023470179e-09 -0.0012504015667910229 5.3722393311089015e-08 -2.0305505445664725e-08 -0.0012504022230280386 5.5733286979759687e-08 3.2028113089595605e-08 -0.0012504037043202798 5.5593659622806817e-08 3.1821899503464224e-08 -0.0010003598244413834 5.5730752761788708e-08 9.6594808938190412e-08 -0.0012504044217545973 9.2472994188394135e-09 5.7058125121400988e-08 -0.0012504026963549831 5.5733286979759687e-08 3.2028113089595605e-08 -0.0012504037043202798 5.5593659622806817e-08 3.1821899503464224e-08 -0.0010003598244413834 9.2472994188394085e-09 5.7058125121400994e-08 -0.0012504026963549831 9.2253934129017606e-09 5.6953250589967878e-08 -0.0010003584601676059 5.0726836190017765e-09 1.5897319023470179e-09 -0.0012504015667910229 5.5593659622806798e-08 3.1821899503464224e-08 -0.0010003598244413831 9.2472994188394085e-09 5.7058125121400994e-08 -0.0012504026963549831 5.0726836190017765e-09 1.5897319023470179e-09 -0.0012504015667910229 5.5733286979759687e-08 3.2028113089595605e-08 -0.0012504037043202798 5.5593659622806817e-08 3.1821899503464224e-08 -0.0010003598244413834 9.2253934129017606e-09 5.6953250589967878e-08 -0.0010003584601676059 5.0726836190017765e-09 1.5897319023470179e-09 -0.0012504015667910229 5.5593659622806817e-08 3.1821899503464217e-08 -0.0010003598244413834 4.8330779371008481e-09 1.3976210440824652e-09 -0.0010003567326883076 5.3722393311089015e-08 -2.0305505445664725e-08 -0.0012504022230280386 5.5593659622806837e-08 3.1821899503464224e-08 -0.0010003598244413834 5.3545427876262712e-08 -2.0497237570887247e-08 -0.0010003576553828596 4.8330779371008647e-09 1.3976210440824621e-09 -0.0010003567326883076 5.3722393311089015e-08 -2.0305505445664725e-08 -0.0012504022230280386 5.3545427876262712e-08 -2.0497237570887247e-08 -0.0010003576553828596 4.8330779371008688e-09 1.3976210440824739e-09 -0.0010003567326883076 2.1347430306924374e-08 -3.6549641745451444e-08 -0.0010003563330486683 9.2472994188394085e-09 5.7058125121400994e-08 -0.0012504026963549831 -2.4309672175174287e-08 7.1339981976172887e-08 -0.0010003574788015343 9.2253934129017639e-09 5.6953250589967878e-08 -0.0010003584601676061 -2.0014519177123397e-08 3.5777285633424067e-08 -0.0010003570711503069 9.2253934129017606e-09 5.6953250589967878e-08 -0.0010003584601676059 5.0726836190017683e-09 1.5897319023470185e-09 -0.0012504015667910227 4.8330779371008481e-09 1.3976210440824652e-09 -0.0010003567326883076 -2.0014519177123397e-08 3.5777285633424067e-08 -0.0010003570711503069 9.2253934129017606e-09 5.6953250589967878e-08 -0.0010003584601676059 1.0862878472569955e-08 5.7021338362302091e-08 -0.00075031437062986607 4.8330779371008481e-09 1.3976210440824652e-09 -0.0010003567326883076 -1.9287126487585589e-08 3.6134909971063498e-08 -0.00075031146659318166 1.0862878472569955e-08 5.7021338362302091e-08 -0.00075031437062986607 4.8330779371008398e-09 1.3976210440824658e-09 -0.0010003567326883076 4.8999275747479048e-09 1.8448823223276411e-09 -0.00075031121014270481 -1.9287126487585589e-08 3.6134909971063498e-08 -0.00075031146659318166 9.2253934129017606e-09 5.6953250589967878e-08 -0.0010003584601676059 -2.3145552391773388e-08 7.1583044536193098e-08 -0.00075031229235508041 1.0862878472569958e-08 5.7021338362302091e-08 -0.00075031437062986618 -1.9287126487585589e-08 3.6134909971063498e-08 -0.00075031146659318166 -5.0584738416657117e-08 5.2428618847133474e-09 -0.0010003566786153111 4.8330779371008481e-09 1.3976210440824652e-09 -0.0010003567326883076 -2.0014519177123397e-08 3.5777285633424067e-08 -0.0010003570711503069 -1.9287126487585589e-08 3.6134909971063498e-08 -0.00075031146659318166 9.2253934129017606e-09 5.6953250589967878e-08 -0.0010003584601676059 -2.3145552391773388e-08 7.1583044536193098e-08 -0.00075031229235508041 -2.0014519177123397e-08 3.5777285633424067e-08 -0.0010003570711503069 -1.9287126487585589e-08 3.6134909971063498e-08 -0.00075031146659318166 9.2253934129017606e-09 5.6953250589967878e-08 -0.0010003584601676059 4.8330779371008481e-09 1.3976210440824652e-09 -0.0010003567326883076 -2.0014519177123397e-08 3.5777285633424067e-08 -0.0010003570711503069 -1.9287126487585589e-08 3.6134909971063498e-08 -0.00075031146659318166 4.8330779371008481e-09 1.3976210440824652e-09 -0.0010003567326883076 4.8999275747479048e-09 1.8448823223276411e-09 -0.00075031121014270481 2.0970662505794033e-08 -3.6311582840521057e-08 -0.00075031029128803733 -1.5289338250118993e-08 -5.5518931207142096e-08 -0.0010003559737335058 -5.0584738416657117e-08 5.2428618847133474e-09 -0.0010003566786153111 4.899927574747904e-09 1.8448823223276434e-09 -0.00075031121014270481 -1.6517136819107103e-08 -5.5253836960849718e-08 -0.00075031071835029962 -1.5289338250118993e-08 -5.5518931207142096e-08 -0.0010003559737335058 -5.0584738416657117e-08 5.2428618847133474e-09 -0.0010003566786153111 4.8330779371008481e-09 1.3976210440824652e-09 -0.0010003567326883076 4.899927574747904e-09 1.8448823223276411e-09 -0.0007503112101427047 -1.5289338250118993e-08 -5.5518931207142096e-08 -0.0010003559737335058 -5.0584738416657117e-08 5.2428618847133474e-09 -0.0010003566786153111 4.8330779371008481e-09 1.3976210440824652e-09 -0.0010003567326883076 4.8999275747479032e-09 1.844882322327614e-09 -0.00075031121014270481 -1.9287126487585589e-08 3.6134909971063498e-08 -0.00075031146659318166 5.3545427876262712e-08 -2.0497237570887247e-08 -0.0010003576553828596 4.8330779371008481e-09 1.3976210440824652e-09 -0.0010003567326883076 4.8999275747478883e-09 1.8448823223276124e-09 -0.00075031121014270492 2.0970662505794039e-08 -3.6311582840521057e-08 -0.00075031029128803744 5.3545427876262712e-08 -2.0497237570887247e-08 -0.0010003576553828596 5.3656130295588964e-08 -1.9715294864524696e-08 -0.00075031257800920262 4.8999275747479255e-09 1.84488232232765e-09 -0.00075031121014270481 2.0970662505794049e-08 -3.6311582840521071e-08 -0.00075031029128803744 5.3545427876262712e-08 -2.0497237570887247e-08 -0.0010003576553828596 4.8330779371008481e-09 1.3976210440824652e-09 -0.0010003567326883076 2.0970662505794039e-08 -3.6311582840521057e-08 -0.00075031029128803744 2.1347430306924364e-08 -3.654964174545143e-08 -0.0010003563330486683 5.3545427876262712e-08 -2.0497237570887247e-08 -0.0010003576553828596 4.8330779371008481e-09 1.3976210440824652e-09 -0.0010003567326883076 5.6586038036544469e-08 3.2003142125931251e-08 -0.00075031756059762086 4.8999275747479148e-09 1.8448823223276576e-09 -0.00075031121014270492 5.3545427876262712e-08 -2.0497237570887247e-08 -0.0010003576553828596 5.6586038036544489e-08 3.2003142125931251e-08 -0.00075031756059762097 5.3656130295588964e-08 -1.9715294864524696e-08 -0.00075031257800920262 4.8999275747479222e-09 1.844882322327638e-09 -0.00075031121014270481 5.5593659622806817e-08 3.1821899503464224e-08 -0.0010003598244413834 5.3545427876262712e-08 -2.0497237570887247e-08 -0.0010003576553828596 4.8330779371008481e-09 1.3976210440824652e-09 -0.0010003567326883076 5.6586038036544469e-08 3.2003142125931251e-08 -0.00075031756059762086 9.2253934129017606e-09 5.6953250589967878e-08 -0.0010003584601676059 5.575346236052557e-08 9.6682970756557073e-08 -0.0010003610582726369 5.5593659622806817e-08 3.1821899503464224e-08 -0.0010003598244413834 5.6586038036544469e-08 3.2003142125931251e-08 -0.00075031756059762086 9.2253934129017606e-09 5.6953250589967878e-08 -0.0010003584601676059 1.0862878472569955e-08 5.7021338362302091e-08 -0.00075031437062986607 4.8330779371008481e-09 1.3976210440824652e-09 -0.0010003567326883076 5.6586038036544449e-08 3.2003142125931251e-08 -0.00075031756059762086 1.0862878472569955e-08 5.7021338362302091e-08 -0.00075031437062986607 4.8330779371008481e-09 1.3976210440824652e-09 -0.0010003567326883076 5.6586038036544469e-08 3.2003142125931245e-08 -0.00075031756059762075 4.8999275747479048e-09 1.8448823223276411e-09 -0.00075031121014270481 9.2253934129017606e-09 5.6953250589967878e-08 -0.0010003584601676059 5.5593659622806817e-08 3.182189950346423e-08 -0.0010003598244413834 4.8330779371008481e-09 1.3976210440824652e-09 -0.0010003567326883076 5.6586038036544469e-08 3.2003142125931251e-08 -0.00075031756059762086 5.7241954074201849e-08 3.470090854209444e-08 -0.00050027919683690838 1.2953987594393263e-08 5.6980037399442877e-08 -0.00050026935424992759 1.0862878472569955e-08 5.7021338362302091e-08 -0.00075031437062986607 4.8999275747479048e-09 1.8448823223276411e-09 -0.00075031121014270481 5.7241954074201849e-08 3.470090854209444e-08 -0.00050027919683690838 1.0862878472569975e-08 5.7021338362302084e-08 -0.00075031437062986607 5.720264998933841e-08 9.578793500896411e-08 -0.00075032104893709231 5.6586038036544469e-08 3.2003142125931251e-08 -0.00075031756059762086 5.7241954074201849e-08 3.470090854209444e-08 -0.00050027919683690838 1.0862878472569967e-08 5.7021338362302071e-08 -0.00075031437062986607 5.6586038036544469e-08 3.2003142125931251e-08 -0.00075031756059762086 4.8999275747479048e-09 1.8448823223276411e-09 -0.00075031121014270481 2.1892763878323036e-08 -3.3945911298452184e-08 -0.00050025966758237758 5.2831070969517041e-09 3.3950633349224859e-09 -0.00050026364469961154 5.3656130295588945e-08 -1.971529486452471e-08 -0.00075031257800920272 4.8999275747479048e-09 1.8448823223276411e-09 -0.00075031121014270481 2.1892763878323036e-08 -3.3945911298452184e-08 -0.00050025966758237758 5.3656130295588978e-08 -1.9715294864524667e-08 -0.00075031257800920262 4.8999275747479007e-09 1.8448823223276361e-09 -0.00075031121014270481 2.0970662505794039e-08 -3.6311582840521057e-08 -0.00075031029128803744 5.2831070969517041e-09 3.3950633349224859e-09 -0.00050026364469961154 5.7241954074201849e-08 3.470090854209444e-08 -0.00050027919683690838 5.3656130295588945e-08 -1.9715294864524677e-08 -0.00075031257800920262 4.8999275747479048e-09 1.8448823223276411e-09 -0.00075031121014270481 5.7241954074201849e-08 3.470090854209444e-08 -0.00050027919683690838 5.6586038036544469e-08 3.2003142125931251e-08 -0.00075031756059762086 5.3656130295588984e-08 -1.9715294864524696e-08 -0.00075031257800920272 4.8999275747478957e-09 1.8448823223276599e-09 -0.00075031121014270492 -1.9839856947121333e-08 3.6181240238938388e-08 -0.00050026202665775837 5.2831070969517041e-09 3.3950633349224859e-09 -0.00050026364469961154 4.8999275747479048e-09 1.8448823223276411e-09 -0.00075031121014270481 -5.0693584051624478e-08 5.2366723252862022e-09 -0.00075031177266769473 5.2831070969517041e-09 3.3950633349224859e-09 -0.00050026364469961154 4.8999275747479048e-09 1.8448823223276411e-09 -0.00075031121014270481 -5.0693584051624491e-08 5.2366723252861915e-09 -0.00075031177266769473 -1.65171368191071e-08 -5.5253836960849704e-08 -0.00075031071835029973 -1.7766786079634366e-08 -5.5699011400140232e-08 -0.00050026420279216679 5.2831070969517041e-09 3.3950633349224859e-09 -0.00050026364469961154 -5.0693584051624511e-08 5.2366723252862163e-09 -0.00075031177266769483 -1.6517136819107087e-08 -5.5253836960849711e-08 -0.00075031071835029973 2.1892763878323036e-08 -3.3945911298452184e-08 -0.00050025966758237758 5.2831070969517041e-09 3.3950633349224859e-09 -0.00050026364469961154 4.8999275747478841e-09 1.8448823223276306e-09 -0.00075031121014270481 -1.6517136819107064e-08 -5.5253836960849698e-08 -0.00075031071835029973 -1.9839856947121333e-08 3.6181240238938388e-08 -0.00050026202665775837 -2.5385489648611243e-08 6.9256565868496146e-08 -0.00050026405332457527 1.0862878472569955e-08 5.7021338362302091e-08 -0.00075031437062986607 -1.9287126487585589e-08 3.6134909971063498e-08 -0.00075031146659318166 -1.9839856947121333e-08 3.6181240238938388e-08 -0.00050026202665775837 4.8999275747479048e-09 1.8448823223276411e-09 -0.00075031121014270481 -1.9287126487585589e-08 3.6134909971063498e-08 -0.00075031146659318166 -5.0693584051624478e-08 5.2366723252862022e-09 -0.00075031177266769473 -1.9839856947121333e-08 3.6181240238938388e-08 -0.00050026202665775837 1.2953987594393263e-08 5.6980037399442877e-08 -0.00050026935424992759 1.0862878472569955e-08 5.7021338362302091e-08 -0.00075031437062986607 4.8999275747479048e-09 1.8448823223276411e-09 -0.00075031121014270481 -1.9839856947121333e-08 3.6181240238938388e-08 -0.00050026202665775837 1.0862878472569955e-08 5.7021338362302091e-08 -0.00075031437062986607 4.8999275747479048e-09 1.8448823223276411e-09 -0.00075031121014270481 -1.9287126487585589e-08 3.6134909971063498e-08 -0.00075031146659318166 -5.1287601991033966e-08 5.0047131812441032e-08 -0.00050026321427565248 -4.8829604526033309e-08 5.3216627910407168e-08 -0.00075031150051722611 -9.5736576528642596e-08 5.7463181003121103e-08 -0.000750313613910029 -5.0693584051624478e-08 5.2366723252862022e-09 -0.00075031177266769473 -5.1287601991033966e-08 5.0047131812441032e-08 -0.00050026321427565248 -2.3145552391773388e-08 7.1583044536193098e-08 -0.00075031229235508041 -1.9287126487585589e-08 3.6134909971063498e-08 -0.00075031146659318166 -4.8829604526033309e-08 5.3216627910407168e-08 -0.00075031150051722611 -5.0933426496295523e-08 3.0296124648343322e-09 -0.00050026611098429963 -5.1287601991033966e-08 5.0047131812441032e-08 -0.00050026321427565248 -9.5736576528642596e-08 5.7463181003121103e-08 -0.000750313613910029 -5.0693584051624478e-08 5.2366723252862022e-09 -0.00075031177266769473 -5.1287601991033966e-08 5.0047131812441032e-08 -0.00050026321427565248 -1.9839856947121333e-08 3.6181240238938388e-08 -0.00050026202665775837 -1.9287126487585589e-08 3.6134909971063498e-08 -0.00075031146659318166 -5.0693584051624478e-08 5.2366723252862022e-09 -0.00075031177266769473 -5.1287601991033966e-08 5.0047131812441032e-08 -0.00050026321427565248 -1.9287126487585602e-08 3.6134909971063479e-08 -0.00075031146659318177 -4.8829604526033309e-08 5.3216627910407168e-08 -0.00075031150051722611 -5.0693584051624478e-08 5.2366723252862022e-09 -0.00075031177266769473 -5.0933426496295523e-08 3.0296124648343322e-09 -0.00050026611098429963 -9.5736576528642596e-08 5.7463181003121103e-08 -0.000750313613910029 -1.1166738648886808e-07 1.9369761580282106e-09 -0.00075031488169099861 -5.0693584051624478e-08 5.2366723252862022e-09 -0.00075031177266769473 -5.0933426496295523e-08 3.0296124648343322e-09 -0.00050026611098429963 -1.0131685404650118e-07 4.3159948382106661e-08 -0.00050027161067855411 -9.5736576528642596e-08 5.7463181003121103e-08 -0.000750313613910029 -1.1166738648886808e-07 1.9369761580282106e-09 -0.00075031488169099861 -9.6687343986806272e-08 5.5731246162019784e-08 -0.0010003573039025731 -1.1159281550927159e-07 -1.0403387608500079e-10 -0.0010003574466978531 -5.0584738416657123e-08 5.2428618847133416e-09 -0.0010003566786153109 -5.0693584051624478e-08 5.2366723252862022e-09 -0.00075031177266769473 -9.6687343986806272e-08 5.5731246162019784e-08 -0.0010003573039025731 -4.8829604526033335e-08 5.3216627910407168e-08 -0.00075031150051722601 -9.5736576528642596e-08 5.7463181003121103e-08 -0.000750313613910029 -5.0693584051624478e-08 5.2366723252862022e-09 -0.00075031177266769473 -1.1159281550927159e-07 -1.0403387608500022e-10 -0.0010003574466978531 -9.5736576528642609e-08 5.7463181003121116e-08 -0.000750313613910029 -1.1166738648886808e-07 1.9369761580282106e-09 -0.00075031488169099861 -5.0693584051624478e-08 5.2366723252862022e-09 -0.00075031177266769473 -9.6687343986806272e-08 5.5731246162019784e-08 -0.0010003573039025731 -1.1159281550927159e-07 -1.0403387608500102e-10 -0.0010003574466978531 -9.5736576528642596e-08 5.7463181003121103e-08 -0.000750313613910029 -5.0693584051624478e-08 5.2366723252862022e-09 -0.00075031177266769473 -2.4309672175174287e-08 7.1339981976172887e-08 -0.0010003574788015343 -4.9444916136429986e-08 5.2938671980723247e-08 -0.0010003569140837692 -2.0014519177123397e-08 3.5777285633424067e-08 -0.0010003570711503069 -4.8829604526033309e-08 5.3216627910407168e-08 -0.00075031150051722611 -9.6687343986806272e-08 5.5731246162019784e-08 -0.0010003573039025731 -5.0584738416657117e-08 5.2428618847133474e-09 -0.0010003566786153111 -4.9444916136429986e-08 5.2938671980723247e-08 -0.0010003569140837692 -4.8829604526033309e-08 5.3216627910407168e-08 -0.00075031150051722611 -2.3145552391773388e-08 7.1583044536193098e-08 -0.00075031229235508041 -2.0014519177123397e-08 3.5777285633424067e-08 -0.0010003570711503069 -1.9287126487585589e-08 3.6134909971063498e-08 -0.00075031146659318166 -4.8829604526033309e-08 5.3216627910407168e-08 -0.00075031150051722611 -5.0584738416657117e-08 5.2428618847133474e-09 -0.0010003566786153111 -4.9444916136429986e-08 5.2938671980723247e-08 -0.0010003569140837692 -2.0014519177123397e-08 3.5777285633424067e-08 -0.0010003570711503069 -4.8829604526033309e-08 5.3216627910407168e-08 -0.00075031150051722611 -5.0584738416657117e-08 5.2428618847133474e-09 -0.0010003566786153111 -1.9287126487585605e-08 3.6134909971063525e-08 -0.00075031146659318166 -4.8829604526033309e-08 5.3216627910407168e-08 -0.00075031150051722611 -5.0693584051624478e-08 5.2366723252862022e-09 -0.00075031177266769473 -5.0584738416657117e-08 5.2428618847133474e-09 -0.0010003566786153111 -2.0014519177123397e-08 3.5777285633424067e-08 -0.0010003570711503069 -1.9287126487585589e-08 3.6134909971063498e-08 -0.00075031146659318166 -4.8829604526033309e-08 5.3216627910407168e-08 -0.00075031150051722611 -9.6687343986806272e-08 5.5731246162019784e-08 -0.0010003573039025731 -5.0584738416657117e-08 5.2428618847133474e-09 -0.0010003566786153111 -4.8829604526033309e-08 5.3216627910407168e-08 -0.00075031150051722611 -5.0693584051624478e-08 5.2366723252862022e-09 -0.00075031177266769473 -5.0584738416657117e-08 5.2428618847133474e-09 -0.0010003566786153111 4.8999275747479329e-09 1.8448823223276353e-09 -0.00075031121014270481 -5.0693584051624478e-08 5.2366723252862022e-09 -0.00075031177266769473 -1.651713681910706e-08 -5.5253836960849724e-08 -0.00075031071835029973 -5.0584738416657117e-08 5.2428618847133474e-09 -0.0010003566786153111 4.8999275747479288e-09 1.844882322327626e-09 -0.00075031121014270481 -1.9287126487585589e-08 3.6134909971063498e-08 -0.00075031146659318166 -5.0693584051624478e-08 5.2366723252862022e-09 -0.00075031177266769473 -5.0584738416657117e-08 5.2428618847133474e-09 -0.0010003566786153111 -5.0693584051624478e-08 5.2366723252862022e-09 -0.00075031177266769473 -6.6848313532615814e-08 -4.0015649552259304e-08 -0.00075031211999191196 -1.6517136819107057e-08 -5.5253836960849731e-08 -0.00075031071835029983 -1.1159281550927159e-07 -1.0403387608500022e-10 -0.0010003574466978531 -1.1166738648886808e-07 1.9369761580282106e-09 -0.00075031488169099861 -6.6848313532615827e-08 -4.0015649552259304e-08 -0.00075031211999191196 -9.6570727391319918e-08 -5.5889966724565418e-08 -0.0010003561357269217 -1.1159281550927159e-07 -1.0403387608500022e-10 -0.0010003574466978531 -5.0584738416657117e-08 5.2428618847133474e-09 -0.0010003566786153111 -6.6848313532615827e-08 -4.0015649552259304e-08 -0.00075031211999191196 -6.6076906879655819e-08 -4.049515883584487e-08 -0.0010003563514290235 -1.1159281550927159e-07 -1.0403387608500022e-10 -0.0010003574466978531 -1.1166738648886808e-07 1.9369761580282106e-09 -0.00075031488169099861 -5.0693584051624465e-08 5.2366723252862229e-09 -0.00075031177266769473 -6.6848313532615841e-08 -4.0015649552259324e-08 -0.00075031211999191196 -1.1159281550927159e-07 -1.0403387608500022e-10 -0.0010003574466978531 -5.0584738416657117e-08 5.2428618847133474e-09 -0.0010003566786153111 -5.0693584051624478e-08 5.2366723252862022e-09 -0.00075031177266769473 -6.6848313532615827e-08 -4.0015649552259304e-08 -0.00075031211999191196 -6.568067585763648e-08 -4.3491066216147982e-08 -0.00050026891754185088 -1.0915607961334935e-07 -1.3237494929609944e-08 -0.00050027730816612135 -1.1166738648886808e-07 1.9369761580282106e-09 -0.00075031488169099861 -9.7760355213956367e-08 -5.4073576180789424e-08 -0.00075031179121420129 -6.568067585763648e-08 -4.3491066216147982e-08 -0.00050026891754185088 -5.0933426496295523e-08 3.0296124648343322e-09 -0.00050026611098429963 -1.1166738648886808e-07 1.9369761580282106e-09 -0.00075031488169099861 -5.0693584051624478e-08 5.2366723252862022e-09 -0.00075031177266769473 -6.568067585763648e-08 -4.3491066216147982e-08 -0.00050026891754185088 -1.1166738648886808e-07 1.9369761580282106e-09 -0.00075031488169099861 -5.0693584051624471e-08 5.2366723252862121e-09 -0.00075031177266769483 -6.6848313532615827e-08 -4.0015649552259304e-08 -0.00075031211999191196 -1.7766786079634366e-08 -5.5699011400140232e-08 -0.00050026420279216679 -6.568067585763648e-08 -4.3491066216147982e-08 -0.00050026891754185088 -5.0693584051624471e-08 5.2366723252862328e-09 -0.00075031177266769483 -1.6517136819107087e-08 -5.5253836960849711e-08 -0.00075031071835029973 -6.568067585763648e-08 -4.3491066216147982e-08 -0.00050026891754185088 -5.0693584051624518e-08 5.2366723252861915e-09 -0.00075031177266769473 -6.6848313532615827e-08 -4.0015649552259304e-08 -0.00075031211999191196 -1.6517136819107047e-08 -5.5253836960849731e-08 -0.00075031071835029973 -1.7766786079634366e-08 -5.5699011400140232e-08 -0.00050026420279216679 -6.568067585763648e-08 -4.3491066216147982e-08 -0.00050026891754185088 -5.7164073029346424e-08 -9.5799864227391693e-08 -0.00075031337761402464 -1.6517136819107087e-08 -5.5253836960849711e-08 -0.00075031071835029973 -6.568067585763648e-08 -4.3491066216147982e-08 -0.00050026891754185088 -6.6848313532615827e-08 -4.0015649552259304e-08 -0.00075031211999191196 -5.7164073029346437e-08 -9.5799864227391706e-08 -0.00075031337761402464 -1.6517136819107047e-08 -5.5253836960849685e-08 -0.00075031071835029973 -6.568067585763648e-08 -4.3491066216147982e-08 -0.00050026891754185088 -6.6848313532615827e-08 -4.0015649552259304e-08 -0.00075031211999191196 -9.7760355213956354e-08 -5.4073576180789437e-08 -0.00075031179121420129 -5.7164073029346451e-08 -9.5799864227391693e-08 -0.00075031337761402464 -6.568067585763648e-08 -4.3491066216147982e-08 -0.00050026891754185088 -1.1166738648886808e-07 1.9369761580282106e-09 -0.00075031488169099861 -6.6848313532615827e-08 -4.0015649552259304e-08 -0.00075031211999191196 -9.7760355213956367e-08 -5.4073576180789424e-08 -0.00075031179121420129 -8.7978833489564886e-08 -6.6304081806391485e-08 -0.00050027017810675301 -6.568067585763648e-08 -4.3491066216147975e-08 -0.00050026891754185088 -9.7760355213956367e-08 -5.4073576180789424e-08 -0.00075031179121420129 -5.7164073029346424e-08 -9.5799864227391693e-08 -0.00075031337761402464 -6.6848313532615827e-08 -4.0015649552259304e-08 -0.00075031211999191196 -9.7760355213956367e-08 -5.4073576180789424e-08 -0.00075031179121420129 -5.5758591016203749e-08 -9.6683560815594644e-08 -0.0010003564936964986 -9.6570727391319905e-08 -5.5889966724565425e-08 -0.0010003561357269217 -1.1166738648886808e-07 1.9369761580282106e-09 -0.00075031488169099861 -6.6848313532615827e-08 -4.0015649552259304e-08 -0.00075031211999191196 -9.7760355213956367e-08 -5.4073576180789424e-08 -0.00075031179121420129 -9.6570727391319918e-08 -5.5889966724565418e-08 -0.0010003561357269217 -1.1159281550927159e-07 -1.0403387608500022e-10 -0.0010003574466978531 -6.6848313532615854e-08 -4.0015649552259304e-08 -0.00075031211999191186 -6.6076906879655832e-08 -4.0495158835844877e-08 -0.0010003563514290235 -9.6570727391319918e-08 -5.5889966724565418e-08 -0.0010003561357269217 -6.6848313532615827e-08 -4.0015649552259304e-08 -0.00075031211999191196 -5.5758591016203769e-08 -9.6683560815594644e-08 -0.0010003564936964986 -6.6076906879655819e-08 -4.049515883584487e-08 -0.0010003563514290235 -9.6570727391319918e-08 -5.5889966724565432e-08 -0.0010003561357269217 -6.6848313532615827e-08 -4.0015649552259304e-08 -0.00075031211999191196 -1.5289338250118963e-08 -5.5518931207142083e-08 -0.0010003559737335058 -5.5758591016203755e-08 -9.6683560815594644e-08 -0.0010003564936964984 -6.6076906879655819e-08 -4.049515883584487e-08 -0.0010003563514290235 -5.0584738416657117e-08 5.2428618847133474e-09 -0.0010003566786153111 -6.6848313532615814e-08 -4.0015649552259304e-08 -0.00075031211999191196 -1.5289338250118993e-08 -5.5518931207142096e-08 -0.0010003559737335058 -6.6076906879655819e-08 -4.049515883584487e-08 -0.0010003563514290235 -6.6848313532615827e-08 -4.0015649552259304e-08 -0.00075031211999191196 -1.6517136819107087e-08 -5.5253836960849711e-08 -0.00075031071835029973 -1.5289338250118993e-08 -5.5518931207142096e-08 -0.0010003559737335058 -5.5758591016203742e-08 -9.6683560815594657e-08 -0.0010003564936964986 -5.0584738416657117e-08 5.2428618847133474e-09 -0.0010003566786153111 -6.6848313532615827e-08 -4.0015649552259304e-08 -0.00075031211999191186 -1.651713681910705e-08 -5.5253836960849691e-08 -0.00075031071835029962 -1.5289338250118993e-08 -5.5518931207142096e-08 -0.0010003559737335058 -6.6848313532615827e-08 -4.0015649552259304e-08 -0.00075031211999191196 -5.7164073029346424e-08 -9.5799864227391693e-08 -0.00075031337761402464 -1.6517136819107087e-08 -5.5253836960849711e-08 -0.00075031071835029973 -5.5758591016203742e-08 -9.6683560815594657e-08 -0.0010003564936964986 -6.6848313532615827e-08 -4.0015649552259304e-08 -0.00075031211999191196 -9.7760355213956367e-08 -5.4073576180789424e-08 -0.00075031179121420129 -5.7164073029346424e-08 -9.5799864227391693e-08 -0.00075031337761402464 -5.5758591016203742e-08 -9.6683560815594657e-08 -0.0010003564936964986 -5.7164073029346424e-08 -9.5799864227391693e-08 -0.00075031337761402464 -1.6517136819107084e-08 -5.5253836960849711e-08 -0.00075031071835029973 8.8326119285585989e-11 -1.1159734343040361e-07 -0.0010003555537495704 -5.5758591016203742e-08 -9.6683560815594657e-08 -0.0010003564936964986 -1.7766786079634366e-08 -5.5699011400140232e-08 -0.00050026420279216679 -4.4954414694045985e-08 -1.0090934286393597e-07 -0.0005002749022026651 -5.7164073029346404e-08 -9.5799864227391706e-08 -0.00075031337761402464 -1.9356544440005767e-09 -1.1164138578088839e-07 -0.0007503102101350667 2.1579879136112437e-08 -7.384152077131151e-08 -0.00050026052741977494 -1.7766786079634366e-08 -5.5699011400140232e-08 -0.00050026420279216679 -1.9356544440005936e-09 -1.1164138578088836e-07 -0.0007503102101350667 -1.6517136819107087e-08 -5.5253836960849711e-08 -0.00075031071835029973 -1.7766786079634366e-08 -5.5699011400140232e-08 -0.00050026420279216679 -5.7164073029346418e-08 -9.5799864227391706e-08 -0.00075031337761402464 -1.9356544440006032e-09 -1.1164138578088838e-07 -0.0007503102101350667 -1.6517136819107087e-08 -5.5253836960849711e-08 -0.00075031071835029973 2.1579879136112437e-08 -7.384152077131151e-08 -0.00050026052741977494 -1.9356544440005936e-09 -1.1164138578088836e-07 -0.0007503102101350667 -1.6517136819107087e-08 -5.5253836960849711e-08 -0.00075031071835029973 1.943329682880557e-08 -7.5927925998100555e-08 -0.0007503099159958857 2.1579879136112437e-08 -7.384152077131151e-08 -0.00050026052741977494 2.1892763878323036e-08 -3.3945911298452184e-08 -0.00050025966758237758 -1.6517136819107087e-08 -5.5253836960849711e-08 -0.00075031071835029973 1.943329682880557e-08 -7.5927925998100555e-08 -0.0007503099159958857 2.1892763878323036e-08 -3.3945911298452184e-08 -0.00050025966758237758 4.899927574747885e-09 1.8448823223276312e-09 -0.00075031121014270481 -1.651713681910709e-08 -5.5253836960849685e-08 -0.00075031071835029973 2.0970662505794039e-08 -3.6311582840521057e-08 -0.00075031029128803744 2.1892763878323036e-08 -3.3945911298452184e-08 -0.00050025966758237758 -1.6517136819107077e-08 -5.5253836960849737e-08 -0.00075031071835029973 2.0970662505794039e-08 -3.6311582840521057e-08 -0.00075031029128803744 1.943329682880557e-08 -7.5927925998100555e-08 -0.0007503099159958857 5.1802801759959023e-08 -5.3004863118457336e-08 -0.0005002608937728978 5.3656130295588931e-08 -1.9715294864524693e-08 -0.00075031257800920262 4.9134885335954333e-08 -5.6863573852026357e-08 -0.00075031049795767858 2.0970662505794062e-08 -3.6311582840521044e-08 -0.00075031029128803744 2.1892763878323036e-08 -3.3945911298452184e-08 -0.00050025966758237758 5.1802801759959023e-08 -5.3004863118457336e-08 -0.0005002608937728978 5.3656130295588964e-08 -1.9715294864524696e-08 -0.00075031257800920262 2.0970662505794039e-08 -3.6311582840521057e-08 -0.00075031029128803744 5.1802801759959023e-08 -5.3004863118457336e-08 -0.0005002608937728978 4.9134885335954333e-08 -5.6863573852026357e-08 -0.00075031049795767858 2.0970662505794039e-08 -3.6311582840521057e-08 -0.00075031029128803744 1.943329682880557e-08 -7.5927925998100555e-08 -0.0007503099159958857 2.1892763878323036e-08 -3.3945911298452184e-08 -0.00050025966758237758 5.1802801759959023e-08 -5.3004863118457336e-08 -0.0005002608937728978 2.0970662505794039e-08 -3.6311582840521057e-08 -0.00075031029128803744 1.943329682880557e-08 -7.5927925998100555e-08 -0.0007503099159958857 2.1579879136112437e-08 -7.384152077131151e-08 -0.00050026052741977494 1.3425209363479511e-08 -1.0927176129658706e-07 -0.00050026529130577395 5.4066157111850684e-08 -9.770482760585606e-08 -0.00075030990449400248 -1.9356544440005936e-09 -1.1164138578088836e-07 -0.0007503102101350667 2.1579879136112437e-08 -7.384152077131151e-08 -0.00050026052741977494 5.4066157111850684e-08 -9.770482760585606e-08 -0.00075030990449400248 -1.9356544440005936e-09 -1.1164138578088836e-07 -0.0007503102101350667 1.943329682880557e-08 -7.5927925998100555e-08 -0.0007503099159958857 5.1802801759959023e-08 -5.3004863118457336e-08 -0.0005002608937728978 5.406615711185071e-08 -9.7704827605856047e-08 -0.00075030990449400248 4.9134885335954339e-08 -5.6863573852026364e-08 -0.00075031049795767858 1.943329682880557e-08 -7.5927925998100555e-08 -0.0007503099159958857 2.1579879136112437e-08 -7.384152077131151e-08 -0.00050026052741977494 5.1802801759959023e-08 -5.3004863118457336e-08 -0.0005002608937728978 5.4066157111850684e-08 -9.770482760585606e-08 -0.00075030990449400248 1.943329682880557e-08 -7.5927925998100555e-08 -0.0007503099159958857 5.589580082263173e-08 -9.6586477639070343e-08 -0.001000355901854113 1.943329682880557e-08 -7.5927925998100555e-08 -0.0007503099159958857 8.8326119285570751e-11 -1.1159734343040358e-07 -0.0010003555537495706 2.0281953562198522e-08 -7.6008972594790261e-08 -0.0010003558095723244 5.4066157111850684e-08 -9.770482760585606e-08 -0.00075030990449400248 5.589580082263173e-08 -9.6586477639070343e-08 -0.001000355901854113 4.9134885335954333e-08 -5.6863573852026357e-08 -0.00075031049795767858 1.943329682880557e-08 -7.5927925998100555e-08 -0.0007503099159958857 5.589580082263173e-08 -9.6586477639070343e-08 -0.001000355901854113 4.9134885335954333e-08 -5.6863573852026357e-08 -0.00075031049795767858 1.943329682880557e-08 -7.5927925998100555e-08 -0.0007503099159958857 2.0281953562198522e-08 -7.6008972594790261e-08 -0.0010003558095723244 5.589580082263173e-08 -9.6586477639070343e-08 -0.001000355901854113 4.9134885335954333e-08 -5.6863573852026357e-08 -0.00075031049795767858 4.9516855796403865e-08 -5.7027694704955546e-08 -0.00100035643777546 2.0281953562198522e-08 -7.6008972594790261e-08 -0.0010003558095723244 5.4066157111850684e-08 -9.770482760585606e-08 -0.00075030990449400248 5.589580082263173e-08 -9.6586477639070343e-08 -0.001000355901854113 -1.9356544440005965e-09 -1.1164138578088836e-07 -0.0007503102101350667 1.943329682880557e-08 -7.5927925998100555e-08 -0.0007503099159958857 5.589580082263173e-08 -9.6586477639070343e-08 -0.001000355901854113 -1.9356544440006065e-09 -1.1164138578088836e-07 -0.0007503102101350667 1.943329682880557e-08 -7.5927925998100555e-08 -0.0007503099159958857 8.8326119285570751e-11 -1.1159734343040358e-07 -0.0010003555537495706 4.9134885335954333e-08 -5.6863573852026357e-08 -0.00075031049795767858 2.0970662505794039e-08 -3.6311582840521057e-08 -0.00075031029128803744 2.1347430306924364e-08 -3.654964174545143e-08 -0.0010003563330486683 2.0281953562198522e-08 -7.6008972594790261e-08 -0.0010003558095723244 5.3545427876262712e-08 -2.0497237570887247e-08 -0.0010003576553828596 4.9134885335954333e-08 -5.6863573852026357e-08 -0.00075031049795767858 2.0970662505794039e-08 -3.6311582840521057e-08 -0.00075031029128803744 2.1347430306924364e-08 -3.654964174545143e-08 -0.0010003563330486683 5.3545427876262712e-08 -2.0497237570887247e-08 -0.0010003576553828596 5.3656130295588964e-08 -1.9715294864524696e-08 -0.00075031257800920262 4.9134885335954333e-08 -5.6863573852026357e-08 -0.00075031049795767858 2.0970662505794039e-08 -3.6311582840521057e-08 -0.00075031029128803744 5.3545427876262712e-08 -2.0497237570887247e-08 -0.0010003576553828596 4.9134885335954333e-08 -5.6863573852026357e-08 -0.00075031049795767858 4.9516855796403865e-08 -5.7027694704955546e-08 -0.00100035643777546 2.1347430306924364e-08 -3.654964174545143e-08 -0.0010003563330486683 4.9134885335954333e-08 -5.6863573852026357e-08 -0.00075031049795767858 4.9516855796403865e-08 -5.7027694704955546e-08 -0.00100035643777546 2.1347430306924364e-08 -3.654964174545143e-08 -0.0010003563330486683 2.0281953562198522e-08 -7.6008972594790261e-08 -0.0010003558095723244 4.9134885335954333e-08 -5.6863573852026357e-08 -0.00075031049795767858 2.0970662505794039e-08 -3.6311582840521057e-08 -0.00075031029128803744 1.943329682880557e-08 -7.5927925998100555e-08 -0.0007503099159958857 2.0281953562198522e-08 -7.6008972594790261e-08 -0.0010003558095723244 4.8330779371008481e-09 1.3976210440824652e-09 -0.0010003567326883076 2.0970662505794046e-08 -3.6311582840521057e-08 -0.00075031029128803744 -1.5289338250118993e-08 -5.5518931207142096e-08 -0.0010003559737335058 2.1347430306924364e-08 -3.654964174545143e-08 -0.0010003563330486683 4.8999275747479048e-09 1.8448823223276411e-09 -0.00075031121014270481 -1.6517136819107087e-08 -5.5253836960849711e-08 -0.00075031071835029973 2.0970662505794039e-08 -3.6311582840521057e-08 -0.00075031029128803744 -1.5289338250118993e-08 -5.5518931207142096e-08 -0.0010003559737335058 2.0970662505794039e-08 -3.6311582840521057e-08 -0.00075031029128803744 -1.528933825011898e-08 -5.5518931207142123e-08 -0.0010003559737335056 2.1347430306924364e-08 -3.654964174545143e-08 -0.0010003563330486683 2.0281953562198522e-08 -7.6008972594790261e-08 -0.0010003558095723244 -1.6517136819107087e-08 -5.5253836960849711e-08 -0.00075031071835029973 2.0970662505794039e-08 -3.6311582840521057e-08 -0.00075031029128803744 1.943329682880557e-08 -7.5927925998100555e-08 -0.0007503099159958857 -1.5289338250118993e-08 -5.5518931207142096e-08 -0.0010003559737335058 2.0970662505794039e-08 -3.6311582840521057e-08 -0.00075031029128803744 1.943329682880557e-08 -7.5927925998100555e-08 -0.0007503099159958857 -1.5289338250118993e-08 -5.5518931207142096e-08 -0.0010003559737335058 2.0281953562198522e-08 -7.6008972594790261e-08 -0.0010003558095723244 1.943329682880557e-08 -7.5927925998100555e-08 -0.0007503099159958857 8.8326119285570751e-11 -1.1159734343040358e-07 -0.0010003555537495706 -1.5289338250118993e-08 -5.5518931207142096e-08 -0.0010003559737335058 2.0281953562198522e-08 -7.6008972594790261e-08 -0.0010003558095723244 -1.9356544440005936e-09 -1.1164138578088836e-07 -0.0007503102101350667 -1.6517136819107087e-08 -5.5253836960849711e-08 -0.00075031071835029973 1.943329682880557e-08 -7.5927925998100555e-08 -0.0007503099159958857 8.8326119285570751e-11 -1.1159734343040358e-07 -0.0010003555537495706 -1.6517136819107087e-08 -5.5253836960849711e-08 -0.00075031071835029973 1.943329682880557e-08 -7.5927925998100555e-08 -0.0007503099159958857 8.8326119285557038e-11 -1.1159734343040361e-07 -0.0010003555537495706 -1.5289338250118993e-08 -5.5518931207142096e-08 -0.0010003559737335058 -5.7164073029346424e-08 -9.5799864227391693e-08 -0.00075031337761402464 -1.9356544440005903e-09 -1.1164138578088835e-07 -0.0007503102101350667 -1.6517136819107087e-08 -5.5253836960849711e-08 -0.00075031071835029973 8.8326119285571294e-11 -1.1159734343040358e-07 -0.0010003555537495706 -1.6517136819107087e-08 -5.5253836960849711e-08 -0.00075031071835029973 8.8326119285552747e-11 -1.1159734343040362e-07 -0.0010003555537495706 -1.5289338250118993e-08 -5.5518931207142096e-08 -0.0010003559737335058 -5.5758591016203722e-08 -9.6683560815594657e-08 -0.0010003564936964986 8.8326119285570751e-11 -1.1159734343040358e-07 -0.0010003555537495706 -1.5289338250118993e-08 -5.5518931207142096e-08 -0.0010003559737335058 2.0281953562198522e-08 -7.6008972594790261e-08 -0.0010003558095723244 4.6926992462511605e-11 -1.115153719574762e-07 -0.0012504004345501142 8.8326119285570751e-11 -1.1159734343040358e-07 -0.0010003555537495706 -1.5289338250118993e-08 -5.5518931207142096e-08 -0.0010003559737335058 4.6926992462511605e-11 -1.115153719574762e-07 -0.0012504004345501142 -5.5758591016203742e-08 -9.6683560815594657e-08 -0.0010003564936964986 -1.5289338250118993e-08 -5.5518931207142096e-08 -0.0010003559737335058 2.1347430306924364e-08 -3.654964174545143e-08 -0.0010003563330486683 2.0281953562198522e-08 -7.6008972594790261e-08 -0.0010003558095723244 -1.4918266964377378e-08 -5.5351690514413126e-08 -0.0012504008041907702 4.8330779371008481e-09 1.3976210440824652e-09 -0.0010003567326883076 -1.5289338250118993e-08 -5.5518931207142096e-08 -0.0010003559737335058 2.1347430306924364e-08 -3.654964174545143e-08 -0.0010003563330486683 -1.4918266964377378e-08 -5.5351690514413126e-08 -0.0012504008041907702 5.3722393311089015e-08 -2.0305505445664725e-08 -0.0012504022230280386 5.3545427876262712e-08 -2.0497237570887247e-08 -0.0010003576553828596 4.9516855796403865e-08 -5.7027694704955546e-08 -0.00100035643777546 2.1347430306924364e-08 -3.654964174545143e-08 -0.0010003563330486683 4.9516855796403865e-08 -5.7027694704955546e-08 -0.00100035643777546 2.1347430306924364e-08 -3.654964174545143e-08 -0.0010003563330486683 2.0281953562198522e-08 -7.6008972594790261e-08 -0.0010003558095723244 2.0549725912558804e-08 -7.5811620904639104e-08 -0.0012504007877723925 5.589580082263173e-08 -9.6586477639070343e-08 -0.001000355901854113 5.5804037502134138e-08 -9.6552595102930998e-08 -0.0012504009367234063 4.9516855796403865e-08 -5.7027694704955546e-08 -0.00100035643777546 2.0281953562198522e-08 -7.6008972594790261e-08 -0.0010003558095723244 5.589580082263173e-08 -9.6586477639070343e-08 -0.001000355901854113 5.5804037502134138e-08 -9.6552595102930998e-08 -0.0012504009367234063 8.8326119285567494e-11 -1.1159734343040358e-07 -0.0010003555537495704 2.0281953562198522e-08 -7.6008972594790261e-08 -0.0010003558095723244 5.5804037502134138e-08 -9.6552595102930998e-08 -0.0012504009367234063 4.9516855796403865e-08 -5.7027694704955546e-08 -0.00100035643777546 2.0549725912558804e-08 -7.5811620904639104e-08 -0.0012504007877723925 4.9741372049663065e-08 -5.6809375081919713e-08 -0.0012504013661131196 5.5804037502134138e-08 -9.6552595102930998e-08 -0.0012504009367234063 4.9516855796403865e-08 -5.7027694704955546e-08 -0.00100035643777546 2.0281953562198522e-08 -7.6008972594790261e-08 -0.0010003558095723244 2.0549725912558804e-08 -7.5811620904639104e-08 -0.0012504007877723925 5.5804037502134138e-08 -9.6552595102930998e-08 -0.0012504009367234063 2.0281953562198522e-08 -7.6008972594790261e-08 -0.0010003558095723244 2.0549725912558804e-08 -7.5811620904639104e-08 -0.0012504007877723925 4.6926992462511605e-11 -1.115153719574762e-07 -0.0012504004345501142 5.5804037502134138e-08 -9.6552595102930998e-08 -0.0012504009367234063 8.8326119285558382e-11 -1.1159734343040358e-07 -0.0010003555537495706 2.0281953562198522e-08 -7.6008972594790261e-08 -0.0010003558095723244 4.6926992462511605e-11 -1.115153719574762e-07 -0.0012504004345501142 4.9516855796403865e-08 -5.7027694704955546e-08 -0.00100035643777546 2.0549725912558804e-08 -7.5811620904639104e-08 -0.0012504007877723925 4.9741372049663065e-08 -5.6809375081919713e-08 -0.0012504013661131196 2.1635598361807348e-08 -3.6325625481314104e-08 -0.001250401309791998 4.9516855796403865e-08 -5.7027694704955546e-08 -0.00100035643777546 2.1347430306924364e-08 -3.654964174545143e-08 -0.0010003563330486683 2.0549725912558804e-08 -7.5811620904639104e-08 -0.0012504007877723925 2.1635598361807348e-08 -3.6325625481314104e-08 -0.001250401309791998 5.3722393311089015e-08 -2.0305505445664725e-08 -0.0012504022230280386 4.9516855796403865e-08 -5.7027694704955546e-08 -0.00100035643777546 4.9741372049663065e-08 -5.6809375081919713e-08 -0.0012504013661131196 2.1635598361807348e-08 -3.6325625481314104e-08 -0.001250401309791998 5.3722393311089015e-08 -2.0305505445664725e-08 -0.0012504022230280386 4.9516855796403865e-08 -5.7027694704955546e-08 -0.00100035643777546 2.1347430306924364e-08 -3.654964174545143e-08 -0.0010003563330486683 2.1635598361807348e-08 -3.6325625481314104e-08 -0.001250401309791998 2.1347430306924364e-08 -3.654964174545143e-08 -0.0010003563330486683 2.0281953562198522e-08 -7.6008972594790261e-08 -0.0010003558095723244 2.0549725912558804e-08 -7.5811620904639104e-08 -0.0012504007877723925 -1.4918266964377378e-08 -5.5351690514413126e-08 -0.0012504008041907702 2.1347430306924364e-08 -3.654964174545143e-08 -0.0010003563330486683 2.0549725912558804e-08 -7.5811620904639104e-08 -0.0012504007877723925 2.1635598361807348e-08 -3.6325625481314104e-08 -0.001250401309791998 -1.4918266964377378e-08 -5.5351690514413126e-08 -0.0012504008041907702 5.0726836190017765e-09 1.5897319023470179e-09 -0.0012504015667910229 2.1347430306924371e-08 -3.654964174545143e-08 -0.0010003563330486683 2.1635598361807341e-08 -3.6325625481314098e-08 -0.001250401309791998 -1.4918266964377378e-08 -5.5351690514413126e-08 -0.0012504008041907702 -1.5289338250118993e-08 -5.5518931207142096e-08 -0.0010003559737335058 -1.4918266964377378e-08 -5.5351690514413126e-08 -0.0012504008041907702 4.6926992462503385e-11 -1.1151537195747622e-07 -0.0012504004345501145 -5.5721791141895393e-08 -9.6597417206802332e-08 -0.0012504008079567263 -1.5289338250118993e-08 -5.5518931207142096e-08 -0.0010003559737335058 2.0281953562198522e-08 -7.6008972594790261e-08 -0.0010003558095723244 -1.4918266964377378e-08 -5.5351690514413126e-08 -0.0012504008041907702 4.6926992462502654e-11 -1.1151537195747622e-07 -0.0012504004345501145 2.0281953562198522e-08 -7.6008972594790261e-08 -0.0010003558095723244 2.0549725912558804e-08 -7.5811620904639104e-08 -0.0012504007877723925 -1.4918266964377378e-08 -5.5351690514413126e-08 -0.0012504008041907702 4.6926992462511605e-11 -1.115153719574762e-07 -0.0012504004345501142 -1.5289338250118993e-08 -5.5518931207142096e-08 -0.0010003559737335058 4.6926992462502855e-11 -1.1151537195747618e-07 -0.0012504004345501145 -5.5721791141895393e-08 -9.6597417206802332e-08 -0.0012504008079567261 -5.5758591016203742e-08 -9.6683560815594657e-08 -0.0010003564936964986 -1.5289338250118993e-08 -5.5518931207142096e-08 -0.0010003559737335058 -5.5721791141895406e-08 -9.6597417206802318e-08 -0.0012504008079567263 -5.5758591016203749e-08 -9.6683560815594657e-08 -0.0010003564936964986 -6.6076906879655819e-08 -4.049515883584487e-08 -0.0010003563514290235 -5.5721791141895406e-08 -9.6597417206802318e-08 -0.0012504008079567263 -5.5758591016203742e-08 -9.6683560815594657e-08 -0.0010003564936964986 -6.6076906879655832e-08 -4.049515883584487e-08 -0.0010003563514290235 -9.6570727391319918e-08 -5.5889966724565418e-08 -0.0010003561357269217 -1.5289338250118993e-08 -5.5518931207142096e-08 -0.0010003559737335058 -1.4918266964377378e-08 -5.5351690514413126e-08 -0.0012504008041907702 -5.5721791141895413e-08 -9.6597417206802318e-08 -0.0012504008079567263 -6.6076906879655819e-08 -4.049515883584487e-08 -0.0010003563514290235 -1.4918266964377378e-08 -5.5351690514413126e-08 -0.0012504008041907702 -5.5721791141895413e-08 -9.6597417206802318e-08 -0.0012504008079567263 -6.6076906879655819e-08 -4.0495158835844857e-08 -0.0010003563514290232 -6.588552800454017e-08 -4.0339068354507545e-08 -0.0012504009903927132 -5.0406941276361599e-08 5.469820922966627e-09 -0.0012504013621595254 -1.5289338250118957e-08 -5.5518931207142089e-08 -0.0010003559737335058 -1.4918266964377378e-08 -5.5351690514413126e-08 -0.0012504008041907702 -6.6076906879655819e-08 -4.049515883584487e-08 -0.0010003563514290235 -5.0406941276361599e-08 5.469820922966627e-09 -0.0012504013621595254 -1.4918266964377378e-08 -5.5351690514413126e-08 -0.0012504008041907702 -6.6076906879655819e-08 -4.049515883584487e-08 -0.0010003563514290235 -6.588552800454017e-08 -4.0339068354507545e-08 -0.0012504009903927132 -1.1151590662872988e-07 -1.8733386335310162e-11 -0.0012504015817700958 -6.6076906879655845e-08 -4.049515883584487e-08 -0.0010003563514290235 -6.5885528004540183e-08 -4.0339068354507551e-08 -0.0012504009903927132 -9.6567788577865153e-08 -5.5786404225484727e-08 -0.0012504007484890685 -5.5721791141895406e-08 -9.6597417206802318e-08 -0.0012504008079567263 -6.6076906879655819e-08 -4.049515883584487e-08 -0.0010003563514290235 -6.588552800454017e-08 -4.0339068354507545e-08 -0.001250400990392713 -9.6567788577865153e-08 -5.5786404225484727e-08 -0.0012504007484890685 -5.5721791141895406e-08 -9.6597417206802318e-08 -0.0012504008079567263 -6.6076906879655832e-08 -4.0495158835844883e-08 -0.0010003563514290235 -9.6567788577865153e-08 -5.5786404225484727e-08 -0.0012504007484890685 -9.6570727391319918e-08 -5.5889966724565418e-08 -0.0010003561357269217 -1.1159281550927159e-07 -1.0403387608500022e-10 -0.0010003574466978531 -6.6076906879655819e-08 -4.049515883584487e-08 -0.0010003563514290235 -9.6567788577865153e-08 -5.5786404225484727e-08 -0.0012504007484890685 -9.6570727391319918e-08 -5.5889966724565418e-08 -0.0010003561357269217 
</DataArray>
</PointData>
<CellData Scalars="" Vectors="" Tensors="effective_stress,">
<DataArray type="Float64" Name="effective_stress" NumberOfComponents="9" format="ascii">
-3329.2823796155344 -0.15912065637038786 -1.2977976972313172 -0.15912065637038786 -3329.8114867584618 -0.79591295730733691 -1.2977976972313172 -0.79591295730733691 -9999.5194272515473 -3329.4169021307862 -0.077296694504451313 -1.5427810295770996 -0.077296694504451313 -3329.9884539921309 -0.29985328146176471 -1.5427810295770996 -0.29985328146176471 -9999.5972996887776 -3327.6844985465873 1.5863930417131815 -2.7499549052013208 1.5863930417131815 -3327.2684181294539 -1.1688175205717926 -2.7499549052013208 -1.1688175205717926 -10001.237089202385 -3328.1540775256781 1.6881738932631891 -2.1790744692257009 1.6881738932631891 -3330.5932364077462 -2.3247768313787684 -2.1790744692257009 -2.3247768313787684 -10002.185688516731 -3334.2129351773592 -0.35681596487423273 -1.0815009324276161 -0.35681596487423273 -3330.7240088761237 -1.1839591152156572 -1.0815009324276161 -1.1839591152156572 -9999.6008038436448 -3332.8728622880963 1.4996057044422475 -0.72016423303398369 1.4996057044422475 -3331.4226014604856 0.031480488309171051 -0.72016423303398369 0.031480488309171051 -9999.4404337674187 -3330.5108361639868 0.047802212411477391 -1.1544093139814322 0.047802212411477391 -3330.6192231376758 -0.36246353613478277 -1.1544093139814322 -0.36246353613478277 -10000.028475483463 -3330.2286276393875 0.22844344833240016 -1.1126231255211678 0.22844344833240016 -3330.0857013493137 -0.22190602172156559 -1.1126231255211678 -0.22190602172156559 -9999.824542905224 -3329.8099454638582 -0.48514664977045774 -0.60061667843865507 -0.48514664977045774 -3328.2210081748403 -0.51464771925247987 -0.60061667843865507 -0.51464771925247987 -9998.1950988284898 -3333.2041554327152 0.9617858934181911 -1.2825828540239552 0.9617858934181911 -3330.614528376947 0.16731845694299885 -1.2825828540239552 0.16731845694299885 -9999.6420313712315 -3327.0370198032697 2.0301850329173092 -3.5400975341708918 2.0301850329173092 -3328.2188290701665 -0.24175709759618025 -3.5400975341708918 -0.24175709759618025 -9997.5013226371739 -3331.3424277509066 0.19320616323652839 0.0058775824951261546 0.19320616323652839 -3330.1445729419165 -1.3277556117128659 0.0058775824951261546 -1.3277556117128659 -9999.9874053437652 -3333.0446726174987 0.69269229905612717 2.3646528732009062 0.69269229905612717 -3330.2350388456662 -0.69572367281458591 2.3646528732009062 -0.69572367281458591 -10000.435583036351 -3331.6754415050218 1.1947538863164364 3.0333025340432869 1.1947538863164364 -3328.8257843409174 0.17727753333019791 3.0333025340432869 0.17727753333019791 -9998.491874291758 -3332.7470108365756 -0.4894286606704234 3.4766831325762579 -0.4894286606704234 -3333.0356032669461 -1.751375202094992 3.4766831325762579 -1.751375202094992 -9999.8122213561546 -3333.6837306560369 0.035267608314845128 2.7401250555735528 0.035267608314845128 -3335.0089186562291 -0.33052075664626424 2.7401250555735528 -0.33052075664626424 -10000.53973015834 -3332.1820905462714 -0.94345950218330321 0.79433861713096121 -0.94345950218330321 -3335.3225685835796 -0.78818329948748556 0.79433861713096121 -0.78818329948748556 -10003.51137446328 -3333.7804249716019 1.9422513438908802 -0.49795382168485958 1.9422513438908802 -3334.9813711602906 -0.12111246211952675 -0.49795382168485958 -0.12111246211952675 -10004.49998085253 -3335.5686838933962 0.55480998217705335 -1.1830438743592244 0.55480998217705335 -3334.9141474110861 -2.1335481704921908 -1.1830438743592244 -2.1335481704921908 -10001.957846219144 -3334.8822489251088 1.7137485169001776 -0.64080939202676745 1.7137485169001776 -3332.4743767342075 -0.31901746974017442 -0.64080939202676745 -0.31901746974017442 -10004.148688234385 -3336.4523834971342 0.47296398489319386 -0.40598060007136705 0.47296398489319386 -3336.8290368837515 -0.76118958337136045 -0.40598060007136705 -0.76118958337136045 -10004.955564776041 -3332.1246969927779 -1.7926551507111852 -0.67882612373619455 -1.7926551507111852 -3330.5369838971505 -0.39866199156875304 -0.67882612373619455 -0.39866199156875304 -10001.372076003599 -3327.3992242887762 -1.7844101119051676 -1.2307144026908645 -1.7844101119051676 -3325.9445716144783 1.3800625914832381 -1.2307144026908645 1.3800625914832381 -9997.9516041463739 -3330.6936830603386 -0.96645887295079813 0.019033355867946966 -0.96645887295079813 -3327.7977049627339 0.81006609426532483 0.019033355867946966 0.81006609426532483 -10000.329502786886 -3333.0861331042565 -1.4610849736555722 -0.18056567317671579 -1.4610849736555722 -3331.6671775262093 -1.1084801508031887 -0.18056567317671579 -1.1084801508031887 -10002.823537338436 -3330.3498431206417 0.11871279425713466 0.010393720969659626 0.11871279425713466 -3329.5499922925005 -0.77772877505640281 0.010393720969659626 -0.77772877505640281 -10001.610168534104 -3330.5051706357913 0.048889200819263845 0.43991523370686991 0.048889200819263845 -3329.5609136747053 -0.91968717248164467 0.43991523370686991 -0.91968717248164467 -10001.73770452152 -3330.6507812396035 0.21853776303734568 0.29553641353140847 0.21853776303734568 -3330.4459112244845 -1.2215903941059878 0.29553641353140847 -1.2215903941059878 -10001.995356559917 -3330.6480283379728 0.18361863220649444 0.47473655535441139 0.18361863220649444 -3330.8160974891825 -0.97333542337855761 0.47473655535441139 -0.97333542337855761 -10002.087214900685 -3330.6734661094488 0.08327324755005816 0.62414580734548508 0.08327324755005816 -3330.97554528828 -0.34746477030967071 0.62414580734548508 -0.34746477030967071 -10002.721784668987 -3330.6465207658816 0.058601115681028139 0.7356565079990105 0.058601115681028139 -3331.1237475388748 -0.56257404639018205 0.7356565079990105 -0.56257404639018205 -10002.752098895746 -3329.9499287983222 0.34527968155989086 0.60287933544395855 0.34527968155989086 -3329.9424176525172 -1.1198005040168937 0.60287933544395855 -1.1198005040168937 -10001.608296293529 -3329.5324697402807 0.076420597595149298 -0.041949873504108837 0.076420597595149298 -3329.0702535826813 -0.6467338718261999 -0.041949873504108837 -0.6467338718261999 -9998.0172486610136 -3329.2403802448393 0.34527968155989042 1.4774222862492934 0.34527968155989042 -3329.2328690990344 0.46220780449857557 1.4774222862492934 0.46220780449857557 -9999.4796506330767 -3330.8129607006786 -0.2318513417346415 0.4774899595986426 -0.2318513417346415 -3330.7429241798804 0.18733896807680139 0.4774899595986426 0.18733896807680139 -10000.847694244931 -3331.1156208785278 -0.71674543502414201 0.8751567730005263 -0.71674543502414201 -3331.0302399896577 0.10807315669444506 0.8751567730005263 0.10807315669444506 -10000.487201454147 -3330.5086873827991 -0.16473746815844015 0.46922453038678213 -0.16473746815844015 -3330.4635147691811 -0.00069606069064320764 0.46922453038678213 -0.00069606069064320764 -10000.193786775095 -3330.1303779270152 0.076420597595149298 1.3298668614938833 0.076420597595149298 -3329.6681617694157 0.42267044730760972 1.3298668614938833 0.42267044730760972 -9999.810973221216 -3329.7030025328991 0.058601115681028028 0.94496961972208737 0.058601115681028028 -3330.1802293058922 -0.17925892119183118 0.94496961972208737 -0.17925892119183118 -9999.9215441967972 -3329.620206390146 0.45678568247501905 0.51111056582703895 0.45678568247501905 -3330.153453756343 0.24557156643271583 0.51111056582703895 0.24557156643271583 -10000.402138061414 -3330.4502488627868 0.09778159548400403 0.25687670824936504 0.09778159548400403 -3330.5454959551998 0.081102611013193382 0.25687670824936504 0.081102611013193382 -10000.842605524289 -3329.7299478764662 0.083273247550058382 0.8334589190690167 0.083273247550058382 -3330.0320270552975 0.035850354890499148 0.8334589190690167 0.035850354890499148 -9999.8912299700405 -3330.3777209164878 0.050598977495549091 0.22928152299391513 0.050598977495549091 -3330.5330038340958 0.13433499398831827 0.22928152299391513 0.13433499398831827 -10000.821350507438 -3330.4428165989189 0.030279896972954357 0.094244780271765194 0.030279896972954357 -3330.4741164836005 0.1314292532424588 0.094244780271765194 0.1314292532424588 -10000.58638398175 -3330.0735161249336 0.21853776303734546 -0.33851997825695435 0.21853776303734546 -3329.8686461098146 0.013743787983912625 -0.33851997825695435 0.013743787983912625 -10000.263561215905 -3330.5433735659844 0.072880614717644787 -0.076187300268429681 0.072880614717644787 -3329.9760236629554 0.20130288363543514 -0.076187300268429681 0.20130288363543514 -10000.723518627032 -3331.0652960467373 -0.22618743414140474 -0.11887560807281261 -0.22618743414140474 -3330.7452846889305 0.14216462349395442 -0.11887560807281261 0.14216462349395442 -10001.046314503708 -3330.1430441703324 0.18361863220649466 0.17588847843762778 0.18361863220649466 -3330.3111133215416 0.2531103025739867 0.17588847843762778 0.2531103025739867 -10000.57226239776 -3330.4243375333645 0.03718984200080433 0.18102427098347107 0.03718984200080433 -3330.4846032966807 0.2516492469716809 0.18102427098347107 0.2516492469716809 -10000.584385918628 -3329.7274778441297 0.11871279425713466 0.64001381203706842 0.11871279425713466 -3328.9276270159885 1.1982342987707852 0.64001381203706842 1.1982342987707852 -9999.7430727045685 -3330.5459275760818 -0.21456831286250289 0.38891853701534274 -0.21456831286250289 -3330.7728592639646 0.2384757027393789 0.38891853701534274 0.2384757027393789 -10000.788419734803 -3331.0062745719392 0.87871949275007966 0.76116996293239936 0.87871949275007966 -3330.1568139548176 0.87573627611891425 0.76116996293239936 0.87573627611891425 -10000.152110428797 -3329.9523931992749 0.12810892429772158 0.29310385420558305 0.12810892429772158 -3331.0819536465856 0.072519802542956313 0.29310385420558305 0.072519802542956313 -10000.717309736256 -3329.8484158540487 0.048889200819263845 0.41176805888835588 0.048889200819263845 -3328.9041588929626 0.8029010542350079 0.41176805888835588 0.8029010542350079 -9999.7674401762924 -3330.2244886498306 -0.052442581762309759 0.18662789473182784 -0.052442581762309759 -3330.6738400024997 0.24301589825154224 0.18662789473182784 0.24301589825154224 -10000.5817328742 -3330.3407465079381 -0.21456831286250289 -0.13158861064948724 -0.21456831286250289 -3330.5676781958209 -0.02955561004273477 -0.13158861064948724 -0.02955561004273477 -10000.172876530378 -3330.0599365071566 -0.052442581762309759 -0.18335192689210089 -0.052442581762309759 -3330.5092878598261 -0.1192123045311746 -0.18335192689210089 -0.1192123045311746 -10000.088076446184 -3330.2733249303947 0.03718984200080433 -0.052930550358723849 0.03718984200080433 -3330.3335906937109 -0.0076987613967389734 -0.052930550358723849 -0.0076987613967389734 -10000.13134810972 -3330.261882090992 0.030279896972954412 -0.12550422797721694 0.030279896972954412 -3330.2931819756732 -0.15398467363411328 -0.12550422797721694 -0.15398467363411328 -10000.043580457968 -3330.093793963676 0.050598977495549313 0.11938646063390479 0.050598977495549313 -3330.2490768812841 0.023198796057272375 0.11938646063390479 0.023198796057272375 -9999.9695696490016 -3330.1663219099755 0.097781595484004127 0.14698164589026419 0.097781595484004127 -3330.2615690023886 -0.030033586919671507 0.14698164589026419 -0.030033586919671507 -9999.9908246658524 -3330.4606439451964 -0.16473746815843993 -0.034115051208573277 -0.16473746815843993 -3330.4154713315784 0.031559205200210272 -0.034115051208573277 0.031559205200210272 -10000.049656462288 -3330.5617225479991 -0.23185134173464195 -0.083182607787421148 -0.23185134173464195 -3330.4916860272015 0.018411592940537957 -0.083182607787421148 0.018411592940537957 -10000.093979786892 -3330.5716151451734 -0.12683969693908936 -0.04558116420503211 -0.12683969693908936 -3330.2842667378263 0.18476276615274401 -0.04558116420503211 0.18476276615274401 -9999.8298175160671 -3330.6609953058951 -0.0013083628405541337 -0.17238922123033262 -0.0013083628405541337 -3330.2500924207379 0.16178436574409716 -0.17238922123033262 0.16178436574409716 -9999.8436189769782 -3329.9654170594695 0.36593783979257366 1.0007291165647985 0.36593783979257366 -3330.5653037447578 0.19068634067298262 1.0007291165647985 0.19068634067298262 -9999.4616586695483 -3330.0618347635655 0.22844344833240016 1.082486547339613 0.22844344833240016 -3329.9189084734917 0.10892890982734116 1.082486547339613 0.10892890982734116 -9999.3241642777557 -3329.2501092549637 -0.077296694504451646 0.6523286432839086 -0.077296694504451646 -3329.8216611163084 0.030981650087142043 0.6523286432839086 0.030981650087142043 -9999.0969210613093 -3330.4381976287054 0.059665910960151392 0.33859289643396551 0.059665910960151392 -3330.3369845575371 -0.24548759972822154 0.33859289643396551 -0.24548759972822154 -9999.8284402959125 -3330.5791342267867 -0.12683969693908936 0.36586176871696807 -0.12683969693908936 -3330.2917858194401 -0.15376243764785613 0.36586176871696807 -0.15376243764785613 -9999.8523747609106 -3330.6479747842345 -0.28540509823575699 0.54371021966107946 -0.28540509823575699 -3329.8415568460737 -0.07518175003133365 0.54371021966107946 -0.07518175003133365 -10000.073119144678 -3330.9960820534839 -0.31569494164879963 0.58966718586043498 -0.31569494164879963 -3331.1227802363069 0.079405140451854095 0.58966718586043498 0.079405140451854095 -10000.480451809548 -3330.6685143875075 -0.0013083628405540226 0.23905371169348655 -0.0013083628405540226 -3330.2576115023498 -0.17674083805832197 0.23905371169348655 -0.17674083805832197 -9999.866176221818 -3329.627575940985 0.0042386820349945009 0.58485429472466421 0.0042386820349945009 -3331.2920446300245 -0.54164067079454981 0.58485429472466421 -0.54164067079454981 -9999.884153461966 -3330.7855907841049 0.069819437294708339 0.33077898870851641 0.069819437294708339 -3330.4128719125729 -0.36247270294279588 0.33077898870851641 -0.36247270294279588 -9999.9342604235226 -3329.2456946800012 -0.15912065637038786 0.75932986205702946 -0.15912065637038786 -3329.7748018229286 -0.89493120915449254 0.75932986205702946 -0.89493120915449254 -9999.4093724449449 -3330.8199076503397 0.069819437294708339 -0.048288789402249677 0.069819437294708339 -3330.4471887788086 0.070999527378262428 -0.048288789402249677 0.070999527378262428 -10000.037211022231 -3330.2975138020565 0.12669543586278967 0.042696436230471591 0.12669543586278967 -3330.3097122349982 0.024665327324328246 0.042696436230471591 0.024665327324328246 -10000.007195955764 -3330.5264955075663 0.059665910960151392 0.09314330724419051 0.059665910960151392 -3330.4252824363984 0.054338687057679635 0.09314330724419051 0.054338687057679635 -10000.093333932495 -3330.3141995032438 0.082194979152801328 0.048869832339732966 0.082194979152801328 -3330.3323825862753 0.10401391823052109 0.048869832339732966 0.10401391823052109 -10000.017034968881 -3330.419578619948 0.17185935144561099 0.13077730073382554 0.17185935144561099 -3330.4210128857831 0.20251093702972867 0.13077730073382554 0.20251093702972867 -9999.7959320390073 -3330.4391228546597 0.17185935144561099 0.41290888085859478 0.17185935144561099 -3330.4405571204952 -0.27021416611887616 0.41290888085859478 -0.27021416611887616 -9999.854564743142 -3329.6188114509259 -0.37583239188285694 0.72963001520747639 -0.37583239188285694 -3329.8676120801947 -0.74186625063862266 0.72963001520747639 -0.74186625063862266 -9999.1131189327662 -3330.8440644108346 0.48704635415461728 0.19659999987493393 0.48704635415461728 -3331.1749024913192 0.067721861783866188 0.19659999987493393 0.067721861783866188 -10000.491308003819 -3330.9401490910877 -1.0327216749014756 0.6307843448685162 -1.0327216749014756 -3331.1462848528199 -0.8529020340547504 0.6307843448685162 -0.8529020340547504 -9999.7631215359634 -3330.6070784120793 0.047802212411477599 0.34677795291895563 0.047802212411477599 -3330.7154653857688 0.017754345974026364 0.34677795291895563 0.017754345974026364 -10000.317202227739 -3330.0751069677158 0.25923755441065199 0.216770573739268 0.25923755441065199 -3330.1596090661137 0.42170642971632333 0.216770573739268 0.42170642971632333 -10000.045245286738 -3330.1776806940175 0.20702881774124535 0.17760060073851491 0.20702881774124535 -3330.4392930223989 -0.081757483583942303 0.17760060073851491 -0.081757483583942303 -10000.140809707385 -3330.4359073238193 0.048641722954350985 -0.20021128028474777 0.048641722954350985 -3330.6616824589346 -0.26599894277205749 -0.20021128028474777 -0.26599894277205749 -10000.535435235888 -3329.7896777500159 0.14051382357429945 0.58716111483636269 0.14051382357429945 -3329.9701433595369 0.051315890415935428 0.58716111483636269 0.051315890415935428 -9999.9265215556679 -3330.1508543630839 0.093443790292780493 0.11346900392982207 0.093443790292780493 -3330.2989331568319 -0.29071776850469178 0.11346900392982207 -0.29071776850469178 -10000.792847404939 -3330.3976540920562 0.07168030976207751 -0.13919294440893282 0.07168030976207751 -3330.5313879937371 -0.16370846502201175 -0.13919294440893282 -0.16370846502201175 -10000.493298311649 -3330.5000846423027 -0.097093238689938355 0.13744583889638307 -0.097093238689938355 -3330.0893534427742 -0.25052326190962049 0.13744583889638307 -0.25052326190962049 -10000.82776004623 -3330.3828697371664 0.1583250349864278 -0.044068380193493795 0.1583250349864278 -3330.5316772713886 -0.16585335682430014 -0.044068380193493795 -0.16585335682430014 -10000.489674542339 -3329.0101623395308 0.61796995449119096 0.37872851387783157 0.61796995449119096 -3329.7393708949089 0.056015679378106142 0.37872851387783157 0.056015679378106142 -9999.6739495868915 -3331.0316493282276 -0.64378282720728053 0.17292551906166409 -0.64378282720728053 -3330.02377541751 -0.85558609159420485 0.17292551906166409 -0.85558609159420485 -9999.7431770983039 -3329.5191830973258 -0.21596936345554635 0.73170893934570813 -0.21596936345554635 -3329.4546616428001 -0.76689951427806591 0.73170893934570813 -0.76689951427806591 -9998.9849742350179 -3330.5481751528428 0.061638309808076421 0.21022961345215663 0.061638309808076421 -3330.5591647625702 -0.096398465547281376 0.21022961345215663 -0.096398465547281376 -10000.263401257134 -3329.9191140655707 -0.36695855266716104 0.40186582687238115 -0.36695855266716104 -3329.8473543488376 -0.64850022239808425 0.40186582687238115 -0.64850022239808425 -9999.4209380154734 -3330.3878623065621 0.061638309808076421 0.12678856079901379 0.061638309808076421 -3330.3988519162895 0.25054115448710945 0.12678856079901379 0.25054115448710945 -9999.7824627182854 -3330.1718310407514 0.1583250349864278 0.23717067208053777 0.1583250349864278 -3330.3206385749736 0.24118085545705981 0.23717067208053777 0.24118085545705981 -9999.8565584530952 -3330.3240246800497 0.048641722954350985 0.01399381121427723 0.048641722954350985 -3330.549799815165 -0.050292235675442498 0.01399381121427723 -0.050292235675442498 -10000.19978730458 -3330.2353947545762 0.07168030976207751 0.07084030688929488 0.07168030976207751 -3330.3691286562571 0.082043443785494219 0.07084030688929488 0.082043443785494219 -10000.006520299212 -3330.1854028229791 0.066233434462835028 -0.17340652990969829 0.066233434462835028 -3330.429105748819 -0.10002057026758848 -0.17340652990969829 -0.10002057026758848 -10000.072475246059 -3330.0246132079437 0.016902310075366911 -0.20208354126225458 0.016902310075366911 -3330.4239767933941 -0.070827345258294372 -0.20208354126225458 -0.070827345258294372 -9999.9460268316143 -3330.3776292881421 0.046303403671833665 -0.14974250312934601 0.046303403671833665 -3330.4884212025327 -0.2832057736832212 -0.14974250312934601 -0.2832057736832212 -10000.121327063971 -3330.3233075108355 0.070662354105562708 -0.10782695848502044 0.070662354105562708 -3330.3259125333452 -0.18953598036750918 -0.10782695848502044 -0.18953598036750918 -10000.067119452349 -3330.4733038363838 0.095834045297918391 -0.23412188167549175 0.095834045297918391 -3330.5293427166825 -0.095782383987170761 -0.23412188167549175 -0.095782383987170761 -10000.169509741372 -3331.130015545024 -0.11968281609593234 -0.98955227787428157 -0.11968281609593234 -3330.7282628025582 -0.0099965317380679153 -0.98955227787428157 -0.0099965317380679153 -10000.469287859067 -3330.5251629366926 -0.11433795880440389 -0.42730755574666546 -0.11433795880440389 -3330.2154036276902 0.070018989522154129 -0.42730755574666546 0.070018989522154129 -9999.397023754469 -3330.1905174404892 0.095834045297918391 -0.39704848790552205 0.095834045297918391 -3330.2465563207879 0.12594267529857461 -0.39704848790552205 0.12594267529857461 -9999.3211505536892 -3330.556617593239 0.27007875650685742 -0.69670776459179251 0.27007875650685742 -3330.5378612106415 -0.067444817808791413 -0.69670776459179251 -0.067444817808791413 -10000.431092565354 -3330.1040547981584 0.22189769524192327 -0.16308906969061354 0.22189769524192327 -3330.142382044789 -0.3390707710091192 -0.16308906969061354 -0.3390707710091192 -10000.339629867949 -3329.9209679767273 0.39982604085406054 -0.2572688233781264 0.39982604085406054 -3329.8483120171595 -0.47458393804117804 -0.2572688233781264 -0.47458393804117804 -10000.099792862855 -3330.1004563569704 0.046303403671833665 -0.30336288531816535 0.046303403671833665 -3330.211248271361 -0.028265139699215069 -0.30336288531816535 -0.028265139699215069 -9999.2898082704542 -3330.3203317507937 0.11948511980280774 -0.28907923774954725 0.11948511980280774 -3330.740712785921 -0.62062438320936053 -0.28907923774954725 -0.62062438320936053 -10000.543281791392 -3330.3729827559978 0.18238199944509789 -0.33874386815500657 0.18238199944509789 -3331.0682954133003 -0.65665840872588888 -0.33874386815500657 -0.65665840872588888 -10000.517792406708 -3330.598849462232 0.070662354105562819 0.033145378352855914 0.070662354105562819 -3330.6014544847417 -0.018579468379357422 0.033145378352855914 -0.018579468379357422 -10000.893745306537 -3330.123496913603 0.46819874645941384 0.088082611425193136 0.46819874645941384 -3329.7479383878308 0.55066117502701672 0.088082611425193136 0.55066117502701672 -10000.12533168974 -3329.3155401562826 0.20153948604433058 0.4430957214162845 0.20153948604433058 -3330.2297446878888 -0.0068096773097749974 0.4430957214162845 -0.0068096773097749974 -9999.8370574481432 -3331.0140641582489 0.032181840481875071 0.53144534473540261 0.032181840481875071 -3330.4738859835284 -0.12317732744395471 0.53144534473540261 -0.12317732744395471 -10000.529460399828 -3330.4183471692095 0.12669543586278967 0.048566255731202546 0.12669543586278967 -3330.4305456021511 0.042745096626276791 0.048566255731202546 0.042745096626276791 -10000.369696057222 -3330.6442039346271 0.082194979152801328 -0.12509315434817836 0.082194979152801328 -3330.6623870176586 0.012015730061648355 -0.12509315434817836 0.012015730061648355 -10001.007048263031 -3330.49002379172 0.066233434462835028 -0.33906255703914212 0.066233434462835028 -3330.7337267175599 -0.14192221346274891 -0.33906255703914212 -0.14192221346274891 -10000.986338152279 -3330.0645180216425 0.20798376812158881 -0.7644906080686269 0.20798376812158881 -3330.3643854344082 -0.062713290955798584 -0.7644906080686269 -0.062713290955798584 -10000.264698728397 -3329.0919849318916 -0.19750770571476362 -1.152556631470361 -0.19750770571476362 -3330.0432505456029 0.0013818560166782845 -1.152556631470361 0.0013818560166782845 -9999.7885271415471 -3330.8141421440828 0.17336104265711927 -0.20093008364892739 0.17336104265711927 -3330.4857924736548 -0.3284532866509835 -0.20093008364892739 -0.3284532866509835 -10001.005384179394 -3329.6010252972942 0.0049017623043068337 -0.92891379469074309 0.0049017623043068337 -3329.9675478231534 -0.30062054307381914 -0.92891379469074309 -0.30062054307381914 -9999.8968615522863 -3331.0438520714988 0.25923755441065233 0.15562909963045968 0.25923755441065233 -3331.1283541698972 0.99276035879165647 0.15562909963045968 0.99276035879165647 -10002.951480598089 -3330.9649004909852 0.20798376812158914 -0.78474283996092709 0.20798376812158914 -3331.2647679037505 0.31622006514635359 -0.78474283996092709 0.31622006514635359 -10002.965846136423 -3329.8154542956745 0.20702881774124532 0.13849162159931439 0.20702881774124532 -3330.0770666240564 0.027244784916092613 0.13849162159931439 0.027244784916092613 -9999.054130512357 -3329.5290046887003 0.11948511980280774 0.88564240202845212 0.11948511980280774 -3329.9493857238276 -0.33119530999101698 0.88564240202845212 -0.33119530999101698 -9998.1693006051137 -3330.916659263095 0.22189769524192327 -0.094526852333729039 0.22189769524192327 -3330.9549865097251 -0.9324569933719431 -0.094526852333729039 -0.9324569933719431 -10002.777443262761 -3329.8361904985832 0.25389772782737152 0.43670285574626178 0.25389772782737152 -3329.7237682146929 0.22293737000729408 0.43670285574626178 0.22293737000729408 -9998.189692680302 -3329.8135096482788 0.27007875650685731 0.48959889150319214 0.27007875650685731 -3329.7947532656808 0.32069785945168405 0.48959889150319214 0.32069785945168405 -9998.2017687304706 -3333.202593323183 0.98545081459894013 -0.85338591073818337 0.98545081459894013 -3331.3586884393176 0.83497355248874261 -0.85338591073818337 0.83497355248874261 -10000.61573814535 -3335.0498434793667 -0.16846795844069762 -1.2469610822892085 -0.16846795844069762 -3334.7601466970914 0.076766257683494654 -1.2469610822892085 0.076766257683494654 -10001.533497826536 -3335.0826426418148 -0.20350361269018574 0.47278921070188451 -0.20350361269018574 -3334.9835811823182 -1.7112768016105471 0.47278921070188451 -1.7112768016105471 -10001.853694349058 -3330.3037608264472 -0.012422499177333297 -1.4528065387723261 -0.012422499177333297 -3332.3204693945713 -3.3811579994271899 -1.4528065387723261 -3.3811579994271899 -9999.7370578376776 -3332.4294711933408 -1.6323336836710629 -0.47444985685658447 -1.6323336836710629 -3332.7022321001873 -1.1947980472350412 -0.47444985685658447 -1.1947980472350412 -10000.363926105805 -3334.5655045370472 -0.017028255716011013 -0.41098241657933654 -0.017028255716011013 -3333.0292926097495 -3.6862649919990362 -0.41098241657933654 -3.6862649919990362 -10001.235837679724 -3332.071755146223 -1.1841843505513208 -0.0095944754598349391 -1.1841843505513208 -3332.2216073162745 -0.5534528963178218 -0.0095944754598349391 -0.5534528963178218 -9999.4399084458983 -3330.6490350715176 0.23072615941921651 0.38982540018332656 0.23072615941921651 -3332.6339429319291 3.2577164451572571 0.38982540018332656 3.2577164451572571 -9999.9017447832848 -3330.2011481271606 1.043881818652133 3.5591277012536109 1.043881818652133 -3330.9617136742222 -1.1481223890347956 3.5591277012536109 -1.1481223890347956 -9999.3717157327701 -3333.4892129011214 -0.87571147187880838 -3.1458790357551338 -0.87571147187880838 -3331.1059760885501 0.99499919061059394 -3.1458790357551338 0.99499919061059394 -10000.624214952144 -3334.5534232713426 0.073105176631602486 -2.4628969430154459 0.073105176631602486 -3335.7745429053757 0.072715099098912384 -2.4628969430154459 0.072715099098912384 -10002.057409248906 -3332.3127628547668 1.2251625488649494 -0.47294537413970494 1.2251625488649494 -3335.483206458206 -0.10482441838862444 -0.47294537413970494 -0.10482441838862444 -10004.357421365983 -3333.1384777826465 -0.61804595743846269 -3.7853193039036084 -0.61804595743846269 -3334.0474941901516 0.25395431105721933 -3.7853193039036084 0.25395431105721933 -10000.877493275622 -3334.3905712554301 1.9289647489660839 0.99075011981221905 1.9289647489660839 -3334.460543764329 0.15763934266306023 0.99075011981221905 0.15763934266306023 -10004.621207792679 -3334.8352397706512 0.64046427395901939 1.6721587912042883 0.64046427395901939 -3333.9260342458415 2.5640045174768811 1.6721587912042883 2.5640045174768811 -9999.9805276093302 -3331.1806335003685 -1.7791421564125387 2.0667715695890365 -1.7791421564125387 -3332.563971743692 2.5551066926092432 2.0667715695890365 2.5551066926092432 -9998.7263604162235 -3336.9185759391748 0.48955158350314093 0.93498890965497305 0.48955158350314093 -3337.1957938007326 0.064161853559209003 0.93498890965497305 0.064161853559209003 -10005.937021472717 -3330.4343727317096 0.14051382357429948 -0.11677270782183768 0.14051382357429948 -3330.6148383412301 1.2266395171363911 -0.11677270782183768 1.2266395171363911 -10001.860606500748 -3330.7667071938286 -0.36695855266716104 -0.036425044213501678 -0.36695855266716104 -3330.694947477095 1.2248278184815575 -0.036425044213501678 1.2248278184815575 -10001.963717400244 -3330.5180156461051 0.093443790292780493 -0.36974277032459213 0.093443790292780493 -3330.6660944398536 0.80256324271158519 -0.36974277032459213 0.80256324271158519 -10001.894331254001 -3335.0387380588759 -0.32430034241656081 -1.5265413460569921 -0.32430034241656081 -3334.7841052695612 -0.38385739470972835 -1.5265413460569921 -0.38385739470972835 -10000.245919937317 -3333.1753616701067 -0.16602229782721545 0.18811280982718293 -0.16602229782721545 -3332.3599660583336 4.0480504916539566 0.18811280982718293 4.0480504916539566 -9999.1740410373186 -3333.5434004847411 0.26715060088089365 -0.090998671954217514 0.26715060088089365 -3333.7568305005998 0.46054332480363835 -0.090998671954217514 0.46054332480363835 -9999.6152668515442 -3325.5507841048175 2.4768869916613356 0.11714530795416067 2.4768869916613356 -3326.5141735751877 0.71197340268736298 0.11714530795416067 0.71197340268736298 -9996.5063321934485 -3330.0234533348694 -1.1755112628701745 -0.27217533200609978 -1.1755112628701745 -3332.8405930363588 -0.80121262141960869 -0.27217533200609978 -0.80121262141960869 -9998.5062206980165 -3330.980488901821 -0.61421530097883126 -0.73894111791286266 -0.61421530097883126 -3333.7941567501894 -0.2496896285867396 -0.73894111791286266 -0.2496896285867396 -9999.6837541864479 -3329.8205904941501 -0.37583239188285694 -0.96734271886180068 -0.37583239188285694 -3330.0693911234189 -0.42470471641422591 -0.96734271886180068 -0.42470471641422591 -9999.7184560624391 -3328.9386615194148 -0.21596936345554651 -0.36800778698568593 -0.21596936345554651 -3328.8741400648892 0.35274921273412474 -0.36800778698568593 0.35274921273412474 -9997.243409501285 -3330.1424179153487 -0.23229077122042088 -0.81552244474405677 -0.23229077122042088 -3330.9736266772875 0.67246068459707864 -0.81552244474405677 0.67246068459707864 -9998.7691039216061 -3328.1447530916553 0.580432869487155 -0.15124737108191288 0.580432869487155 -3329.3236099948872 1.1837399290043962 -0.15124737108191288 1.1837399290043962 -9997.4277393034808 -3329.8690931967622 -0.65370278179431462 2.2513074633191716 -0.65370278179431462 -3332.2672331653671 3.3569490109955815 2.2513074633191716 3.3569490109955815 -9998.5947301223787 -3328.9114268562571 -1.3555389659277126 2.0797141684644904 -1.3555389659277126 -3329.0026762827197 0.65087186557794707 2.0797141684644904 0.65087186557794707 -9997.5391743165892 -3335.0543792788567 -0.72722516304299401 0.7216484092344988 -0.72722516304299401 -3332.5262762216307 1.1284785486134563 0.7216484092344988 1.1284785486134563 -10004.017706691129 -3327.0823670107998 -1.0300474108401771 1.2753720163145772 -1.0300474108401771 -3328.9958954133958 0.58215378012914698 1.2753720163145772 0.58215378012914698 -9999.612817152929 -3332.237837635807 -1.7536004361295732 1.2795355928400451 -1.7536004361295732 -3330.8958005855902 0.58273619793936016 1.2795355928400451 0.58273619793936016 -10001.376661102229 -3333.6296418978891 -1.3681521595878738 0.43763922024752278 -1.3681521595878738 -3332.075760980736 1.5133347179113983 0.43763922024752278 1.5133347179113983 -10003.548893535663 -3330.8243134443464 -0.87825581693587373 -0.1301654542166446 -0.87825581693587373 -3328.4804015819705 -1.1403657294215652 -0.1301654542166446 -1.1403657294215652 -10000.41943030346 -3330.5331902686767 -0.0050342962004337188 -0.43257938041915622 -0.0050342962004337188 -3329.689949921124 0.8877120970098531 -0.43257938041915622 0.8877120970098531 -10001.654088779962 -3330.4231270733649 -0.21164976883316775 -0.054447605098118856 -0.21164976883316775 -3329.7327676740097 0.9406066887659108 -0.054447605098118856 0.9406066887659108 -10001.637277419357 -3329.575533945108 -0.21164976883316775 0.38384326598685448 -0.21164976883316775 -3328.8851745457523 -0.93272135211464047 0.38384326598685448 -0.93272135211464047 -9999.0944980345866 -3329.6985485181335 0.068164124161108175 -0.79752050107890682 0.068164124161108175 -3329.0517716214499 -1.2577448304245991 -0.79752050107890682 -1.2577448304245991 -9999.706302085413 -3329.5885314026395 -0.063471261971174808 -0.19047256254816602 -0.063471261971174808 -3330.4631147638252 -0.18953358206101711 -0.19047256254816602 -0.18953358206101711 -10000.409819138484 -3331.512370112202 0.008238777126123642 -0.33516295871595503 0.008238777126123642 -3329.5619328394846 -0.76604423344156203 -0.33516295871595503 -0.76604423344156203 -10000.287297788438 -3330.4880866291041 0.0064086107337348597 -0.047496674784156312 0.0064086107337348597 -3330.7727482430555 -0.21991857920147595 -0.047496674784156312 -0.21991857920147595 -10000.576246508241 -3330.1812473877922 -0.053345768263268312 -0.21674543944936886 -0.053345768263268312 -3330.6982766629239 -0.24359377630298695 -0.21674543944936886 -0.24359377630298695 -10000.480918802878 -3329.9013575958797 -0.0050342962004337188 -0.40301657420241099 -0.0050342962004337188 -3329.0581172483267 -0.7755358697572774 -0.40301657420241099 -0.7755358697572774 -9999.7585907615685 -3329.8134563135873 0.075870681740339396 -0.26432918484078982 0.075870681740339396 -3330.8896919863646 -0.089451690924761351 -0.26432918484078982 -0.089451690924761351 -10000.572694671857 -3330.3686155848163 -0.179783080061585 0.054211379107073299 -0.179783080061585 -3330.6065462958777 -0.018650000096386066 0.054211379107073299 -0.018650000096386066 -10000.14293681136 -3330.0364908081865 -0.053345768263268756 0.15372369616488868 -0.053345768263268756 -3330.5535200833183 0.10298562305843006 0.15372369616488868 0.10298562305843006 -10000.046649064061 -3330.2770479326891 0.0064086107337348597 0.23374237748987525 0.0064086107337348597 -3330.5617095466405 0.18711563307988399 0.23374237748987525 0.18711563307988399 -9999.9431304189966 -3330.9559266615074 0.85125477840807584 -0.81735441304044798 0.85125477840807584 -3330.2864530227885 -1.0047653019528298 -0.81735441304044798 -1.0047653019528298 -9999.9307569095654 -3330.4588563713542 -0.20127245268958083 -0.067186681989824137 -0.20127245268958083 -3330.4341662885572 -0.082666256395896198 -0.067186681989824137 -0.082666256395896198 -9999.9329565212684 -3330.6012711093272 -0.11433795880440389 -0.094890879379818216 -0.11433795880440389 -3330.2915118003248 -0.19920823037433877 -0.094890879379818216 -0.19920823037433877 -9999.6253482723769 -3330.3084749263808 -0.24637762752621439 0.018846234428565367 -0.24637762752621439 -3330.4057106582923 -0.069518825538125384 0.018846234428565367 -0.069518825538125384 -9999.8882472524565 -3330.2498245141778 0.016902310075366911 -0.50533110630749434 0.016902310075366911 -3330.6491880996282 -0.22732424609239388 -0.50533110630749434 -0.22732424609239388 -10000.621660750317 -3330.5495592617567 -0.66216522488079832 -0.84916308468837087 -0.66216522488079832 -3330.732938024174 -0.11867574263942515 -0.84916308468837087 -0.11867574263942515 -10000.325342593656 -3329.0898936293243 0.21553019120297634 -1.4885387604981588 0.21553019120297634 -3329.1888895596385 -0.59368209302010655 -1.4885387604981588 -0.59368209302010655 -9999.1898577857319 -3330.5677200870896 -0.179783080061585 -0.44055142447359685 -0.179783080061585 -3330.805650798151 -0.30485117678654206 -0.44055142447359685 -0.30485117678654206 -10000.74025031818 -3330.5833576226123 -0.24637762752621439 -0.51841072904426255 -0.24637762752621439 -3330.6805933545238 -0.25716434843388924 -0.51841072904426255 -0.25716434843388924 -10000.712895341152 -3330.1158756546138 0.25389772782737152 -1.5153534838400446 0.25389772782737152 -3330.003453370723 -0.01581506555947243 -1.5153534838400446 -0.01581506555947243 -9999.028748148392 -3330.5768633377074 -0.20127245268958083 -0.59521448439909364 -0.20127245268958083 -3330.5521732549105 -0.079867670072417241 -0.59521448439909364 -0.079867670072417241 -10000.286977420328 -3330.031514248657 0.025088099578163464 -1.5097902225345479 0.025088099578163464 -3329.5612800694144 -0.59692971194817801 -1.5097902225345479 -0.59692971194817801 -9999.5183605680104 -3329.9365473336557 0.29643035594667999 -1.1671231792158778 0.29643035594667999 -3330.6213920236223 -0.42923148363297514 -1.1671231792158778 -0.42923148363297514 -9999.1384007313773 -3331.0728993925404 -0.10025977949225751 -0.85833741413853204 -0.10025977949225751 -3330.1485638862114 0.23250990787028059 -0.85833741413853204 0.23250990787028059 -10000.31008409186 -3329.9736165351505 0.025088099578163464 -0.13381510621570669 0.025088099578163464 -3329.5033823559074 0.54697222255163069 -0.13381510621570669 0.54697222255163069 -9999.344667427491 -3330.5400768243289 0.068164124161108508 -0.25284171940961642 0.068164124161108508 -3329.8932999276453 0.66934794467852043 -0.25284171940961642 0.66934794467852043 -10002.230887004 -3330.4481551148274 0.0049017623043070557 -0.68674920954344998 0.0049017623043070557 -3330.8146776406866 0.95943666522634885 -0.68674920954344998 0.95943666522634885 -10002.438251004884 -3330.0908459603293 0.21553019120297634 -0.69515708782364527 0.21553019120297634 -3330.1898418906444 0.94025477034779215 -0.69515708782364527 0.94025477034779215 -10002.19271477875 -3332.6906150479631 0.86786647743743306 -2.4073063961417036 0.86786647743743306 -3330.006064232763 0.19954043967096025 -2.4073063961417036 0.19954043967096025 -10000.149587524907 -3333.2023501132817 0.50103183496985459 -2.1727833138175408 0.50103183496985459 -3330.4555031217292 0.2608639447588943 -2.1727833138175408 0.2608639447588943 -10000.348105215366 -3327.5370965700827 -1.7352830716295091 1.1456811476619397 -1.7352830716295091 -3326.5516199829003 -1.7716104785817977 1.1456811476619397 -1.7716104785817977 -9997.9558210448595 -3329.5227838252654 -0.51953652367212366 0.21884084812596094 -0.51953652367212366 -3327.7411538752335 -0.48260409517909864 0.21884084812596094 -0.48260409517909864 -9997.5027692295171 -3332.6086747302438 1.3822093725161302 -0.66682859492843871 1.3822093725161302 -3332.2587480048646 1.1797618573502984 -0.66682859492843871 1.1797618573502984 -10000.692273388504 -3332.5870428606081 1.0493689649303051 -0.42321211544511117 1.0493689649303051 -3330.8899934435799 0.27963639018077568 -0.42321211544511117 0.27963639018077568 -9999.0560438804405 -3331.2918634784291 0.20379939394584767 -0.51945510102765802 0.20379939394584767 -3329.9807219725353 0.51352326709803886 -0.51945510102765802 0.51352326709803886 -9999.7517882693555 -3328.9639103153199 0.66362491616196817 2.0619638249179388 0.66362491616196817 -3328.3282935737902 0.56437045805614616 2.0619638249179388 0.56437045805614616 -10000.072994283377 -3328.76960867855 1.1485188385376801 2.6459162480412424 1.1485188385376801 -3329.6210719064834 0.24374205087245268 2.6459162480412424 0.24374205087245268 -9997.7844549506517 -3329.5852380809688 -0.01059137959441081 -0.66921703753268957 -0.01059137959441081 -3331.0661823172959 0.50334078550349659 -0.66921703753268957 0.50334078550349659 -9999.3964939062498 -3329.308495562012 -0.1213339322901778 -0.75731480955255392 -0.1213339322901778 -3329.722721794355 -0.024680545969772538 -0.75731480955255392 -0.024680545969772538 -9998.7567202311493 -3330.5711872762258 -0.027876392860456622 0.098125828786578495 -0.027876392860456622 -3330.2841841511045 -0.20146561631453608 0.098125828786578495 -0.20146561631453608 -9999.6159954017967 -3326.9433569135977 -1.1871695348886293 -1.286532015418743 -1.1871695348886293 -3328.6681643911174 -0.49613409236462758 -1.286532015418743 -0.49613409236462758 -9999.6095361072967 -3330.631382462791 -0.20744486210808688 0.093360145649967308 -0.20744486210808688 -3329.7106596825697 -0.97527237074450568 0.093360145649967308 -0.97527237074450568 -10001.806693980236 -3330.8165352102646 -0.41263106971054864 0.10080273482617486 -0.41263106971054864 -3330.3220006496708 -1.2011262354888004 0.10080273482617486 -1.2011262354888004 -10002.005817408879 -3329.0540586358375 -1.4862633033521735 -1.4800410505877384 -1.4862633033521735 -3329.0501857563113 -0.51742002677705989 -1.4800410505877384 -0.51742002677705989 -9998.776008638175 -3331.9147572174284 -1.7056953486685666 -0.97745601014958083 -1.7056953486685666 -3333.096360814156 -2.1551529729632648 -0.97745601014958083 -2.1551529729632648 -10000.589917900919 -3330.3702633594885 -0.7984116581899674 -1.4039597279564586 -0.7984116581899674 -3332.8283439926568 -2.8261946141671888 -1.4039597279564586 -2.8261946141671888 -10000.049599378175 -3328.4101372894188 0.39473823371393868 -0.29059585064169369 0.39473823371393868 -3329.5590285065691 -1.4359245526657105 -0.29059585064169369 -1.4359245526657105 -9998.7422389891344 -3329.4907036834329 -0.40627251878342829 -0.17746681780555296 -0.40627251878342829 -3330.5934854762663 -1.5443298245031181 -0.17746681780555296 -1.5443298245031181 -9998.0317124204175 -3330.3682395919477 -0.057111424593277116 -0.017723502947308845 -0.057111424593277116 -3333.0752663918538 -1.9858136929512777 -0.017723502947308845 -1.9858136929512777 -9998.8715416264422 -3330.4392474247106 -0.40487167352639003 0.47056944746555018 -0.40487167352639003 -3333.422577210225 -1.711203757051976 0.47056944746555018 -1.711203757051976 -10000.302594551758 -3329.5816713372815 1.0290169751212508 1.6111256484070999 1.0290169751212508 -3330.9495996722244 1.3354513994266437 1.6111256484070999 1.3354513994266437 -10000.882761063476 -3327.6294302088236 1.5117791219012044 0.68975160270110791 1.5117791219012044 -3327.6711055175178 -0.71427776999826165 0.68975160270110791 -0.71427776999826165 -9996.8357990620771 -3329.0288104059819 -0.1213339322901778 1.1947415300337525 -0.1213339322901778 -3329.4430366383253 0.21407188959699397 1.1947415300337525 0.21407188959699397 -9997.9176647630593 -3328.9651278908696 -0.15810843648671688 1.0402585747797275 -0.15810843648671688 -3329.3360833343249 0.47828833968969775 1.0402585747797275 0.47828833968969775 -9997.8750058082805 -3329.6524284654661 -0.33705992402097429 0.13057094301757388 -0.33705992402097429 -3329.381717247009 -0.77154718898827923 0.13057094301757388 -0.77154718898827923 -9999.0956748211429 -3329.3678423803012 -0.39328018742380599 0.59518461601874151 -0.39328018742380599 -3329.8508084375057 -0.32163737135718407 0.59518461601874151 -0.32163737135718407 -9998.1043657064347 -3330.6234108329495 0.021340149923654517 -0.22060796796631621 0.021340149923654517 -3330.6413757903642 -0.025720751762492 -0.22060796796631621 -0.025720751762492 -10000.594217313041 -3329.531936458925 -0.3370599240209744 -0.99055904089800606 -0.3370599240209744 -3329.2612252404679 0.48511417592180806 -0.99055904089800606 0.48511417592180806 -9998.7341988015196 -3331.1084739787761 0.42077731628413284 -0.001933420249770279 0.42077731628413284 -3331.029116093458 -0.63007333667133025 -0.001933420249770279 -0.63007333667133025 -10000.81241817527 -3330.3472558389253 0.15192967345750788 -0.38956090622832562 0.15192967345750788 -3330.3025492421853 -0.025428667640682079 -0.38956090622832562 -0.025428667640682079 -9999.3743333836483 -3329.6623245301766 -0.39328018742380599 -0.84414367625413433 -0.39328018742380599 -3330.1452905873812 0.080464869377891546 -0.84414367625413433 0.080464869377891546 -9998.9878121560614 -3330.4950791035908 -0.027876392860456622 -0.23429084758026875 -0.027876392860456622 -3330.2080759784694 0.06776160358195682 -0.23429084758026875 0.06776160358195682 -9999.3876708838889 -3330.4215904620228 -0.8416025228563172 -0.46112964687836211 -0.8416025228563172 -3330.8074589171092 0.76885106623194588 -0.46112964687836211 0.76885106623194588 -9999.3431707214531 -3329.3387022127508 -0.15810843648671688 -0.76691498018681159 -0.15810843648671688 -3329.7096576562062 0.67043626569602566 -0.76691498018681159 0.67043626569602566 -9998.9957287739235 -3330.5714929404849 0.015894834987954951 -0.28728258934552287 0.015894834987954951 -3330.2714222164859 0.15839483797572029 -0.28728258934552287 0.15839483797572029 -9999.4226109026149 -3330.6723751538138 0.015894834987954951 0.012032500934765267 0.015894834987954951 -3330.3723044298149 -0.20596543995179672 0.012032500934765267 -0.20596543995179672 -9999.7252575426064 -3330.302302301191 0.021340149923654517 -0.20870375053254975 0.021340149923654517 -3330.3202672586058 -0.37486337778500456 -0.20870375053254975 -0.37486337778500456 -9999.6308917177666 -3330.452602724703 0.15192967345750788 -0.18896828718698089 0.15192967345750788 -3330.4078961279629 -0.42940643463569472 -0.18896828718698089 -0.42940643463569472 -9999.6903740409834 -3330.1860947226696 0.1345233867743465 -0.2545825761371816 0.1345233867743465 -3330.2639755267655 -0.28718810415136886 -0.2545825761371816 -0.28718810415136886 -9999.8916472956334 -3330.2539114848441 -0.016317980750551908 -0.25717158104731652 -0.016317980750551908 -3330.5079123972364 -0.20862179463438224 -0.25717158104731652 -0.20862179463438224 -9999.969585703795 -3330.005844362267 -0.41263106971054908 -0.33195590960713162 -0.41263106971054908 -3329.5113098016732 0.74170079264536071 -0.33195590960713162 0.74170079264536071 -9999.5737448648815 -3330.4173031138098 0.1345233867743465 0.027244168693869142 0.1345233867743465 -3330.4951839179053 0.13847020862215231 0.027244168693869142 0.13847020862215231 -10000.585272469047 -3330.91701302909 -0.81000027616375747 -0.31623422280972591 -0.81000027616375747 -3329.9405833365049 0.76133264070085716 -0.31623422280972591 0.76133264070085716 -9999.908855415295 -3329.4846419982669 0.56543746890566959 -0.2006098690253566 0.56543746890566959 -3329.7757291634489 -0.00074889951008572098 -0.2006098690253566 -0.00074889951008572098 -10000.093113447643 -3330.4851198759834 -0.016317980750551908 0.024655163781915235 -0.016317980750551908 -3330.7391207883757 0.21703651813913893 0.024655163781915235 0.21703651813913893 -10000.663210877206 -3329.8206916147933 -0.20744486210808644 -0.33939849878152017 -0.20744486210808644 -3328.8999688345721 0.96755465739067859 -0.33939849878152017 0.96755465739067859 -9999.3746214362382 -3331.6394497262004 0.011998713069332201 0.28267082816455513 0.011998713069332201 -3329.4757743538139 0.78219469206487702 0.28267082816455513 0.78219469206487702 -10000.358102509543 -3329.9613512707492 -0.085948830446001323 -0.25116267669000081 -0.085948830446001323 -3330.4931551454574 -0.13008871091415131 -0.25116267669000081 -0.13008871091415131 -10000.059396958488 -3330.4284531315225 -0.0032203834030346545 5.6082664741552435e-05 -0.0032203834030346545 -3330.3121975651866 -0.0024763891306065489 5.6082664741552435e-05 -0.0024763891306065489 -10000.051741344523 -3330.3141436495425 0.022881942764210628 -0.042261642736775684 0.022881942764210628 -3330.2904083391095 -0.057352608506334946 -0.042261642736775684 -0.057352608506334946 -9999.9870504523969 -3330.3560866498756 -0.023322078378309685 -0.04875365058069292 -0.023322078378309685 -3330.2810456959669 -0.021213861989963334 -0.04875365058069292 -0.021213861989963334 -9999.9584833886547 -3330.4006173005564 -0.046487423151679252 -0.035045034044742351 -0.046487423151679252 -3330.3279930705667 -0.0040957575279207958 -0.035045034044742351 -0.0040957575279207958 -9999.981352894978 -3330.3549831536948 -0.012781218297589714 -0.049453350893600145 -0.012781218297589714 -3330.2749376737793 1.9342674931976944e-05 -0.049453350893600145 1.9342674931976944e-05 -9999.9566805090653 -3330.4300254965592 -0.012781218297589048 -0.097984219348290935 -0.012781218297589048 -3330.3499800166428 -0.074943835115846014 -0.097984219348290935 -0.074943835115846014 -10000.181807537661 -3330.43112899274 -0.023322078378309907 -0.097284519042659667 -0.023322078378309907 -3330.3560880388331 -0.096177039777103346 -0.097284519042659667 -0.096177039777103346 -10000.183610417251 -3330.1736967106326 0.1221240931278296 -0.2215801933007242 0.1221240931278296 -3330.3815993526941 -0.2459776555733697 -0.2215801933007242 -0.2459776555733697 -9999.9179537491036 -3330.4807581943696 -0.056035645612274587 -0.12086194608855294 -0.056035645612274587 -3330.3397061970691 -0.15447252141530043 -0.12086194608855294 -0.15447252141530043 -10000.109930539162 -3330.4549055839871 -0.023129342307347089 -0.036185347817081492 -0.023129342307347089 -3330.5080105979514 -0.28694253810863302 -0.036185347817081492 -0.28694253810863302 -10000.145543486789 -3330.4130636701475 -0.035112151483184972 -0.095552683933419758 -0.035112151483184972 -3330.3674356534921 -0.12286855961247056 -0.095552683933419758 -0.12286855961247056 -10000.099939272215 -3330.3226683874163 -0.024176593568073806 -0.085130743694207922 -0.024176593568073806 -3330.3242910683457 -0.1180878249961097 -0.085130743694207922 -0.1180878249961097 -9999.7738652210246 -3330.3885806510962 0.18620391506237016 -0.083186750582171953 0.18620391506237016 -3330.1316948356962 -0.23928663719379983 -0.083186750582171953 -0.23928663719379983 -9999.6053181995158 -3330.3331823309582 -0.030669251587841506 -0.048318189426936442 -0.030669251587841506 -3330.3156931609292 -0.051925093907357223 -0.048318189426936442 -0.051925093907357223 -9999.7743442300562 -3330.3195590666774 -0.038285488139737978 -0.029853041431124439 -0.038285488139737978 -3330.3386914776083 -0.083506544733609189 -0.029853041431124439 -0.083506544733609189 -9999.7766879931551 -3330.4043853058356 -0.053419280822434079 -0.040323768460439169 -0.053419280822434079 -3330.3717300101725 0.010212846767444717 -0.040323768460439169 0.010212846767444717 -9999.8885362182373 -3330.3661721766784 -0.030669251587841395 -0.054897729469303158 -0.030669251587841395 -3330.3486830066486 0.0075171544426666514 -0.054897729469303158 0.0075171544426666514 -9999.8733137672098 -3330.3556212002804 -0.024176593568073862 -0.077107264778533136 -0.024176593568073862 -3330.3572438812098 -0.055897658843605313 -0.077107264778533136 -0.055897658843605313 -9999.8727236596096 -3330.4109555734376 0.018396941943718076 -0.012105437659556628 0.018396941943718076 -3330.4171350728702 -0.09470729942950129 -0.012105437659556628 -0.09470729942950129 -10000.04293511681 -3330.328940849322 -0.035112151483185416 -0.08185946784215048 -0.035112151483185416 -3330.2833128326674 -0.042763957474107883 -0.08185946784215048 -0.042763957474107883 -9999.8475708097358 -3330.3466638935079 -0.00049543030159820978 -0.04136106523219496 -0.00049543030159820978 -3330.3431591722237 -0.038333220625645481 -0.04136106523219496 -0.038333220625645481 -9999.9145838918485 -3330.3647177876483 -0.00049543030159820978 -0.029188816595706157 -0.00049543030159820978 -3330.3612130663641 -0.036416063387150643 -0.029188816595706157 -0.036416063387150643 -9999.9687455742751 -3330.352326312197 -0.0082352056838631005 -0.030383596604224294 -0.0082352056838631005 -3330.3395605803853 -0.033114040378677601 -0.030383596604224294 -0.033114040378677601 -9999.960234583923 -3330.3717861499827 -0.0082352056838631005 -0.030800165317486972 -0.0082352056838631005 -3330.359020418171 -0.043040532067607273 -0.030800165317486972 -0.043040532067607273 -10000.018614097276 -3330.3789517919504 -0.0089155920849310899 -0.013311418435478117 -0.0089155920849310899 -3330.3597540134451 -0.0099987439361939323 -0.013311418435478117 -0.0099987439361939323 -9999.9728175537384 -3330.360546601165 -0.0089155920849310899 -0.026332629080570769 -0.0089155920849310899 -3330.3413488226597 -0.01132280529691343 -0.026332629080570769 -0.01132280529691343 -9999.9176019813749 -3330.3563306876185 -0.011278702299923893 -0.021716248606026056 -0.011278702299923893 -3330.3473393970835 -0.019218327879571007 -0.021716248606026056 -0.019218327879571007 -9999.9180456465911 -3330.3880104495784 -0.017329707678357675 -0.0056962930430017877 -0.017329707678357675 -3330.3828968876169 -0.0069894894077151548 -0.0056962930430017877 -0.0069894894077151548 -9999.9887227975123 -3330.3774384847238 -0.0081837203935543057 -0.014436026493058307 -0.0081837203935543057 -3330.3612458113967 -0.0099010631720375386 -0.014436026493058307 -0.0099010631720375386 -9999.9719339348012 -3330.3943349934852 -0.013792718203767707 -0.0066549220173328649 -0.013792718203767707 -3330.3724365185371 -0.0053499198666031589 -0.0066549220173328649 -0.0053499198666031589 -9999.9876888412182 -3330.3780776024432 -0.010556764551097497 -0.016473536157718627 -0.010556764551097497 -3330.3566537436163 -0.018850065730475762 -0.016473536157718627 -0.018850065730475762 -10000.002604342488 -3330.3790726830084 -0.004649097985469447 -0.015823695042854524 -0.004649097985469447 -3330.3673512885252 -0.021828837881912477 -0.015823695042854524 -0.021828837881912477 -9999.9826019560933 -3330.3891885575158 -0.0039171806162235923 -0.011047998643334722 -0.0039171806162235923 -3330.3775005572006 -0.03384466686839005 -0.011047998643334722 -0.03384466686839005 -10000.010593784646 -3330.3686245299159 -0.0040485262633447316 -0.014372370849741856 -0.0040485262633447316 -3330.3401743144987 -0.0096304640210291836 -0.014372370849741856 -0.0096304640210291836 -10000.008144299762 -3330.3705904766193 -0.003803129155930618 -0.014149769736832241 -0.003803129155930618 -3330.3460243848822 -0.016385548948164796 -0.014149769736832241 -0.016385548948164796 -10000.010098304032 -3330.3625830944311 -0.0022397282129182905 -0.021343527689168695 -0.0022397282129182905 -3330.338538982096 -0.024931279214797541 -0.021343527689168695 -0.024931279214797541 -9999.9942020251037 -3330.364776625298 -0.0088597453019339523 -0.021150853775907308 -0.0088597453019339523 -3330.3536140761571 -0.020768874460372899 -0.021150853775907308 -0.020768874460372899 -9999.9960672146262 -3330.3677599873408 -0.0064550665911000671 -0.020372913004393922 -0.0064550665911000671 -3330.3584175137294 -0.018449314400641015 -0.020372913004393922 -0.018449314400641015 -10000.046204967977 -3330.3472770933386 0.00045743290099498068 -0.026170929395448184 0.00045743290099498068 -3330.3336828959855 -0.027037499647121876 -0.026170929395448184 -0.027037499647121876 -9999.9867095365917 -3330.3665535147211 0.00045743290099520273 -0.02000779928494012 0.00045743290099520273 -3330.3529593173698 -0.029529107141570421 -0.02000779928494012 -0.029529107141570421 -10000.044538800732 -3330.3484835659583 -0.0064550665911007332 -0.026536043122177944 -0.0064550665911007332 -3330.3391410923505 -0.01595770690619247 -0.026536043122177944 -0.01595770690619247 -9999.9883757038406 -3330.3550778765366 -0.0066300178553824196 -0.016503529743204126 -0.0066300178553824196 -3330.3462358449433 -0.014175527259794762 -0.016503529743204126 -0.014175527259794762 -10000.009824073481 -3330.5576140498697 -0.051172730971030145 0.050040679897392693 -0.051172730971030145 -3330.0337552929441 -0.2709718745045393 0.050040679897392693 -0.2709718745045393 -9999.6119299824022 -3330.34150006444 -0.0382854881397377 -0.040429995980957756 -0.0382854881397377 -3330.3606324753709 -0.035602515885329922 -0.040429995980957756 -0.035602515885329922 -9999.8425109864365 -3330.3572312776632 -0.035442080562241352 -0.043115024163853377 -0.035442080562241352 -3330.4050697973289 -0.012635130726266652 -0.043115024163853377 -0.012635130726266652 -9999.8851752401242 -3330.3709925302555 -0.011278702299923893 -0.0087873310749273514 -0.011278702299923893 -3330.3620012397205 -0.017977250492549501 -0.0087873310749273514 -0.017977250492549501 -9999.962031174502 -3330.3746542597 -0.011323982822991518 -0.010959048613585765 -0.011323982822991518 -3330.3659462893829 -0.014022066783581977 -0.010959048613585765 -0.014022066783581977 -9999.9732912396576 -3330.3737848337751 -0.016417149962276778 -0.027781712068644993 -0.016417149962276778 -3330.3785023012988 -0.0038449968269560486 -0.027781712068644993 -0.0038449968269560486 -9999.9959446963476 -3330.3892708757667 -0.010408753271785143 -0.028313370139585459 -0.010408753271785143 -3330.3829483290065 -0.0032138163333002012 -0.028313370139585459 -0.0032138163333002012 -10000.000927713772 -3330.3582665245631 -0.014783195791679915 -0.032342611648346065 -0.014783195791679915 -3330.3568415692062 -0.021220221191470046 -0.032342611648346065 -0.021220221191470046 -9999.9575597554503 -3330.3475294964901 -0.012017824182301462 -0.012177547767350916 -0.012017824182301462 -3330.3590262689304 -0.014891965047354461 -0.012177547767350916 -0.014891965047354461 -9999.986276240903 -3330.3535740073239 -0.01294405688818201 -0.017159766859549563 -0.01294405688818201 -3330.3740574252079 -0.0025359089086123277 -0.017159766859549563 -0.0025359089086123277 -10000.00176348885 -3330.3556202929449 -0.011503319228861608 -0.013992038413562113 -0.011503319228861608 -3330.3766490787402 -0.0044760613909602398 -0.013992038413562113 -0.0044760613909602398 -10000.002922973639 -3330.3425560237429 -0.012985062809202086 -0.028513281366031151 -0.012985062809202086 -3330.3673364487131 -0.003956794230361993 -0.028513281366031151 -0.003956794230361993 -9999.9853460306913 -3330.3373748212725 -0.00037211313458046513 -0.019503095416439464 -0.00037211313458046513 -3330.3707511276298 -0.0078820236594765447 -0.019503095416439464 -0.0078820236594765447 -9999.9968871179444 -3330.3410732246266 -0.012362174844082974 -0.0275014462749823 -0.012362174844082974 -3330.3586918547699 -0.0055064699918148108 -0.0275014462749823 -0.0055064699918148108 -9999.9845785693906 -3330.3674343799248 -0.015990313939809875 -0.042376336987217655 -0.015990313939809875 -3330.3684175158669 -0.0077796301438866067 -0.042376336987217655 -0.0077796301438866067 -9999.9936002734903 -3330.3740214337467 -0.0083797278533717656 -0.035335776025021914 -0.0083797278533717656 -3330.3631009216388 -0.017666758787527215 -0.035335776025021914 -0.017666758787527215 -9999.9630633208581 -3330.4078197173749 0.0018634285082137492 -0.078140779527529958 0.0018634285082137492 -3330.3849952811725 0.0078580174686067039 -0.078140779527529958 0.0078580174686067039 -10000.001188340968 -3330.3706873702649 -0.0077931118163290791 -0.10568109699488559 -0.0077931118163290791 -3330.3713090508336 -0.034839385478335316 -0.10568109699488559 -0.034839385478335316 -9999.852476956763 -3330.3292726943 -0.023560839433357572 -0.081140821887856873 -0.023560839433357572 -3330.3612142500024 -0.06397341689626046 -0.081140821887856873 -0.06397341689626046 -9999.8395995875653 -3330.3833091452598 -0.025933397254568558 -0.13021513491185033 -0.025933397254568558 -3330.3726166415145 -0.02834449401780148 -0.13021513491185033 -0.02834449401780148 -9999.9675597913265 -3330.3647732966383 -0.015990313939809653 -0.065108904898806941 -0.015990313939809653 -3330.3657564325822 -0.0076133268057674286 -0.065108904898806941 -0.0076133268057674286 -9999.9856170236308 -3330.3356498645971 0.0019691470661854504 -0.048145720025786432 0.0019691470661854504 -3330.3740355533373 -0.017308151149336481 -0.048145720025786432 -0.017308151149336481 -10000.016969569613 -3330.3530375908649 -0.012362174844083085 -0.043922477160776907 -0.012362174844083085 -3330.3706562210064 -0.0076731638218916487 -0.043922477160776907 -0.0076731638218916487 -10000.020471668093 -3330.27849395257 -0.007710597239091288 -0.09344881108518166 -0.007710597239091288 -3330.3323867908475 -0.022725915445334977 -0.09344881108518166 -0.022725915445334977 -9999.9312985304896 -3330.2981496625907 -0.0153279416539851 -0.081930328924499918 -0.0153279416539851 -3330.3446703793961 -0.01018395347182377 -0.081930328924499918 -0.01018395347182377 -9999.9636896018274 -3330.3579354284739 -0.011466432317000841 -0.038924637887248537 -0.011466432317000841 -3330.3720943429307 -0.01073421227374638 -0.038924637887248537 -0.01073421227374638 -10000.022055657977 -3330.3435830214512 -0.007710597239091288 -0.035826437122523203 -0.007710597239091288 -3330.3974758597287 0.0089788934765238082 -0.035826437122523203 0.0089788934765238082 -10000.126565737137 -3330.3955915480665 -0.0092602785815389943 -0.020022222020998015 -0.0092602785815389943 -3330.3920989690851 -0.00070078317730803974 -0.020022222020998015 -0.00070078317730803974 -10000.138223646129 -3329.9150731113468 0.077447243111172681 -0.18669555206724908 0.077447243111172681 -3330.1990840878852 -0.035720891361052054 -0.18669555206724908 -0.035720891361052054 -9999.8624186310881 -3330.3244520414473 0.0087663133035673635 -0.038790992068243213 0.0087663133035673635 -3330.4070609469554 0.0022155009137350135 -0.038790992068243213 0.0022155009137350135 -10000.124179263941 -3330.3419141593758 -0.24707348451248445 0.0030627235228166683 -0.24707348451248445 -3330.0253282669664 -0.31549801650544396 0.0030627235228166683 -0.31549801650544396 -9999.4939631515481 -3330.4054295399173 -0.025933397254568336 -0.1303400460001285 -0.025933397254568336 -3330.394737036173 -0.027108721160402638 -0.1303400460001285 -0.027108721160402638 -10000.033920975304 -3330.5255134944255 0.043979850499345274 -0.19176248316307465 0.043979850499345274 -3330.5684727294947 0.045811537715053419 -0.19176248316307465 0.045811537715053419 -10000.107375887263 -3330.0231668683691 -0.35863322225331951 0.20549264248438703 -0.35863322225331951 -3330.2097931400358 -0.18383496632850438 0.20549264248438703 -0.18383496632850438 -9999.7679408583899 -3330.3581328983473 0.014168577369066515 -0.038193557982594939 0.014168577369066515 -3330.3694242750298 -0.056568341657111887 -0.038193557982594939 -0.056568341657111887 -9999.9604676379786 -3330.3583797240581 0.0096066793923350602 0.0065193812115467153 0.0096066793923350602 -3330.3577197031955 0.039427858984709019 0.0065193812115467153 0.039427858984709019 -10000.121899575937 -3330.3391812369955 0.047181384275158389 0.01621625247389602 0.047181384275158389 -3330.3994265245592 0.0088177047873614356 0.01621625247389602 0.0088177047873614356 -10000.125952957227 -3330.3260466785805 0.030487936067589816 0.0027234245972067583 0.030487936067589816 -3330.2948097446979 0.027101613373815781 0.0027234245972067583 0.027101613373815781 -10000.096515122659 -3329.9705345784296 -0.062579743702143364 0.22765428405909915 -0.062579743702143364 -3330.5361565152316 0.11332733068525158 0.22765428405909915 0.11332733068525158 -10000.025819114602 -3330.3962697569505 -0.0051262145680670557 0.073349762140423991 -0.0051262145680670557 -3330.3752181570917 0.048776361143154645 0.073349762140423991 0.048776361143154645 -10000.135746697637 -3330.2985791644642 0.0066753875544045549 -0.034677289044338977 0.0066753875544045549 -3330.3606420711021 -0.015691612673890631 -0.034677289044338977 -0.015691612673890631 -10000.004353524022 -3330.3201417148211 0.0096066793923350602 -0.050486072617786704 0.0096066793923350602 -3330.3194816939576 -0.017678500062174862 -0.050486072617786704 -0.017678500062174862 -10000.00718554822 -3330.3579830197414 -0.0092602785815392163 -0.074120206407314981 -0.0092602785815392163 -3330.3544904407609 -0.046566909824832692 -0.074120206407314981 -0.046566909824832692 -10000.025398061152 -3330.3396258163611 -0.0025633824791468918 -0.02702325873542577 -0.0025633824791468918 -3330.3666518208593 -0.0055964320454222616 -0.02702325873542577 -0.0055964320454222616 -10000.023688294074 -3330.306415380428 0.0094043749146870415 -0.038614980192505755 0.0094043749146870415 -3330.355703269639 -0.010355712314776611 -0.038614980192505755 -0.010355712314776611 -10000.005077877646 -3330.4062246685407 0.0044076830209998086 -0.016796411209725193 0.0044076830209998086 -3330.3486209924813 -0.012965854884896544 -0.016796411209725193 -0.012965854884896544 -10000.035991111283 -3330.3566439454753 -0.0021433638309318326 -0.00068219618697185069 -0.0021433638309318326 -3330.371868878945 -0.0019117383999400772 -0.00068219618697185069 -0.0019117383999400772 -10000.029247090868 -3330.3349864365573 -0.0051262145680672777 0.027899563165192376 -0.0051262145680672777 -3330.3139348366985 -0.016576051383253798 0.027899563165192376 -0.016576051383253798 -9999.9518967364565 -3330.3434548419991 -0.0021433638309322767 0.0088123392633860931 -0.0021433638309322767 -3330.358679775467 0.0018112771649612114 0.0088123392633860931 0.0018112771649612114 -9999.9896797804395 -3330.3318260396445 -0.0025633824791468918 -0.017416482081898721 -0.0025633824791468918 -3330.3588520441426 -0.0022722186331520788 -0.017416482081898721 -0.0022722186331520788 -10000.000288963929 -3330.3531639196099 -0.011466432317000841 -0.022000418928655563 -0.011466432317000841 -3330.3673228340667 -0.0078752437893854221 -0.022000418928655563 -0.0078752437893854221 -10000.007741131398 -3330.3478030980768 -0.00097745001381532859 0.0030503301532007754 -0.00097745001381532859 -3330.369589559592 0.00071983928864938207 0.0030503301532007754 0.00071983928864938207 -10000.004388574402 -3330.3409522203528 0.0041032280965238588 -0.012822207390854601 0.0041032280965238588 -3330.3704582535156 -0.0070801550027681515 -0.012822207390854601 -0.0070801550027681515 -9999.9977082491823 -3330.348440161506 -0.0026942896253252524 0.0011743632785510272 -0.0026942896253252524 -3330.364148364124 0.00032834349622135051 0.0011743632785510272 0.00032834349622135051 -10000.005766574388 -3330.3313985887289 -0.00071399384498005425 -0.014387349412572803 -0.00071399384498005425 -3330.3625983694656 -0.0049592568502703216 -0.014387349412572803 -0.0049592568502703216 -9999.9933548702611 -3330.3364505324607 -0.0020410990811995378 -0.010822213305800688 -0.0020410990811995378 -3330.3664034983685 -0.00122070782163064 -0.010822213305800688 -0.00122070782163064 -10000.000753917695 -3330.34886157457 0.0051360350315888814 0.0058650323844631203 0.0051360350315888814 -3330.3616863621937 -0.00025446231666137464 0.0058650323844631203 -0.00025446231666137464 -10000.00042179133 -3330.3481457829839 0.0020752845490711325 0.0086735268905613339 0.0020752845490711325 -3330.3567243601974 -0.004305631693569012 0.0086735268905613339 -0.004305631693569012 -9999.9903636618692 -3330.3406641028851 0.0045110753347856747 0.008409309131820919 0.0045110753347856747 -3330.3536335915996 -0.004544627448922256 0.008409309131820919 -0.004544627448922256 -9999.987720549696 -3330.3440645013925 0.0029767140861846064 0.012356592686046497 0.0029767140861846064 -3330.3500263307415 0.00038589429277635645 0.012356592686046497 0.00038589429277635645 -9999.978025116121 -3330.3456202867674 0.0093849790304738473 0.013160407588429734 0.0093849790304738473 -3330.3504339199644 -0.009293203638662817 0.013160407588429734 -0.009293203638662817 -9999.9785159597741 -3330.3597699126203 0.0049048641172746432 0.013569115413702093 0.0049048641172746432 -3330.3509207293173 -0.008834092048346065 0.013569115413702093 -0.008834092048346065 -9999.9821750685733 -3330.349077739942 0.011015870700204447 0.0062301495870542567 0.011015870700204447 -3330.3583581087296 -0.0046510033935192041 0.0062301495870542567 -0.0046510033935192041 -9999.9996437693117 -3330.3469912705532 0.010624688822956724 0.0064856343296924024 0.010624688822956724 -3330.3534688336131 -0.0064917405434243847 0.0064856343296924024 -0.0064917405434243847 -9999.9964138157011 -3330.3632907842712 0.0086831748654703222 0.0066581600622157566 0.0086831748654703222 -3330.359494582377 -0.0047934119138517417 0.0066581600622157566 -0.0047934119138517417 -10000.0034811488 -3330.3434030760018 0.017106124519107348 0.00061141872743064596 0.017106124519107348 -3330.3448448538966 -0.0083501663229981204 0.00061141872743064596 -0.0083501663229981204 -9999.9948467896174 -3330.3487768823215 0.011160014898918741 0.00072530820807514829 0.011160014898918741 -3330.3574619547326 -0.0068863091873936355 0.00072530820807514829 -0.0068863091873936355 -9999.9993445164073 -3330.3406034878462 0.0087952449050445747 -0.0049511705947224982 0.0087952449050445747 -3330.3561762691643 -0.001209830417565172 -0.0049511705947224982 -0.001209830417565172 -9999.9969797463928 -3330.3465928904734 0.0056567871360312383 -0.0093125628263805993 0.0056567871360312383 -3330.3722879412489 -0.010036195075372234 -0.0093125628263805993 -0.010036195075372234 -10000.00430041668 -3330.3433969519501 0.0075568911639590786 -0.005539513316762168 0.0075568911639590786 -3330.3631481432312 -0.0037110957055119798 -0.005539513316762168 -0.0037110957055119798 -10000.001216482546 -3330.3477931445759 0.003518515613363693 -0.0070696513867005706 0.003518515613363693 -3330.3742478812455 -0.0063057426195882726 -0.0070696513867005706 -0.0063057426195882726 -10000.005550666443 -3330.3396036713148 0.0087593099564127197 0.0045714626066910569 0.0087593099564127197 -3330.3558412878247 -0.0014245490638131741 0.0045714626066910569 -0.0014245490638131741 -9999.9966460469295 -3330.3417009543209 0.0070505545502339562 -0.0057544631563359872 0.0070505545502339562 -3330.3631869553756 -0.0041009752849276992 -0.0057544631563359872 -0.0041009752849276992 -10000.001262387406 -3330.3448939024383 0.0056396534361951023 0.0027325060254952405 0.0056396534361951023 -3330.3641649782185 -0.0042923415276163723 0.0027325060254952405 -0.0042923415276163723 -10000.002305130147 -3330.3430292060984 0.0011797423079165092 -0.015985793736035703 0.0011797423079165092 -3330.3725857583559 -0.010837144684046507 -0.015985793736035703 -0.010837144684046507 -10000.003483949862 -3330.3498570103311 0.0044337769403245339 -0.012560860221128678 0.0044337769403245339 -3330.376520624015 -0.015462100069271401 -0.012560860221128678 -0.015462100069271401 -10000.006174617338 -3330.3492787456071 0.0094785494501843717 -0.0016431418589490931 0.0094785494501843717 -3330.3649529827653 -0.0076074671451351605 -0.0016431418589490931 -0.0076074671451351605 -10000.003138140841 -3330.3278819013249 0.0043712720650872505 -0.031021486232930329 0.0043712720650872505 -3330.3647949964652 -0.014438736911870365 -0.031021486232930329 -0.014438736911870365 -9999.9810421370275 -3330.3423919116558 0.014231545960178754 -0.00093932922982276068 0.014231545960178754 -3330.3443236812473 -0.0080563274277665187 -0.00093932922982276068 -0.0080563274277665187 -9999.9994823220695 -3330.3480384004179 0.011324736868921964 -0.0010287589620929793 0.011324736868921964 -3330.359698948163 -0.0092057957153883763 -0.0010287589620929793 -0.0092057957153883763 -10000.004737760988 -3330.3489814579807 0.010274778702080267 -8.661800529807806e-05 0.010274778702080267 -3330.3420261929568 -0.0083493281326809665 -8.661800529807806e-05 -0.0083493281326809665 -10000.000555336577 -3330.3359096960976 0.015120252435836146 0.00087530270320712589 0.015120252435836146 -3330.3427914091335 -0.0083516034164858866 0.00087530270320712589 -0.0083516034164858866 -9999.9973571851224 -3330.3594670549828 0.0068995814663864174 -0.014541515789460391 0.0068995814663864174 -3330.350154953072 -0.011280198908934835 -0.014541515789460391 -0.011280198908934835 -10000.009963613011 -3330.3546977836031 0.0087552953131959654 -0.017073952956707217 0.0087552953131959654 -3330.3447847478474 -0.015917927801638143 -0.017073952956707217 -0.015917927801638143 -10000.002674056705 -3330.364935738975 0.0038262429890891878 -0.026873507386881101 0.0038262429890891878 -3330.3723807458537 -0.037817255299160024 -0.026873507386881101 -0.037817255299160024 -10000.012132545053 -3330.3542233105727 0.002258350083529953 -0.021059074690128909 0.002258350083529953 -3330.3596984424075 -0.021656560053088469 -0.021059074690128909 -0.021656560053088469 -9999.9744764014613 -3330.3818066545955 -0.010856445070171639 -0.022591718259718618 -0.010856445070171639 -3330.381031603918 -0.0067918925451522227 -0.022591718259718618 -0.0067918925451522227 -9999.9867055278446 -3330.3684477987263 0.0024694135053221489 -0.034264441263076151 0.0024694135053221489 -3330.3777863799951 -0.014212365050752851 -0.034264441263076151 -0.014212365050752851 -9999.9944314572567 -3330.3573144960374 0.0041867429225347363 -0.026123856190679362 0.0041867429225347363 -3330.3712559732285 -0.013319858722525169 -0.026123856190679362 -0.013319858722525169 -9999.9781385805327 -3330.369645607585 0.0065422468335523693 -0.036335849776151008 0.0065422468335523693 -3330.3799237847124 -0.022242107110287179 -0.036335849776151008 -0.022242107110287179 -10000.015195771921 -3330.3594108050729 0.0027445579618189213 -0.030514402908011107 0.0027445579618189213 -3330.3681880941967 -0.03320409634227417 -0.030514402908011107 -0.03320409634227417 -10000.000821230788 -3330.346849292433 0.0094013502980586083 -0.023994706689336454 0.0094013502980586083 -3330.3397897957402 -0.018634356096299598 -0.023994706689336454 -0.018634356096299598 -9999.9905812780125 -3330.3229797435706 0.0019691470661858945 -0.032332042832422303 0.0019691470661858945 -3330.3613654323126 -0.012668989933445118 -0.032332042832422303 -0.012668989933445118 -9999.9789592065499 -3330.3425237638294 0.006947204336857693 -0.020668958070018562 0.006947204336857693 -3330.3710763352392 -0.023335721877629112 -0.020668958070018562 -0.023335721877629112 -10000.006203448611 -3330.2427210815749 -0.004589568278797973 -0.095201720479963114 -0.004589568278797973 -3330.3294293210438 -0.02334938822696131 -0.095201720479963114 -0.02334938822696131 -9999.9460221919799 -3330.3269166775299 0.026561326318914613 -0.056405018658551853 0.026561326318914613 -3330.3872449745122 -0.05251589658564626 -0.056405018658551853 -0.05251589658564626 -10000.029291933104 -3330.2691254712408 0.0087663133035675855 -0.090489956286546658 0.0087663133035675855 -3330.3517343767508 -0.02971205162248225 -0.090489956286546658 -0.02971205162248225 -9999.9581995533226 -3330.3610570544679 0.011160014898918852 -0.011343889518684591 0.011160014898918852 -3330.3697421268789 -0.014680754193250323 -0.011343889518684591 -0.014680754193250323 -10000.036185032848 -3330.3660339326216 0.013897316094257706 -0.035241569617937785 0.013897316094257706 -3330.3948668577141 -0.028397834565112134 -0.035241569617937785 -0.028397834565112134 -10000.043710435093 -3330.3527964892965 0.006947204336857693 -0.033562269687536173 0.006947204336857693 -3330.3813490607045 -0.030665524490814278 -0.033562269687536173 -0.030665524490814278 -10000.037021625008 -3330.3882121460465 0.0092480987717327157 0.011456097596237669 0.0092480987717327157 -3330.3560705252985 -0.022186961650731973 0.011456097596237669 -0.022186961650731973 -10000.036822187925 -3330.2834148288857 0.033093117350719181 0.019137408551614499 0.033093117350719181 -3330.3250910931638 -0.012248654998984421 0.019137408551614499 -0.012248654998984421 -9999.993972587381 -3330.3545897611839 0.017106124519107348 -0.0026505383118546888 0.017106124519107348 -3330.3560315390787 -0.017339770543912891 -0.0026505383118546888 -0.017339770543912891 -10000.028406845158 -3330.358200551027 0.029014524955745614 -0.0023623413001132576 0.029014524955745614 -3330.3745909516329 -0.013635484199767234 -0.0023623413001132576 -0.013635484199767234 -10000.033949395758 -3330.3358166548551 0.025266353725368229 -0.034106793929822743 0.025266353725368229 -3330.3281256925366 -0.042487219874601578 -0.034106793929822743 -0.042487219874601578 -10000.01673710694 -3330.3234708030832 0.033356281427452339 -0.044858657418444636 0.033356281427452339 -3330.3109717221469 -0.051479552643286297 -0.044858657418444636 -0.051479552643286297 -9999.9945230865451 -3330.3665041651238 0.0094013502980586638 -0.021330675141143729 0.0094013502980586638 -3330.3594446684328 -0.024364903172681807 -0.021330675141143729 -0.024364903172681807 -10000.04954589608 -3330.3557980481473 0.016244318640626754 -0.05817411057978461 0.016244318640626754 -3330.3873461394596 -0.096271098751458339 -0.05817411057978461 -0.096271098751458339 -10000.036537566994 -3330.3542778216815 0.019008330467172076 -0.063446298443523119 0.019008330467172076 -3330.3983507312005 -0.093017853251069482 -0.063446298443523119 -0.093017853251069482 -10000.024069593452 -3330.3286934528514 0.0027445579618190601 -0.0461056542226288 0.0027445579618190601 -3330.3374707419734 -0.038177092979935878 -0.0461056542226288 -0.038177092979935878 -9999.908669174125 -3330.3593595911116 -0.0083797278533715436 -0.048264693556120619 -0.0083797278533715436 -3330.3484390789999 -0.018907836176367709 -0.048264693556120619 -0.018907836176367709 -9999.9190777929471 -3330.3955545091503 0.0094594802298272329 -0.095032795807128423 0.0094594802298272329 -3330.3823301722368 -0.023361179878293115 -0.095032795807128423 -0.023361179878293115 -9999.9974557616733 -3330.3812925863658 0.030453501999884551 -0.086012214126640174 0.030453501999884551 -3330.4058600659773 -0.050449190128347254 -0.086012214126640174 -0.050449190128347254 -10000.047539683175 -3330.3353754882137 0.0065422468335523693 -0.05276230438357743 0.0065422468335523693 -3330.3456536653412 -0.027220153520829626 -0.05276230438357743 -0.027220153520829626 -9999.9123854138088 -3330.4574723510796 0.082814359066850293 -0.23568856385736581 0.082814359066850293 -3330.4361568468457 -0.03537101380607055 -0.23568856385736581 -0.03537101380607055 -10000.057286630763 -3330.3487463725032 -0.0077931118163290791 -0.095104142446871265 -0.0077931118163290791 -3330.349368053071 -0.082743414330252563 -0.095104142446871265 -0.082743414330252563 -9999.7866539634779 -3330.2858421211604 0.03045350199988444 -0.093866432793220156 0.03045350199988444 -3330.310409600771 -0.080455925297428621 -0.093866432793220156 -0.080455925297428621 -9999.7611882875681 -3330.4020922452837 0.0066649848014121299 -0.088905406082631089 0.0066649848014121299 -3330.423514431177 -0.15203635691432282 -0.088905406082631089 -0.15203635691432282 -10000.125249772227 -3330.3974218964559 0.03335628142745245 -0.055677310128885438 0.03335628142745245 -3330.3849228155177 -0.07259593712296919 -0.055677310128885438 -0.07259593712296919 -10000.216376366658 -3330.362114079785 0.03216946456291038 -0.13600321222384082 0.03216946456291038 -3330.3718541380813 -0.25728708917813492 -0.13600321222384082 -0.25728708917813492 -10000.102340157577 -3330.2647629824214 0.019008330467172277 -0.070715813357310253 0.019008330467172277 -3330.3088358919404 -0.11856216938059561 -0.070715813357310253 -0.11856216938059561 -9999.7555250756741 -3330.4178773590365 0.010180075892716259 0.0079626731276221108 0.010180075892716259 -3330.5072996308199 0.030463516628515208 0.0079626731276221108 0.030463516628515208 -10000.150142350576 -3330.3685360846621 0.04341800017751761 0.0031594657024243133 0.04341800017751761 -3330.3779124707544 -0.031273610578864464 0.0031594657024243133 -0.031273610578864464 -10000.105460241964 -3330.2516695310142 0.093491936406835285 0.042716509626188781 0.093491936406835285 -3330.2766024222574 0.0057930300308726146 0.042716509626188781 0.0057930300308726146 -10000.015919926082 -3330.2960909488775 0.043314917725056246 0.10420918002819235 0.043314917725056246 -3330.3615803445336 -0.065995374128760886 0.10420918002819235 -0.065995374128760886 -10000.083265926463 -3330.3090066538462 0.010365778821566529 -0.040948556561488658 0.010365778821566529 -3330.5572969325995 -0.056886652766024781 -0.040948556561488658 -0.056886652766024781 -10000.197907077389 -3330.3958201331625 0.038943992205842076 0.01645742137588968 0.038943992205842076 -3330.4070549776634 -0.00069340011032181792 0.01645742137588968 -0.00069340011032181792 -10000.182049958483 -3330.0607970265255 0.017667476451914816 -0.22793957238172879 0.017667476451914816 -3330.2935061593043 -0.035911925921027432 -0.22793957238172879 -0.035911925921027432 -9999.9224551277402 -3330.3791485418024 0.026561326318914391 -0.048143950694793602 0.026561326318914391 -3330.4394768387856 -0.047170149779731219 -0.048143950694793602 -0.047170149779731219 -10000.185987525925 -3330.4027568964921 -0.0090856958629313214 0.073201296927663861 -0.0090856958629313214 -3330.3928576940216 0.046435020745775546 0.073201296927663861 0.046435020745775546 -10000.141778366753 -3330.3646489877301 0.018600199366089365 0.020676142405136488 0.018600199366089365 -3330.4172078032025 0.020244265316705423 0.020676142405136488 0.020244265316705423 -10000.138338916859 -3330.5194711997401 -0.068939192690472481 0.096538331645206199 -0.068939192690472481 -3330.455235705901 0.081463998473225274 0.096538331645206199 0.081463998473225274 -10000.099066172912 -3330.3170030995561 0.05266044173658798 0.033446305749748717 0.05266044173658798 -3330.5407378073305 -0.017682284404145321 0.033446305749748717 -0.017682284404145321 -10000.195766407498 -3330.349424412917 0.027600249204948545 0.036789217012483277 0.027600249204948545 -3330.3773105564196 0.0472560491762124 0.036789217012483277 0.0472560491762124 -10000.124558461459 -3330.3669692011808 -0.010405218857734058 0.048126381236215821 -0.010405218857734058 -3330.3627690797266 0.037673409889066534 0.048126381236215821 0.037673409889066534 -10000.03782401673 -3330.1264217804292 0.14962787065418137 0.1742278195633844 0.14962787065418137 -3330.3797579746979 0.18424647178289888 0.1742278195633844 0.18424647178289888 -9999.8599859879432 -3330.3543428397079 0.0029767140861846064 0.012782416079062386 0.0029767140861846064 -3330.3603046690569 -0.00066891811184177641 0.012782416079062386 -0.00066891811184177641 -10000.008860131067 -3330.3414735760998 -0.0090856958629310994 0.027751097952432247 -0.0090856958629310994 -3330.3315743736275 -0.01891739177335694 0.027751097952432247 -0.01891739177335694 -9999.9579284055726 -3330.3256801806383 -0.010405218857734044 0.045922761701149284 -0.010405218857734044 -3330.3214800591832 -0.018967522038110474 0.045922761701149284 -0.018967522038110474 -9999.913956955108 -3330.37884074473 -0.018843810973085878 0.016899835583899403 -0.018843810973085878 -3330.3390265848775 -0.02873280227640862 0.016899835583899403 -0.02873280227640862 -9999.9691332505463 -3330.3556083608801 0.0056567871360312383 -0.01989155823684996 0.0056567871360312383 -3330.3813034116556 -0.015260481799487025 -0.01989155823684996 -0.015260481799487025 -10000.031346827898 -3330.3538532063631 0.0045110753347856747 -0.001085226314899046 0.0045110753347856747 -3330.3668226950795 -0.0082676430210995022 -0.001085226314899046 -0.0082676430210995022 -10000.027287860124 -3330.3288931950847 0.018600199366089809 -0.021795726323034614 0.018600199366089809 -3330.381452010557 -0.026784007158767054 -0.021795726323034614 -0.026784007158767054 -10000.031071538921 -3330.3503371188981 0.0087952449050445747 -0.015525953935139114 0.0087952449050445747 -3330.3659099002143 -0.0079420299914545467 -0.015525953935139114 -0.0079420299914545467 -10000.026180639543 -3330.3043538268212 0.027600249204948524 0.0054671926136506954 0.027600249204948524 -3330.3322399703247 0.0050786286610673415 0.0054671926136506954 0.0050786286610673415 -9999.9893467031616 -3330.3479774994757 0.0081754578236057363 -0.013368293590247049 0.0081754578236057363 -3330.3708834534318 -0.012656350145334727 -0.013368293590247049 -0.012656350145334727 -10000.033200475737 -3330.2981051338011 0.023445330177082363 0.018804060764523456 0.023445330177082363 -3330.3299100251006 0.0047779057167645078 0.018804060764523456 0.0047779057167645078 -9999.9872020436051 -3330.3330761449706 0.043418000177517665 0.0097198011311547816 0.043418000177517665 -3330.342452531062 -0.010522002952711773 0.0097198011311547816 -0.010522002952711773 -9999.9990804228837 -3330.3353669624048 0.038943992205841674 0.010538957048993325 0.038943992205841674 -3330.3466018069048 6.8642511905636638e-06 0.010538957048993325 6.8642511905636638e-06 -10000.00069044621 -3330.3850609985093 0.016899775898533531 0.025616591856305604 0.016899775898533531 -3330.3887267772243 -0.0011713498711287684 0.025616591856305604 -0.0011713498711287684 -10000.023645197809 -3330.4070405561069 -0.041208213506989111 0.04740247023437405 -0.041208213506989111 -3330.3803543928097 -0.035753964832110796 0.04740247023437405 -0.035753964832110796 -9999.9490156323773 -3330.346905151684 0.0093849790304738473 0.022420377886874121 0.0093849790304738473 -3330.3517187848811 -0.016824000616907142 0.022420377886874121 -0.016824000616907142 -9999.9823705545205 -3330.3290370987579 -0.0072070878868265298 0.047324125158866082 -0.0072070878868265298 -3330.3295703022977 -0.03584197179225157 0.047324125158866082 -0.03584197179225157 -9999.9168187454161 -3330.3689754964416 0.023509329923508543 0.01246062356017319 0.023509329923508543 -3330.3910975412018 0.0032059308196039638 0.01246062356017319 0.0032059308196039638 -10000.020216513291 -3330.2962145566826 0.27764914146690911 0.12420875049974711 0.27764914146690911 -3330.0717603267303 0.19513232227836852 0.12420875049974711 0.19513232227836852 -9999.6777778834257 -3330.3377928218142 -0.037606292096522276 0.045423833385939361 -0.037606292096522276 -3330.2920495907038 0.07021600803864203 0.045423833385939361 0.07021600803864203 -10000.012850049632 -3330.3375363415134 -0.0072070878868264604 0.030761343097083227 -0.0072070878868264604 -3330.3380695450523 0.037710384181991685 0.030761343097083227 0.037710384181991685 -9999.9423164736763 -3330.5225666477572 0.051024268932592903 0.11112093416068092 0.051024268932592903 -3330.3480235868883 0.046029204364458565 0.11112093416068092 0.046029204364458565 -10000.101499496424 -3330.3623476977709 0.016899775898533642 0.0085968143921490991 0.016899775898533642 -3330.3660134764859 0.045085011521678098 0.0085968143921490991 0.045085011521678098 -9999.9555052955984 -3330.5551612477939 0.07655755915127177 0.093605983463021403 0.07655755915127177 -3330.5598048974007 -0.012886385351521312 0.093605983463021403 -0.012886385351521312 -10000.162593474062 -3330.3722314053057 0.0030441662265663361 0.016665713726979448 0.0030441662265663361 -3330.3603316195786 0.072226621612571762 0.016665713726979448 0.072226621612571762 -9999.9565557582573 -3330.3398311825422 -0.019985091730083671 -0.03343173504981678 -0.019985091730083671 -3330.3617389472993 0.063148655555778532 -0.03343173504981678 0.063148655555778532 -9999.9488075344962 -3330.3482478809046 -0.013577019913358468 -0.0024463875088258646 -0.013577019913358468 -3330.3538370853676 0.00040732001434662379 -0.0024463875088258646 0.00040732001434662379 -9999.9489362436034 -3330.6512786302446 -0.017236135592892055 -0.11734243566661462 -0.017236135592892055 -3329.9969132038168 0.21082426179054892 -0.11734243566661462 0.21082426179054892 -9999.8824848734585 -3330.3640257747866 -0.016403978020895993 0.0068745756307180272 -0.016403978020895993 -3330.4163450697015 -0.025381740670127328 0.0068745756307180272 -0.025381740670127328 -10000.006576468466 -3330.3634753830283 -0.013577019913358246 0.028983819123823196 -0.013577019913358246 -3330.3690645874904 -0.070150109422684181 0.028983819123823196 -0.070150109422684181 -9999.9946187499736 -3330.3648219377301 0.0036921963445772921 0.013893783718231134 0.0036921963445772921 -3330.3524380548206 -0.026402134484669659 0.013893783718231134 -0.026402134484669659 -9999.9870295685141 -3330.3609174969624 0.0014803606197162367 0.003499632584862411 0.0014803606197162367 -3330.3449006432347 -0.0053553179832306341 0.003499632584862411 -0.0053553179832306341 -9999.984169105428 -3330.3626157533963 -0.00011647095309474942 0.017986665827265824 -0.00011647095309474942 -3330.3461967669118 -0.0027301783920847811 0.017986665827265824 -0.0027301783920847811 -9999.9849177004544 -3330.3572626895657 0.0086831748654703222 0.014572953565220814 0.0086831748654703222 -3330.3534664876752 -0.014212989539373666 0.014572953565220814 -0.014212989539373666 -9999.9853968646894 -3330.3918516490212 0.0031489620285896081 0.037889853488195513 0.0031489620285896081 -3330.3573278323711 -0.013689273357158527 0.037889853488195513 -0.013689273357158527 -10000.029140977214 -3330.4026407524689 -0.0015617792259473573 0.042383062084809353 -0.0015617792259473573 -3330.3848299554575 0.0014246735045162495 0.042383062084809353 0.0014246735045162495 -10000.038713783848 -3330.3710798374777 0.0030441662265663361 0.050973976234672591 0.0030441662265663361 -3330.3591800517497 0.014105111586104613 0.050973976234672591 0.014105111586104613 -9999.9531010547689 -3330.3386796147133 -0.019985091730084004 0.00087652745696686907 -0.019985091730084004 -3330.3605873794695 0.0050271455274923937 0.00087652745696686907 0.0050271455274923937 -9999.9453528310078 -3330.3437199289619 -0.0049853884762831591 0.04288337745492754 -0.0049853884762831591 -3330.3544217414947 0.022195710373125621 0.04288337745492754 0.022195710373125621 -9999.9450715000785 -3330.3996476985703 -0.21935035216259124 -0.07340719414241903 -0.21935035216259124 -3330.0861915634869 0.21258879611559678 -0.07340719414241903 0.21258879611559678 -9999.7373068608285 -3329.9851639934614 0.11331652018511096 0.12084152256284142 0.11331652018511096 -3330.171615424636 0.025719037248563836 0.12084152256284142 0.025719037248563836 -9999.9230467922862 -3330.4007534494349 -0.0088876317409660732 0.068914393330032908 -0.0088876317409660732 -3330.3724319321318 0.011805204805568792 0.068914393330032908 0.011805204805568792 -10000.077148283155 -3330.3479213468918 0.010562796195794366 -0.010219557316304417 0.010562796195794366 -3330.3720795131667 -0.031019502232993545 -0.010219557316304417 -0.031019502232993545 -10000.159619418708 -3330.3845248352454 -0.010570237750050726 0.0025246536097256467 -0.010570237750050726 -3330.367742671292 -0.0089458813370697499 0.0025246536097256467 -0.0089458813370697499 -10000.167686080327 -3330.3769114186234 0.02443057241147506 0.0053969347245583776 0.02443057241147506 -3330.3933177819763 -0.045384693502455775 0.0053969347245583776 -0.045384693502455775 -10000.213347488814 -3330.3596085671807 0.0133232081255239 0.0028261144143471029 0.0133232081255239 -3330.3871514251396 -0.040425462757411879 0.0028261144143471029 -0.040425462757411879 -10000.207480186742 -3330.3697753685819 0.02502663328967647 -0.076016746515961131 0.02502663328967647 -3330.3498403648546 -0.098412025899961009 -0.076016746515961131 -0.098412025899961009 -10000.166710092719 -3330.3545020897636 -0.0010407723436085536 -0.065908662998481304 -0.0010407723436085536 -3330.4572429493446 -0.052019344992004335 -0.065908662998481304 -0.052019344992004335 -10000.223726448443 -3330.3852292611373 0.014798049411712144 -0.048081046448714915 0.014798049411712144 -3330.3867000780956 -0.059711295347369742 -0.048081046448714915 -0.059711295347369742 -10000.179788494166 -3330.2366515457079 0.060103017572963768 -0.056575463100671186 0.060103017572963768 -3330.3490268981996 -0.039089593687094748 -0.056575463100671186 -0.039089593687094748 -10000.167209799642 -3330.0424039994323 -0.38817796350467626 -0.23713736958779918 -0.38817796350467626 -3330.220920375712 0.10729741609611665 -0.23713736958779918 0.10729741609611665 -9999.8964587368791 -3330.4106874732215 0.0040872424363697091 -0.025188974723278079 0.0040872424363697091 -3330.3608635250557 -0.022376905068085762 -0.025188974723278079 -0.022376905068085762 -10000.172506953262 -3330.3933460898315 0.01575905110559539 -0.043831715072883526 0.01575905110559539 -3330.3262868548318 -0.066258123117222567 -0.043831715072883526 -0.066258123117222567 -10000.166714395524 -3330.3234839117922 0.05443424197742619 -0.033763649473257829 0.05443424197742619 -3330.1827431664815 -0.03722867752185266 -0.033763649473257829 -0.03722867752185266 -10000.106175973262 -3330.3623900061575 -0.0075445264978728499 0.0067730116361417458 -0.0075445264978728499 -3330.3549642613889 -0.0049144122349389363 0.0067730116361417458 -0.0049144122349389363 -10000.042457781507 -3330.3452550942293 0.01575905110559539 0.016135753383423435 0.01575905110559539 -3330.2781958592295 0.00010268621917930432 0.016135753383423435 0.00010268621917930432 -10000.02244140871 -3330.3292445974639 0.011591984278056078 0.0016697186947567388 0.011591984278056078 -3330.3377539962112 -0.013753574978181859 0.0016697186947567388 -0.013753574978181859 -10000.029868863039 -3330.3521812086819 -0.0012945084524962347 -0.0052212523405614775 -0.0012945084524962347 -3330.3513575731267 -0.016019085869629635 -0.0052212523405614775 -0.016019085869629635 -10000.040545288164 -3330.3654712598855 0.0040872424363697091 0.027827372185129207 0.0040872424363697091 -3330.3156473117197 0.020353164178231964 0.027827372185129207 0.020353164178231964 -10000.036858313248 -3330.379530246073 0.026545707945508035 0.018044300515612122 0.026545707945508035 -3330.345829906948 0.013173327477488783 0.018044300515612122 0.013173327477488783 -10000.026127188383 -3330.3641379037363 0.0016887947849240081 -0.0098813088334281929 0.0016887947849240081 -3330.3573826303837 -0.014755309068277711 -0.0098813088334281929 -0.014755309068277711 -10000.048438821221 -3330.3588810563451 0.0048863520295069351 -0.019490008813590975 0.0048863520295069351 -3330.347734271938 -0.028066724498785334 -0.019490008813590975 -0.028066724498785334 -10000.044712519764 -3330.3094178869287 0.025026633289676248 -0.041920559786376543 0.025026633289676248 -3330.2894828832013 -0.057388452203667839 -0.041920559786376543 -0.057388452203667839 -9999.9856376477655 -3330.3592409956691 0.0057062749393392842 -0.018103814305504784 0.0057062749393392842 -3330.3520702001188 -0.029729192971899465 -0.018103814305504784 -0.029729192971899465 -10000.042488391657 -3330.362344082936 0.0039893251853566625 -0.0066350328779662959 0.0039893251853566625 -3330.3560167131182 -0.013840913143212674 -0.0066350328779662959 -0.013840913143212674 -10000.044250791725 -3330.3357544832434 0.014798049411712588 -0.0011934043450310128 0.014798049411712588 -3330.3372253002017 -0.0093424401893571485 -0.0011934043450310128 -0.0093424401893571485 -10000.031364160481 -3330.357415885388 0.010948968060536801 0.0018151321783079766 0.010948968060536801 -3330.3561634834477 -0.014052435075427638 0.0018151321783079766 -0.014052435075427638 -10000.0464535299 -3330.3053337859055 0.024430572411474838 0.034062267277477076 0.024430572411474838 -3330.3217401492602 -0.017376996223902097 0.034062267277477076 -0.017376996223902097 -9999.9986145906587 -3330.3488527475038 0.0054795320234514167 0.0023217588095576502 0.0054795320234514167 -3330.3525218200848 -0.015029741185571766 0.0023217588095576502 -0.015029741185571766 -10000.043402329589 -3330.2880309344655 0.013323208125524233 0.03149144697272277 0.013323208125524233 -3330.3155737924244 -0.012417765483405674 0.03149144697272277 -0.012417765483405674 -9999.9927472885902 -3330.3249812547638 0.018121022367823203 0.010536198649788275 0.018121022367823203 -3330.3338383805421 -0.0096062246628889625 0.010536198649788275 -0.0096062246628889625 -10000.027824123448 -3330.365762324418 -0.0054239392352113391 0.011627016272541368 -0.0054239392352113391 -3330.3586372262689 -0.0077168731149868108 0.011627016272541368 -0.0077168731149868108 -10000.044219102292 -3330.2939885254655 0.01056279619579481 0.045387947629933478 0.01056279619579481 -3330.3181466917413 -0.0026135345369766583 0.045387947629933478 -0.0026135345369766583 -9999.9978209544315 -3330.3247660243542 -0.0078858059569008043 0.035736397252549068 -0.0078858059569008043 -3330.3432253140581 -0.0050652958925638814 0.035736397252549068 -0.0050652958925638814 -10000.008843941472 -3330.3851275343804 -0.0088876317409659622 0.079238810701099283 -0.0088876317409659622 -3330.3568060170765 0.0064567769532004604 0.079238810701099283 0.0064567769532004604 -10000.030270537995 -3330.3640427703449 -0.0051910235574943453 0.03063325806215289 -0.0051910235574943453 -3330.3517767687408 -0.0064326779220209573 0.03063325806215289 -0.0064326779220209573 -10000.020800991639 -3330.3522586458184 -0.0054239392352113391 -0.00024039519848884083 -0.0054239392352113391 -3330.3451335476693 -0.0055432988556276541 -0.00024039519848884083 -0.0055432988556276541 -10000.003708066492 -3330.3590483348453 -0.0051910235574943453 0.013710622115468141 -0.0051910235574943453 -3330.3467823332412 -0.001805134998903668 0.013710622115468141 -0.001805134998903668 -10000.005817685145 -3330.3327020359502 0.0054795320234517497 0.002245805275379098 0.0054795320234517497 -3330.3363711085312 -0.0096257465520466212 0.002245805275379098 -0.0096257465520466212 -9999.9949501949377 -3330.3412651738345 0.010948968060536801 0.0017391786386724561 0.010948968060536801 -3330.3400127718942 -0.0086484404382645153 0.0017391786386724561 -0.0086484404382645153 -9999.9980013952518 -3330.3409453609729 0.0057062749393392842 -0.020837214644416235 0.0057062749393392842 -3330.3337745654189 -0.024984486594803457 -0.020837214644416235 -0.024984486594803457 -9999.9876014875699 -3330.3495225134229 0.0039893251853566625 -0.0081576743395999074 0.0039893251853566625 -3330.343195143605 -0.0090212792347301729 -0.0081576743395999074 -0.0090212792347301729 -10000.005786083195 -3330.3401152288407 -0.0012945084524962347 -0.011537702750501921 -0.0012945084524962347 -3330.3392915932855 -0.013379040683503263 -0.011537702750501921 -0.013379040683503263 -10000.004347348644 -3330.3509405775549 -0.0075445264978728499 -0.0057659224139570142 -0.0075445264978728499 -3330.3435148327862 -0.0033820237986219581 -0.0057659224139570142 -0.0033820237986219581 -10000.008109495699 -3330.3510884975803 0.0031407366895875866 -0.0073567208492022473 0.0031407366895875866 -3330.3316318858742 -0.0085051990645297337 -0.0073567208492022473 -0.0085051990645297337 -10000.001624684519 -3330.3504023598598 0.0039207194976174087 -0.0075008081730629783 0.0039207194976174087 -3330.3332464583164 -0.01003329484956339 -0.0075008081730629783 -0.01003329484956339 -10000.003518873484 -3330.3564946501392 0.00040333403118930633 -0.0031091618729988113 0.00040333403118930633 -3330.3342748256237 -0.002426740262308158 -0.0031091618729988113 -0.002426740262308158 -10000.005299037883 -3330.3512207129625 -0.0079043735225439171 -0.0080106444365810603 -0.0079043735225439171 -3330.3408373094571 -0.0010571433667792007 -0.0080106444365810603 -0.0010571433667792007 -10000.002374523727 -3330.3532178939895 0.0047444271540748595 -0.0072023722932499368 0.0047444271540748595 -3330.3423802836205 -0.0087429996383434627 -0.0072023722932499368 -0.0087429996383434627 -10000.004844133058 -3330.3479164356177 0.0048773458598545538 -0.0078621770080644637 0.0048773458598545538 -3330.3410540498153 -0.0086331201964640059 -0.0078621770080644637 -0.0086331201964640059 -10000.004800732342 -3330.3543230035175 0.0042080842218232828 -0.012819939482142217 0.0042080842218232828 -3330.3430154851576 -0.016525298050055426 -0.012819939482142217 -0.016525298050055426 -10000.005279210825 -3330.3526497748826 0.0026280992868487063 -0.012596519049111521 0.0026280992868487063 -3330.3432826534518 -0.015191842379863374 -0.012596519049111521 -0.015191842379863374 -10000.006541218077 -3330.3424096175695 0.006287598254270943 -0.0028123960473749321 0.006287598254270943 -3330.3409652273367 -0.0091414880275806354 -0.0028123960473749321 -0.0091414880275806354 -10000.003450380165 -3330.3409971233013 0.0070918882233950153 -0.0025215531532012392 0.0070918882233950153 -3330.3388835521691 -0.0087532243186387859 -0.0025215531532012392 -0.0087532243186387859 -10000.002528279852 -3330.3468469520867 0.010730740933217131 -0.003712682595505612 0.010730740933217131 -3330.3434584915649 -0.0064554807540844195 -0.003712682595505612 -0.0064554807540844195 -10000.005134471903 -3330.3552550569511 0.0018797165157937723 0.0096769554947968572 0.0018797165157937723 -3330.3412022333268 -0.0024171521872631274 0.0096769554947968572 -0.0024171521872631274 -10000.001796231387 -3330.3364507275201 0.0033152239261129424 0.0058093718871532474 0.0033152239261129424 -3330.3351127640926 -0.0034534681035438552 0.0058093718871532474 -0.0034534681035438552 -9999.9955727817214 -3330.3474321485737 0.0033878386148051831 2.0983556169085205e-05 0.0033878386148051831 -3330.3394441391956 -0.004233930569171207 2.0983556169085205e-05 -0.004233930569171207 -10000.004325740883 -3330.3544021497728 -0.0042568931919830244 0.0076042153223170317 -0.0042568931919830244 -3330.3400572980136 0.0053995536218280904 0.0076042153223170317 0.0053995536218280904 -9999.9840902028736 -3330.3637200616104 -0.00011647095309474942 0.0081919087806454627 -0.00011647095309474942 -3330.3473010751259 0.0048118601735041011 0.0081919087806454627 0.0048118601735041011 -9999.9882306251166 -3330.3620218051765 0.0014803606197164587 -0.0062951244653959293 0.0014803606197164587 -3330.346004951447 0.0021867205823582481 -0.0062951244653959293 0.0021867205823582481 -9999.9874820300829 -3330.3642136386679 0.0059214391024347002 0.01006341026732116 0.0059214391024347002 -3330.3484105419539 -0.0028036069616064196 0.01006341026732116 -0.0028036069616064196 -10000.00583795397 -3330.3545361140459 0.0036469934667239245 0.005083341289719101 0.0036469934667239245 -3330.3438837887152 -0.00036810626261285506 0.005083341289719101 -0.00036810626261285506 -9999.9959037653534 -3330.3672527129565 0.0055623311803910669 0.010011723170464393 0.0055623311803910669 -3330.3592895930196 -0.0029774684899166459 0.010011723170464393 -0.0029774684899166459 -10000.00931748531 -3330.3531228050415 0.0080414555096062212 0.0035529390916053671 0.0080414555096062212 -3330.3525063810612 -0.0055159681833174545 0.0035529390916053671 -0.0055159681833174545 -9999.9977060861856 -3330.3571813125473 0.0075107709457833405 0.0021536656640819274 0.0075107709457833405 -3330.3532377816864 -0.011357947958458681 0.0021536656640819274 -0.011357947958458681 -9999.998903563217 -3330.3533341589991 0.0055502137123339956 -0.0025873135018628091 0.0055502137123339956 -3330.3425887624217 -0.0017580761268618517 -0.0025873135018628091 -0.0017580761268618517 -9999.9952795200152 -3330.3650129817597 0.00085908350040053705 -0.004589759908412816 0.00085908350040053705 -3330.3489757526968 -0.0019483614669297822 -0.004589759908412816 -0.0019483614669297822 -9999.9989225885074 -3330.3699062715332 0.0036921963445772921 0.0036475458582572173 0.0036921963445772921 -3330.3575223886237 -0.018627844052389264 0.0036475458582572173 -0.018627844052389264 -10000.002282569934 
</DataArray>
</CellData>
</Piece>
</UnstructuredGrid>
</VTKFile>
