<?xml version="1.0"?>
<VTKFile type="UnstructuredGrid" version="0.1" byte_order="LittleEndian">
<UnstructuredGrid>
<Piece NumberOfPoints="2160" NumberOfCells="540">
<Points>
<DataArray type="Float64" NumberOfComponents="3" format="ascii">
-4.3301270160527148 -2.500000004970083 -12 -2.9547160992544761 -1.820741508163664 -15 -2.9547160992544761 -1.820741508163664 -12 -5 -1.397247784140632e-08 -12 -4.3301270160527148 -2.500000004970083 -12 -2.9547160992544761 -1.820741508163664 -15 -2.9547160992544761 -1.820741508163664 -12 -2.5000000000000022 -4.3301270189221919 -12 -4.3301270160527148 -2.500000004970083 -12 -4.3301270160527148 -2.500000004970083 -15 -2.9547160992544761 -1.820741508163664 -15 -2.5000000000000022 -4.3301270189221919 -12 -4.3301270160527148 -2.500000004970083 -12 -4.3301270160527148 -2.500000004970083 -15 -2.9547160992544761 -1.820741508163664 -15 -5 -1.397247784140632e-08 -15 -2.9547160992544761 -1.820741508163664 -15 -0.66987297914647026 -2.499999999706382 -15 -0.66987297914647026 -2.499999999706382 -12 -2.2735805010731909 0.22641949675281539 -12 -2.9547160992544761 -1.820741508163664 -15 -2.5000000000000022 -4.3301270189221919 -12 -0.66987297914647026 -2.499999999706382 -15 -0.66987297914647026 -2.499999999706382 -12 -2.9547160992544761 -1.820741508163664 -15 -2.9547160992544761 -1.820741508163664 -12 -0.66987297914647026 -2.499999999706382 -12 -2.2735805010731909 0.22641949675281539 -12 -2.9547160992544761 -1.820741508163664 -15 -2.9547160992544761 -1.820741508163664 -12 -2.5000000000000022 -4.3301270189221919 -12 -0.66987297914647026 -2.499999999706382 -12 -2.5000000000000022 -4.3301270189221919 -12 -2.5000000000000022 -4.3301270189221919 -15 -0.66987297914647026 -2.499999999706382 -15 6.9142305214597846e-09 -5 -12 -2.9547160992544761 -1.820741508163664 -15 -2.5000000000000022 -4.3301270189221919 -12 -2.5000000000000022 -4.3301270189221919 -15 -0.66987297914647026 -2.499999999706382 -15 -4.3301270160527148 -2.500000004970083 -15 -2.9547160992544761 -1.820741508163664 -15 -2.5000000000000022 -4.3301270189221919 -12 -2.5000000000000022 -4.3301270189221919 -15 -2.5000000000000022 -4.3301270189221919 -15 6.9142305214597846e-09 -5 -15 -0.66987297914647026 -2.499999999706382 -15 6.9142305214597846e-09 -5 -12 6.9142305214597846e-09 -5 -15 -0.66987297914647026 -2.499999999706382 -15 0.91506351643986317 -3.4150635091400758 -15 6.9142305214597846e-09 -5 -12 -0.66987297914647026 -2.499999999706382 -15 0.91506351643986317 -3.4150635091400758 -15 -0.66987297914647026 -2.499999999706382 -12 6.9142305214597846e-09 -5 -12 -0.66987297914647026 -2.499999999706382 -15 0.95458002071209891 -1.657898275923388 -15 -0.66987297914647026 -2.499999999706382 -12 0.20080558631870429 0.033909897404034287 -15 -0.66987297914647026 -2.499999999706382 -15 0.95458002071209891 -1.657898275923388 -15 0.91506351643986317 -3.4150635091400758 -15 -0.66987297914647026 -2.499999999706382 -12 0.95458002071209891 -1.657898275923388 -15 0.91506351643986317 -3.4150635091400758 -15 0.91506351643986317 -3.4150635091400758 -12 -0.66987297914647026 -2.499999999706382 -12 0.95458002071209891 -1.657898275923388 -15 2.217625015551433 -2.5696135239339939 -15 0.95458002071209891 -1.657898275923388 -12 2.3883545080289421 -0.94497882694672608 -12 0.95458002071209891 -1.657898275923388 -15 2.217625015551433 -2.5696135239339939 -15 2.3883545080289421 -0.94497882694672608 -12 2.3883545080289421 -0.94497882694672608 -15 0.95458002071209891 -1.657898275923388 -15 2.217625015551433 -2.5696135239339939 -15 0.91506351643986317 -3.4150635091400758 -12 0.95458002071209891 -1.657898275923388 -12 0.95458002071209891 -1.657898275923388 -15 2.217625015551433 -2.5696135239339939 -15 0.91506351643986317 -3.4150635091400758 -15 0.91506351643986317 -3.4150635091400758 -12 2.217625015551433 -2.5696135239339939 -15 0.91506351643986317 -3.4150635091400758 -15 2.500000010727558 -4.3301270127286351 -15 2.500000010727558 -4.3301270127286351 -12 6.9142305214597846e-09 -5 -15 0.91506351643986317 -3.4150635091400758 -15 6.9142305214597846e-09 -5 -12 2.500000010727558 -4.3301270127286351 -12 6.9142305214597846e-09 -5 -15 0.91506351643986317 -3.4150635091400758 -15 2.500000010727558 -4.3301270127286351 -15 2.500000010727558 -4.3301270127286351 -12 2.217625015551433 -2.5696135239339939 -15 0.91506351643986317 -3.4150635091400758 -15 0.91506351643986317 -3.4150635091400758 -12 2.500000010727558 -4.3301270127286351 -12 0.91506351643986317 -3.4150635091400758 -15 0.91506351643986317 -3.4150635091400758 -12 6.9142305214597846e-09 -5 -12 2.500000010727558 -4.3301270127286351 -12 2.217625015551433 -2.5696135239339939 -15 0.91506351643986317 -3.4150635091400758 -12 2.217625015551433 -2.5696135239339939 -12 2.500000010727558 -4.3301270127286351 -12 2.217625015551433 -2.5696135239339939 -15 2.217625015551433 -2.5696135239339939 -12 0.95458002071209891 -1.657898275923388 -12 2.3883545080289421 -0.94497882694672608 -12 2.217625015551433 -2.5696135239339939 -15 0.91506351643986317 -3.4150635091400758 -12 2.217625015551433 -2.5696135239339939 -12 0.95458002071209891 -1.657898275923388 -12 0.95458002071209891 -1.657898275923388 -15 0.91506351643986317 -3.4150635091400758 -12 0.95458002071209891 -1.657898275923388 -12 -0.66987297914647026 -2.499999999706382 -12 0.95458002071209891 -1.657898275923388 -15 0.95458002071209891 -1.657898275923388 -12 -0.66987297914647026 -2.499999999706382 -12 0.20080558631870429 0.033909897404034287 -12 0.91506351643986317 -3.4150635091400758 -15 0.91506351643986317 -3.4150635091400758 -12 -0.66987297914647026 -2.499999999706382 -12 6.9142305214597846e-09 -5 -12 -2.5000000000000022 -4.3301270189221919 -12 -0.66987297914647026 -2.499999999706382 -15 -0.66987297914647026 -2.499999999706382 -12 6.9142305214597846e-09 -5 -12 0.91506351643986317 -3.4150635091400758 -12 -0.66987297914647026 -2.499999999706382 -12 6.9142305214597846e-09 -5 -12 6.9142305214597846e-09 -5 -9 0.91506351643986317 -3.4150635091400758 -12 0.91506351643986317 -3.4150635091400758 -9 -0.66987297914647026 -2.499999999706382 -9 6.9142305214597846e-09 -5 -9 0.91506351643986317 -3.4150635091400758 -12 -0.66987297914647026 -2.499999999706382 -12 -0.66987297914647026 -2.499999999706382 -9 6.9142305214597846e-09 -5 -9 -0.66987297914647026 -2.499999999706382 -12 -0.66987297914647026 -2.499999999706382 -9 6.9142305214597846e-09 -5 -9 -2.5000000000000022 -4.3301270189221919 -9 -2.5000000000000022 -4.3301270189221919 -12 -0.66987297914647026 -2.499999999706382 -12 6.9142305214597846e-09 -5 -12 6.9142305214597846e-09 -5 -9 0.95458002071209891 -1.657898275923388 -12 -0.66987297914647026 -2.499999999706382 -12 -0.66987297914647026 -2.499999999706382 -9 0.20080558631870429 0.033909897404034287 -12 0.91506351643986317 -3.4150635091400758 -12 0.95458002071209891 -1.657898275923388 -12 0.91506351643986317 -3.4150635091400758 -9 -0.66987297914647026 -2.499999999706382 -9 0.95458002071209891 -1.657898275923388 -12 0.95458002071209891 -1.657898275923388 -9 -0.66987297914647026 -2.499999999706382 -9 0.20080558631870429 0.033909897404034287 -9 0.91506351643986317 -3.4150635091400758 -12 0.95458002071209891 -1.657898275923388 -12 -0.66987297914647026 -2.499999999706382 -12 -0.66987297914647026 -2.499999999706382 -9 0.95458002071209891 -1.657898275923388 -12 0.91506351643986317 -3.4150635091400758 -9 0.95458002071209891 -1.657898275923388 -9 -0.66987297914647026 -2.499999999706382 -9 2.217625015551433 -2.5696135239339939 -12 0.95458002071209891 -1.657898275923388 -9 2.217625015551433 -2.5696135239339939 -9 2.3883545080289421 -0.94497882694672608 -9 2.217625015551433 -2.5696135239339939 -12 0.95458002071209891 -1.657898275923388 -12 2.3883545080289421 -0.94497882694672608 -9 2.3883545080289421 -0.94497882694672608 -12 2.217625015551433 -2.5696135239339939 -12 0.95458002071209891 -1.657898275923388 -12 0.95458002071209891 -1.657898275923388 -9 2.3883545080289421 -0.94497882694672608 -9 2.217625015551433 -2.5696135239339939 -12 0.95458002071209891 -1.657898275923388 -12 0.91506351643986317 -3.4150635091400758 -9 0.95458002071209891 -1.657898275923388 -9 0.91506351643986317 -3.4150635091400758 -12 2.217625015551433 -2.5696135239339939 -12 0.95458002071209891 -1.657898275923388 -12 0.91506351643986317 -3.4150635091400758 -9 2.217625015551433 -2.5696135239339939 -12 0.91506351643986317 -3.4150635091400758 -9 0.95458002071209891 -1.657898275923388 -9 2.217625015551433 -2.5696135239339939 -9 0.91506351643986317 -3.4150635091400758 -12 6.9142305214597846e-09 -5 -12 2.500000010727558 -4.3301270127286351 -12 2.500000010727558 -4.3301270127286351 -9 0.91506351643986317 -3.4150635091400758 -12 0.91506351643986317 -3.4150635091400758 -9 6.9142305214597846e-09 -5 -9 2.500000010727558 -4.3301270127286351 -9 0.91506351643986317 -3.4150635091400758 -12 6.9142305214597846e-09 -5 -12 6.9142305214597846e-09 -5 -9 2.500000010727558 -4.3301270127286351 -9 0.91506351643986317 -3.4150635091400758 -12 2.217625015551433 -2.5696135239339939 -12 0.91506351643986317 -3.4150635091400758 -9 2.500000010727558 -4.3301270127286351 -9 0.91506351643986317 -3.4150635091400758 -12 2.217625015551433 -2.5696135239339939 -12 2.500000010727558 -4.3301270127286351 -12 2.500000010727558 -4.3301270127286351 -9 2.217625015551433 -2.5696135239339939 -12 0.91506351643986317 -3.4150635091400758 -9 2.217625015551433 -2.5696135239339939 -9 2.500000010727558 -4.3301270127286351 -9 0.91506351643986317 -3.4150635091400758 -9 6.9142305214597846e-09 -5 -9 2.500000010727558 -4.3301270127286351 -9 2.500000010727558 -4.3301270127286351 -6 0.91506351643986317 -3.4150635091400758 -9 2.217625015551433 -2.5696135239339939 -9 2.500000010727558 -4.3301270127286351 -9 2.500000010727558 -4.3301270127286351 -6 0.91506351643986317 -3.4150635091400758 -9 0.95458002071209891 -1.657898275923388 -9 2.217625015551433 -2.5696135239339939 -9 0.91506351643986317 -3.4150635091400758 -6 0.95458002071209891 -1.657898275923388 -9 2.217625015551433 -2.5696135239339939 -9 2.3883545080289421 -0.94497882694672608 -9 2.3883545080289421 -0.94497882694672608 -6 0.91506351643986317 -3.4150635091400758 -9 0.95458002071209891 -1.657898275923388 -9 -0.66987297914647026 -2.499999999706382 -9 -0.66987297914647026 -2.499999999706382 -6 0.95458002071209891 -1.657898275923388 -9 -0.66987297914647026 -2.499999999706382 -9 0.20080558631870429 0.033909897404034287 -9 -0.66987297914647026 -2.499999999706382 -6 -0.66987297914647026 -2.499999999706382 -9 6.9142305214597846e-09 -5 -9 -2.5000000000000022 -4.3301270189221919 -9 6.9142305214597846e-09 -5 -6 0.91506351643986317 -3.4150635091400758 -9 -0.66987297914647026 -2.499999999706382 -9 6.9142305214597846e-09 -5 -9 6.9142305214597846e-09 -5 -6 -0.66987297914647026 -2.499999999706382 -9 -2.5000000000000022 -4.3301270189221919 -9 -2.9547160992544761 -1.820741508163664 -9 -2.5000000000000022 -4.3301270189221919 -6 -2.5000000000000022 -4.3301270189221919 -9 -4.3301270160527148 -2.500000004970083 -9 -2.9547160992544761 -1.820741508163664 -9 -2.5000000000000022 -4.3301270189221919 -6 -2.5000000000000022 -4.3301270189221919 -12 -0.66987297914647026 -2.499999999706382 -12 6.9142305214597846e-09 -5 -9 -2.5000000000000022 -4.3301270189221919 -9 -2.9547160992544761 -1.820741508163664 -12 -2.5000000000000022 -4.3301270189221919 -12 -0.66987297914647026 -2.499999999706382 -12 -2.5000000000000022 -4.3301270189221919 -9 -4.3301270160527148 -2.500000004970083 -12 -2.9547160992544761 -1.820741508163664 -12 -2.5000000000000022 -4.3301270189221919 -12 -2.5000000000000022 -4.3301270189221919 -9 -2.9547160992544761 -1.820741508163664 -12 -0.66987297914647026 -2.499999999706382 -9 -2.9547160992544761 -1.820741508163664 -9 -2.2735805010731909 0.22641949675281539 -9 -2.9547160992544761 -1.820741508163664 -12 -0.66987297914647026 -2.499999999706382 -9 -2.5000000000000022 -4.3301270189221919 -9 -2.9547160992544761 -1.820741508163664 -9 -2.9547160992544761 -1.820741508163664 -12 -0.66987297914647026 -2.499999999706382 -12 -0.66987297914647026 -2.499999999706382 -9 -2.5000000000000022 -4.3301270189221919 -9 -2.9547160992544761 -1.820741508163664 -12 -0.66987297914647026 -2.499999999706382 -12 -0.66987297914647026 -2.499999999706382 -9 -2.2735805010731909 0.22641949675281539 -9 -2.9547160992544761 -1.820741508163664 -12 -2.5000000000000022 -4.3301270189221919 -9 -4.3301270160527148 -2.500000004970083 -9 -2.9547160992544761 -1.820741508163664 -9 -4.3301270160527148 -2.500000004970083 -12 -2.9547160992544761 -1.820741508163664 -12 -2.5000000000000022 -4.3301270189221919 -9 -4.3301270160527148 -2.500000004970083 -9 -2.9547160992544761 -1.820741508163664 -12 -4.3301270160527148 -2.500000004970083 -9 -2.9547160992544761 -1.820741508163664 -9 -5 -1.397247784140632e-08 -9 -4.3301270160527148 -2.500000004970083 -12 -2.9547160992544761 -1.820741508163664 -12 -4.3301270160527148 -2.500000004970083 -9 -5 -1.397247784140632e-08 -12 -4.3301270160527148 -2.500000004970083 -9 -2.9547160992544761 -1.820741508163664 -9 -5 -1.397247784140632e-08 -9 -4.3301270160527148 -2.500000004970083 -6 -0.66987297914647026 -2.499999999706382 -9 -2.2735805010731909 0.22641949675281539 -9 0.20080558631870429 0.033909897404034287 -9 -2.2735805010731909 0.22641949675281539 -6 -0.66987297914647026 -2.499999999706382 -9 -2.9547160992544761 -1.820741508163664 -9 -2.2735805010731909 0.22641949675281539 -9 -2.2735805010731909 0.22641949675281539 -6 -2.2735805010731909 0.22641949675281539 -9 -0.91506351183037493 1.5849364925866429 -9 0.20080558631870429 0.033909897404034287 -9 -2.2735805010731909 0.22641949675281539 -6 -2.9547160992544761 -1.820741508163664 -9 -2.2735805010731909 0.22641949675281539 -9 -5 -1.397247784140632e-08 -9 -5 -1.397247784140632e-08 -6 -2.9547160992544761 -1.820741508163664 -12 -2.9547160992544761 -1.820741508163664 -9 -2.2735805010731909 0.22641949675281539 -9 -5 -1.397247784140632e-08 -9 -2.9547160992544761 -1.820741508163664 -12 -5 -1.397247784140632e-08 -9 -2.2735805010731909 0.22641949675281539 -12 -5 -1.397247784140632e-08 -12 -2.9547160992544761 -1.820741508163664 -12 -2.2735805010731909 0.22641949675281539 -9 -5 -1.397247784140632e-08 -9 -2.2735805010731909 0.22641949675281539 -12 -2.9547160992544761 -1.820741508163664 -12 -4.3301270160527148 -2.500000004970083 -9 -5 -1.397247784140632e-08 -9 -5 -1.397247784140632e-08 -12 -2.9547160992544761 -1.820741508163664 -12 -0.66987297914647026 -2.499999999706382 -12 -2.2735805010731909 0.22641949675281539 -9 -2.2735805010731909 0.22641949675281539 -12 -2.2735805010731909 0.22641949675281539 -9 -0.91506351183037493 1.5849364925866429 -12 0.20080558631870429 0.033909897404034287 -12 -2.2735805010731909 0.22641949675281539 -12 -0.66987297914647026 -2.499999999706382 -12 -2.2735805010731909 0.22641949675281539 -9 0.20080558631870429 0.033909897404034287 -12 -2.2735805010731909 0.22641949675281539 -12 -2.2253246846922492 2.366533744740174 -9 -0.91506351183037493 1.5849364925866429 -9 -2.2253246846922492 2.366533744740174 -12 -1.107852388446384 3.1911857209629071 -9 -2.2735805010731909 0.22641949675281539 -9 -0.91506351183037493 1.5849364925866429 -12 -2.2253246846922492 2.366533744740174 -12 -2.2735805010731909 0.22641949675281539 -12 -0.91506351183037493 1.5849364925866429 -9 -0.91506351183037493 1.5849364925866429 -12 -2.2253246846922492 2.366533744740174 -12 -1.107852388446384 3.1911857209629071 -12 -2.2735805010731909 0.22641949675281539 -9 -2.2253246846922492 2.366533744740174 -9 -0.91506351183037493 1.5849364925866429 -9 -2.2253246846922492 2.366533744740174 -12 -2.2735805010731909 0.22641949675281539 -9 -0.91506351183037493 1.5849364925866429 -9 -0.91506351183037493 1.5849364925866429 -12 -2.2253246846922492 2.366533744740174 -12 -2.2735805010731909 0.22641949675281539 -9 -4.3301270221112951 2.4999999944763132 -9 -2.2253246846922492 2.366533744740174 -9 -2.2253246846922492 2.366533744740174 -12 -2.2735805010731909 0.22641949675281539 -9 -4.3301270221112951 2.4999999944763132 -9 -2.2253246846922492 2.366533744740174 -12 -2.2735805010731909 0.22641949675281539 -12 -5 -1.397247784140632e-08 -9 -4.3301270221112951 2.4999999944763132 -9 -2.2735805010731909 0.22641949675281539 -12 -4.3301270221112951 2.4999999944763132 -12 -5 -1.397247784140632e-08 -9 -2.2735805010731909 0.22641949675281539 -12 -5 -1.397247784140632e-08 -12 -4.3301270221112951 2.4999999944763132 -12 -2.2735805010731909 0.22641949675281539 -9 -5 -1.397247784140632e-08 -9 -4.3301270221112951 2.4999999944763132 -9 -2.2735805010731909 0.22641949675281539 -12 -4.3301270221112951 2.4999999944763132 -9 -2.2253246846922492 2.366533744740174 -12 -2.2735805010731909 0.22641949675281539 -12 -4.3301270221112951 2.4999999944763132 -12 -2.2735805010731909 0.22641949675281539 -9 -5 -1.397247784140632e-08 -9 -4.3301270221112951 2.4999999944763132 -9 -5 -1.397247784140632e-08 -6 -2.2735805010731909 0.22641949675281539 -9 -4.3301270221112951 2.4999999944763132 -9 -2.2253246846922492 2.366533744740174 -9 -4.3301270221112951 2.4999999944763132 -6 -2.2253246846922492 2.366533744740174 -9 -0.91506351183037493 1.5849364925866429 -9 -1.107852388446384 3.1911857209629071 -9 -0.91506351183037493 1.5849364925866429 -6 -2.2735805010731909 0.22641949675281539 -9 -2.2253246846922492 2.366533744740174 -9 -0.91506351183037493 1.5849364925866429 -9 -2.2735805010731909 0.22641949675281539 -6 -0.91506351183037493 1.5849364925866429 -9 0.20080558631870429 0.033909897404034287 -9 0.37580157663508379 2.5408650916807378 -9 0.20080558631870429 0.033909897404034287 -6 -0.91506351183037493 1.5849364925866429 -9 0.37580157663508379 2.5408650916807378 -9 -1.107852388446384 3.1911857209629071 -9 0.37580157663508379 2.5408650916807378 -6 0.20080558631870429 0.033909897404034287 -9 2.3883545080289421 -0.94497882694672608 -9 2.465848112410058 1.4099871989758821 -9 2.3883545080289421 -0.94497882694672608 -6 0.95458002071209891 -1.657898275923388 -9 0.20080558631870429 0.033909897404034287 -9 2.3883545080289421 -0.94497882694672608 -9 2.3883545080289421 -0.94497882694672608 -6 0.20080558631870429 0.033909897404034287 -9 2.465848112410058 1.4099871989758821 -9 0.37580157663508379 2.5408650916807378 -9 0.20080558631870429 0.033909897404034287 -6 0.20080558631870429 0.033909897404034287 -9 2.465848112410058 1.4099871989758821 -12 0.37580157663508379 2.5408650916807378 -9 0.37580157663508379 2.5408650916807378 -12 2.465848112410058 1.4099871989758821 -9 2.465848112410058 1.4099871989758821 -12 2.4999999879139869 4.3301270259000564 -9 0.37580157663508379 2.5408650916807378 -9 0.20080558631870429 0.033909897404034287 -9 2.465848112410058 1.4099871989758821 -9 2.465848112410058 1.4099871989758821 -12 0.37580157663508379 2.5408650916807378 -9 0.20080558631870429 0.033909897404034287 -9 0.20080558631870429 0.033909897404034287 -12 2.465848112410058 1.4099871989758821 -12 0.37580157663508379 2.5408650916807378 -12 0.95458002071209891 -1.657898275923388 -12 2.3883545080289421 -0.94497882694672608 -9 0.20080558631870429 0.033909897404034287 -12 2.3883545080289421 -0.94497882694672608 -12 0.95458002071209891 -1.657898275923388 -12 0.20080558631870429 0.033909897404034287 -9 2.3883545080289421 -0.94497882694672608 -9 0.20080558631870429 0.033909897404034287 -12 0.20080558631870429 0.033909897404034287 -9 2.3883545080289421 -0.94497882694672608 -9 2.465848112410058 1.4099871989758821 -9 2.465848112410058 1.4099871989758821 -12 2.3883545080289421 -0.94497882694672608 -9 0.20080558631870429 0.033909897404034287 -12 2.3883545080289421 -0.94497882694672608 -12 2.465848112410058 1.4099871989758821 -12 0.20080558631870429 0.033909897404034287 -9 2.3883545080289421 -0.94497882694672608 -9 0.20080558631870429 0.033909897404034287 -12 2.465848112410058 1.4099871989758821 -12 0.95458002071209891 -1.657898275923388 -12 0.95458002071209891 -1.657898275923388 -9 0.20080558631870429 0.033909897404034287 -9 2.3883545080289421 -0.94497882694672608 -9 -2.2735805010731909 0.22641949675281539 -9 0.20080558631870429 0.033909897404034287 -9 -0.91506351183037493 1.5849364925866429 -12 0.20080558631870429 0.033909897404034287 -12 -0.66987297914647026 -2.499999999706382 -12 -0.66987297914647026 -2.499999999706382 -9 -2.2735805010731909 0.22641949675281539 -9 0.20080558631870429 0.033909897404034287 -12 0.95458002071209891 -1.657898275923388 -12 -0.66987297914647026 -2.499999999706382 -9 0.20080558631870429 0.033909897404034287 -9 0.20080558631870429 0.033909897404034287 -12 -0.66987297914647026 -2.499999999706382 -9 -2.2735805010731909 0.22641949675281539 -9 0.20080558631870429 0.033909897404034287 -9 0.20080558631870429 0.033909897404034287 -12 -2.2735805010731909 0.22641949675281539 -9 -0.91506351183037493 1.5849364925866429 -9 0.20080558631870429 0.033909897404034287 -9 -0.91506351183037493 1.5849364925866429 -12 -0.91506351183037493 1.5849364925866429 -9 0.20080558631870429 0.033909897404034287 -9 -0.91506351183037493 1.5849364925866429 -12 0.37580157663508379 2.5408650916807378 -9 0.20080558631870429 0.033909897404034287 -9 -0.91506351183037493 1.5849364925866429 -12 0.20080558631870429 0.033909897404034287 -12 0.37580157663508379 2.5408650916807378 -12 0.20080558631870429 0.033909897404034287 -9 -0.91506351183037493 1.5849364925866429 -12 0.37580157663508379 2.5408650916807378 -9 0.37580157663508379 2.5408650916807378 -12 -0.91506351183037493 1.5849364925866429 -9 -0.91506351183037493 1.5849364925866429 -12 0.37580157663508379 2.5408650916807378 -9 -1.107852388446384 3.1911857209629071 -12 -0.91506351183037493 1.5849364925866429 -12 0.37580157663508379 2.5408650916807378 -9 0.37580157663508379 2.5408650916807378 -12 -1.107852388446384 3.1911857209629071 -12 -0.91506351183037493 1.5849364925866429 -12 0.20080558631870429 0.033909897404034287 -12 -0.91506351183037493 1.5849364925866429 -15 -2.2735805010731909 0.22641949675281539 -12 -0.91506351183037493 1.5849364925866429 -12 0.20080558631870429 0.033909897404034287 -12 -0.91506351183037493 1.5849364925866429 -15 0.37580157663508379 2.5408650916807378 -12 -0.66987297914647026 -2.499999999706382 -12 0.20080558631870429 0.033909897404034287 -12 0.20080558631870429 0.033909897404034287 -15 -2.2735805010731909 0.22641949675281539 -12 0.20080558631870429 0.033909897404034287 -12 2.3883545080289421 -0.94497882694672608 -12 2.465848112410058 1.4099871989758821 -12 2.465848112410058 1.4099871989758821 -15 0.95458002071209891 -1.657898275923388 -15 0.95458002071209891 -1.657898275923388 -12 0.20080558631870429 0.033909897404034287 -12 2.3883545080289421 -0.94497882694672608 -12 2.465848112410058 1.4099871989758821 -12 2.465848112410058 1.4099871989758821 -15 2.4999999879139869 4.3301270259000564 -12 0.37580157663508379 2.5408650916807378 -12 0.20080558631870429 0.033909897404034287 -12 2.465848112410058 1.4099871989758821 -12 2.465848112410058 1.4099871989758821 -15 0.37580157663508379 2.5408650916807378 -12 0.20080558631870429 0.033909897404034287 -12 2.465848112410058 1.4099871989758821 -15 0.37580157663508379 2.5408650916807378 -12 0.37580157663508379 2.5408650916807378 -15 0.20080558631870429 0.033909897404034287 -12 2.465848112410058 1.4099871989758821 -15 0.20080558631870429 0.033909897404034287 -15 0.37580157663508379 2.5408650916807378 -15 2.3883545080289421 -0.94497882694672608 -12 2.465848112410058 1.4099871989758821 -15 2.3883545080289421 -0.94497882694672608 -15 0.20080558631870429 0.033909897404034287 -15 0.95458002071209891 -1.657898275923388 -15 0.20080558631870429 0.033909897404034287 -12 2.3883545080289421 -0.94497882694672608 -12 0.20080558631870429 0.033909897404034287 -15 0.20080558631870429 0.033909897404034287 -12 2.3883545080289421 -0.94497882694672608 -12 2.465848112410058 1.4099871989758821 -15 0.20080558631870429 0.033909897404034287 -15 0.95458002071209891 -1.657898275923388 -15 2.3883545080289421 -0.94497882694672608 -12 2.3883545080289421 -0.94497882694672608 -15 0.20080558631870429 0.033909897404034287 -15 -0.66987297914647026 -2.499999999706382 -15 -0.66987297914647026 -2.499999999706382 -12 0.20080558631870429 0.033909897404034287 -15 -2.2735805010731909 0.22641949675281539 -12 0.20080558631870429 0.033909897404034287 -12 0.20080558631870429 0.033909897404034287 -15 -0.91506351183037493 1.5849364925866429 -15 -2.2735805010731909 0.22641949675281539 -12 0.95458002071209891 -1.657898275923388 -15 -0.66987297914647026 -2.499999999706382 -12 0.20080558631870429 0.033909897404034287 -12 0.20080558631870429 0.033909897404034287 -15 0.20080558631870429 0.033909897404034287 -12 -0.91506351183037493 1.5849364925866429 -15 0.37580157663508379 2.5408650916807378 -12 0.37580157663508379 2.5408650916807378 -15 -0.91506351183037493 1.5849364925866429 -15 0.37580157663508379 2.5408650916807378 -12 -1.107852388446384 3.1911857209629071 -15 0.37580157663508379 2.5408650916807378 -15 -0.91506351183037493 1.5849364925866429 -12 -0.91506351183037493 1.5849364925866429 -15 0.37580157663508379 2.5408650916807378 -12 -1.107852388446384 3.1911857209629071 -15 0.20080558631870429 0.033909897404034287 -12 0.20080558631870429 0.033909897404034287 -15 -0.91506351183037493 1.5849364925866429 -15 0.37580157663508379 2.5408650916807378 -15 -0.91506351183037493 1.5849364925866429 -12 -0.91506351183037493 1.5849364925866429 -15 -2.2253246846922492 2.366533744740174 -15 -2.2735805010731909 0.22641949675281539 -12 -0.91506351183037493 1.5849364925866429 -15 -2.2253246846922492 2.366533744740174 -15 -2.2735805010731909 0.22641949675281539 -12 -2.2735805010731909 0.22641949675281539 -15 -2.2253246846922492 2.366533744740174 -15 -2.2735805010731909 0.22641949675281539 -12 -2.2735805010731909 0.22641949675281539 -15 -4.3301270221112951 2.4999999944763132 -12 -0.91506351183037493 1.5849364925866429 -12 -0.91506351183037493 1.5849364925866429 -15 -2.2253246846922492 2.366533744740174 -15 -1.107852388446384 3.1911857209629071 -15 -0.91506351183037493 1.5849364925866429 -12 -2.2253246846922492 2.366533744740174 -15 -2.2253246846922492 2.366533744740174 -12 -2.2735805010731909 0.22641949675281539 -12 -2.2253246846922492 2.366533744740174 -15 -2.2253246846922492 2.366533744740174 -12 -2.2735805010731909 0.22641949675281539 -12 -4.3301270221112951 2.4999999944763132 -12 -0.91506351183037493 1.5849364925866429 -12 -2.2253246846922492 2.366533744740174 -15 -2.2253246846922492 2.366533744740174 -12 -1.107852388446384 3.1911857209629071 -12 -2.9547160992544761 -1.820741508163664 -15 -0.66987297914647026 -2.499999999706382 -15 -2.2735805010731909 0.22641949675281539 -12 -2.2735805010731909 0.22641949675281539 -15 0.20080558631870429 0.033909897404034287 -15 -0.91506351183037493 1.5849364925866429 -15 -2.2735805010731909 0.22641949675281539 -12 -2.2735805010731909 0.22641949675281539 -15 -0.66987297914647026 -2.499999999706382 -15 0.20080558631870429 0.033909897404034287 -15 -2.2735805010731909 0.22641949675281539 -12 -2.2735805010731909 0.22641949675281539 -15 -4.3301270160527148 -2.500000004970083 -12 -2.9547160992544761 -1.820741508163664 -15 -5 -1.397247784140632e-08 -15 -5 -1.397247784140632e-08 -12 -2.9547160992544761 -1.820741508163664 -15 -2.2735805010731909 0.22641949675281539 -12 -2.2735805010731909 0.22641949675281539 -15 -5 -1.397247784140632e-08 -12 -2.9547160992544761 -1.820741508163664 -15 -2.2735805010731909 0.22641949675281539 -15 -5 -1.397247784140632e-08 -15 -5 -1.397247784140632e-08 -12 -2.9547160992544761 -1.820741508163664 -15 -2.9547160992544761 -1.820741508163664 -12 -2.2735805010731909 0.22641949675281539 -12 -5 -1.397247784140632e-08 -12 -2.2735805010731909 0.22641949675281539 -12 -2.2735805010731909 0.22641949675281539 -15 -5 -1.397247784140632e-08 -12 -4.3301270221112951 2.4999999944763132 -12 -2.2735805010731909 0.22641949675281539 -15 -5 -1.397247784140632e-08 -15 -5 -1.397247784140632e-08 -12 -4.3301270221112951 2.4999999944763132 -15 -2.2735805010731909 0.22641949675281539 -15 -5 -1.397247784140632e-08 -12 -4.3301270221112951 2.4999999944763132 -12 -4.3301270221112951 2.4999999944763132 -15 -2.2253246846922492 2.366533744740174 -15 -2.2735805010731909 0.22641949675281539 -15 -4.3301270221112951 2.4999999944763132 -12 -4.3301270221112951 2.4999999944763132 -15 -2.2253246846922492 2.366533744740174 -15 -4.3301270221112951 2.4999999944763132 -12 -4.3301270221112951 2.4999999944763132 -15 -2.4999999999999991 4.3301270189221936 -15 -0.91506351183037493 1.5849364925866429 -12 -2.2253246846922492 2.366533744740174 -15 -1.107852388446384 3.1911857209629071 -12 -1.107852388446384 3.1911857209629071 -15 -2.2253246846922492 2.366533744740174 -15 -4.3301270221112951 2.4999999944763132 -12 -2.4999999999999991 4.3301270189221936 -15 -2.4999999999999991 4.3301270189221936 -12 -2.2253246846922492 2.366533744740174 -15 -2.4999999999999991 4.3301270189221936 -15 -2.4999999999999991 4.3301270189221936 -12 -1.107852388446384 3.1911857209629071 -15 -2.2253246846922492 2.366533744740174 -15 -2.4999999999999991 4.3301270189221936 -12 -1.107852388446384 3.1911857209629071 -12 -1.107852388446384 3.1911857209629071 -15 -2.4999999999999991 4.3301270189221936 -15 -2.4999999999999991 4.3301270189221936 -12 -1.107852388446384 3.1911857209629071 -15 -6.2995949836986492e-09 5 -15 -2.2253246846922492 2.366533744740174 -15 -2.2253246846922492 2.366533744740174 -12 -2.4999999999999991 4.3301270189221936 -12 -1.107852388446384 3.1911857209629071 -12 -2.2253246846922492 2.366533744740174 -15 -2.2253246846922492 2.366533744740174 -12 -4.3301270221112951 2.4999999944763132 -12 -2.4999999999999991 4.3301270189221936 -12 -4.3301270221112951 2.4999999944763132 -9 -2.2253246846922492 2.366533744740174 -12 -4.3301270221112951 2.4999999944763132 -12 -2.4999999999999991 4.3301270189221936 -12 -2.4999999999999991 4.3301270189221936 -12 -2.4999999999999991 4.3301270189221936 -9 -6.2995949836986492e-09 5 -12 -1.107852388446384 3.1911857209629071 -12 -0.91506351183037493 1.5849364925866429 -9 -2.2253246846922492 2.366533744740174 -12 -1.107852388446384 3.1911857209629071 -9 -1.107852388446384 3.1911857209629071 -12 -4.3301270221112951 2.4999999944763132 -9 -2.2253246846922492 2.366533744740174 -12 -2.4999999999999991 4.3301270189221936 -12 -2.4999999999999991 4.3301270189221936 -9 -4.3301270221112951 2.4999999944763132 -9 -2.2253246846922492 2.366533744740174 -9 -2.2253246846922492 2.366533744740174 -12 -2.4999999999999991 4.3301270189221936 -9 -2.2253246846922492 2.366533744740174 -9 -2.2253246846922492 2.366533744740174 -12 -2.4999999999999991 4.3301270189221936 -9 -1.107852388446384 3.1911857209629071 -9 -2.2253246846922492 2.366533744740174 -12 -2.4999999999999991 4.3301270189221936 -12 -2.4999999999999991 4.3301270189221936 -9 -1.107852388446384 3.1911857209629071 -12 -2.2253246846922492 2.366533744740174 -12 -2.4999999999999991 4.3301270189221936 -9 -1.107852388446384 3.1911857209629071 -9 -1.107852388446384 3.1911857209629071 -12 -2.4999999999999991 4.3301270189221936 -9 -6.2995949836986492e-09 5 -9 -1.107852388446384 3.1911857209629071 -9 -2.4999999999999991 4.3301270189221936 -6 -2.2253246846922492 2.366533744740174 -9 -2.4999999999999991 4.3301270189221936 -9 -1.107852388446384 3.1911857209629071 -9 -2.4999999999999991 4.3301270189221936 -6 -4.3301270221112951 2.4999999944763132 -9 -2.2253246846922492 2.366533744740174 -9 -2.4999999999999991 4.3301270189221936 -9 -4.3301270221112951 2.4999999944763132 -6 -2.4999999999999991 4.3301270189221936 -9 -6.2995949836986492e-09 5 -9 -6.2995949836986492e-09 5 -12 -1.107852388446384 3.1911857209629071 -12 -6.2995949836986492e-09 5 -9 2.4999999879139869 4.3301270259000564 -9 0.37580157663508379 2.5408650916807378 -9 -6.2995949836986492e-09 5 -6 2.465848112410058 1.4099871989758821 -9 2.4999999879139869 4.3301270259000564 -9 0.37580157663508379 2.5408650916807378 -9 2.4999999879139869 4.3301270259000564 -6 -6.2995949836986492e-09 5 -9 0.37580157663508379 2.5408650916807378 -9 -1.107852388446384 3.1911857209629071 -9 -6.2995949836986492e-09 5 -6 -0.91506351183037493 1.5849364925866429 -9 0.37580157663508379 2.5408650916807378 -9 -1.107852388446384 3.1911857209629071 -9 -1.107852388446384 3.1911857209629071 -12 -6.2995949836986492e-09 5 -9 0.37580157663508379 2.5408650916807378 -9 0.37580157663508379 2.5408650916807378 -12 -1.107852388446384 3.1911857209629071 -12 -6.2995949836986492e-09 5 -9 -6.2995949836986492e-09 5 -12 0.37580157663508379 2.5408650916807378 -12 -1.107852388446384 3.1911857209629071 -12 -2.4999999999999991 4.3301270189221936 -9 -6.2995949836986492e-09 5 -9 -1.107852388446384 3.1911857209629071 -9 -1.107852388446384 3.1911857209629071 -12 -6.2995949836986492e-09 5 -9 0.37580157663508379 2.5408650916807378 -9 -1.107852388446384 3.1911857209629071 -9 -1.107852388446384 3.1911857209629071 -12 2.465848112410058 1.4099871989758821 -12 2.4999999879139869 4.3301270259000564 -9 2.4999999879139869 4.3301270259000564 -12 0.37580157663508379 2.5408650916807378 -12 -6.2995949836986492e-09 5 -9 2.4999999879139869 4.3301270259000564 -9 0.37580157663508379 2.5408650916807378 -9 0.37580157663508379 2.5408650916807378 -12 -6.2995949836986492e-09 5 -9 2.4999999879139869 4.3301270259000564 -12 -6.2995949836986492e-09 5 -12 0.37580157663508379 2.5408650916807378 -12 -6.2995949836986492e-09 5 -9 2.4999999879139869 4.3301270259000564 -9 2.4999999879139869 4.3301270259000564 -12 0.37580157663508379 2.5408650916807378 -12 2.465848112410058 1.4099871989758821 -12 2.4999999879139869 4.3301270259000564 -9 0.37580157663508379 2.5408650916807378 -9 0.37580157663508379 2.5408650916807378 -12 2.4999999879139869 4.3301270259000564 -12 -6.2995949836986492e-09 5 -12 0.37580157663508379 2.5408650916807378 -12 0.37580157663508379 2.5408650916807378 -15 -2.4999999999999991 4.3301270189221936 -12 -6.2995949836986492e-09 5 -12 -1.107852388446384 3.1911857209629071 -12 -1.107852388446384 3.1911857209629071 -15 -0.91506351183037493 1.5849364925866429 -12 0.37580157663508379 2.5408650916807378 -12 -1.107852388446384 3.1911857209629071 -12 -1.107852388446384 3.1911857209629071 -15 -6.2995949836986492e-09 5 -12 0.37580157663508379 2.5408650916807378 -12 -1.107852388446384 3.1911857209629071 -12 -1.107852388446384 3.1911857209629071 -15 -6.2995949836986492e-09 5 -12 0.37580157663508379 2.5408650916807378 -12 -1.107852388446384 3.1911857209629071 -15 0.37580157663508379 2.5408650916807378 -15 -6.2995949836986492e-09 5 -12 -1.107852388446384 3.1911857209629071 -15 0.37580157663508379 2.5408650916807378 -15 -6.2995949836986492e-09 5 -15 -2.4999999999999991 4.3301270189221936 -12 -6.2995949836986492e-09 5 -12 -1.107852388446384 3.1911857209629071 -15 -6.2995949836986492e-09 5 -15 2.4999999879139869 4.3301270259000564 -12 -6.2995949836986492e-09 5 -12 0.37580157663508379 2.5408650916807378 -15 2.4999999879139869 4.3301270259000564 -15 2.465848112410058 1.4099871989758821 -15 2.4999999879139869 4.3301270259000564 -12 0.37580157663508379 2.5408650916807378 -12 0.37580157663508379 2.5408650916807378 -15 2.465848112410058 1.4099871989758821 -15 2.4999999879139869 4.3301270259000564 -12 0.37580157663508379 2.5408650916807378 -15 2.4999999879139869 4.3301270259000564 -15 -6.2995949836986492e-09 5 -12 0.37580157663508379 2.5408650916807378 -15 -6.2995949836986492e-09 5 -15 2.4999999879139869 4.3301270259000564 -15 2.465848112410058 1.4099871989758821 -15 2.4999999879139869 4.3301270259000564 -12 4.3301270155636349 2.5000000058171929 -15 4.3301270155636349 2.5000000058171929 -12 2.465848112410058 1.4099871989758821 -15 2.4999999879139869 4.3301270259000564 -12 2.4999999879139869 4.3301270259000564 -15 4.3301270155636349 2.5000000058171929 -15 2.465848112410058 1.4099871989758821 -12 2.4999999879139869 4.3301270259000564 -9 4.3301270155636349 2.5000000058171929 -12 4.3301270155636349 2.5000000058171929 -9 2.465848112410058 1.4099871989758821 -12 2.4999999879139869 4.3301270259000564 -9 2.4999999879139869 4.3301270259000564 -12 4.3301270155636349 2.5000000058171929 -12 2.465848112410058 1.4099871989758821 -9 2.4999999879139869 4.3301270259000564 -9 4.3301270155636349 2.5000000058171929 -9 2.4999999879139869 4.3301270259000564 -6 2.217625015551433 -2.5696135239339939 -15 2.500000010727558 -4.3301270127286351 -15 2.500000010727558 -4.3301270127286351 -12 4.3301270218486989 -2.4999999949311431 -12 2.217625015551433 -2.5696135239339939 -15 2.217625015551433 -2.5696135239339939 -12 2.500000010727558 -4.3301270127286351 -12 4.3301270218486989 -2.4999999949311431 -12 2.217625015551433 -2.5696135239339939 -15 2.217625015551433 -2.5696135239339939 -12 2.3883545080289421 -0.94497882694672608 -12 4.3301270218486989 -2.4999999949311431 -12 2.217625015551433 -2.5696135239339939 -15 2.500000010727558 -4.3301270127286351 -15 4.3301270218486989 -2.4999999949311431 -12 4.3301270218486989 -2.4999999949311431 -15 2.217625015551433 -2.5696135239339939 -15 2.3883545080289421 -0.94497882694672608 -12 2.3883545080289421 -0.94497882694672608 -15 4.3301270218486989 -2.4999999949311431 -12 2.217625015551433 -2.5696135239339939 -15 2.3883545080289421 -0.94497882694672608 -15 4.3301270218486989 -2.4999999949311431 -12 4.3301270218486989 -2.4999999949311431 -15 2.3883545080289421 -0.94497882694672608 -15 4.3301270218486989 -2.4999999949311431 -12 4.3301270218486989 -2.4999999949311431 -15 5 0 -12 2.3883545080289421 -0.94497882694672608 -15 4.3301270218486989 -2.4999999949311431 -15 5 0 -15 5 0 -12 2.465848112410058 1.4099871989758821 -15 2.3883545080289421 -0.94497882694672608 -15 5 0 -15 5 0 -12 2.3883545080289421 -0.94497882694672608 -12 2.465848112410058 1.4099871989758821 -15 2.3883545080289421 -0.94497882694672608 -15 5 0 -12 2.465848112410058 1.4099871989758821 -15 4.3301270155636349 2.5000000058171929 -15 4.3301270155636349 2.5000000058171929 -12 5 0 -15 2.465848112410058 1.4099871989758821 -15 4.3301270155636349 2.5000000058171929 -12 5 0 -15 5 0 -12 2.465848112410058 1.4099871989758821 -12 2.465848112410058 1.4099871989758821 -15 2.4999999879139869 4.3301270259000564 -12 4.3301270155636349 2.5000000058171929 -12 2.465848112410058 1.4099871989758821 -12 2.465848112410058 1.4099871989758821 -15 4.3301270155636349 2.5000000058171929 -12 5 0 -12 2.3883545080289421 -0.94497882694672608 -12 2.3883545080289421 -0.94497882694672608 -15 4.3301270218486989 -2.4999999949311431 -12 5 0 -12 2.3883545080289421 -0.94497882694672608 -12 2.465848112410058 1.4099871989758821 -12 2.465848112410058 1.4099871989758821 -15 5 0 -12 2.3883545080289421 -0.94497882694672608 -9 2.3883545080289421 -0.94497882694672608 -12 5 0 -9 4.3301270218486989 -2.4999999949311431 -9 2.3883545080289421 -0.94497882694672608 -12 4.3301270218486989 -2.4999999949311431 -12 5 0 -12 5 0 -9 2.3883545080289421 -0.94497882694672608 -9 2.3883545080289421 -0.94497882694672608 -12 2.465848112410058 1.4099871989758821 -12 5 0 -9 2.3883545080289421 -0.94497882694672608 -9 2.465848112410058 1.4099871989758821 -9 2.465848112410058 1.4099871989758821 -12 5 0 -9 2.3883545080289421 -0.94497882694672608 -12 2.465848112410058 1.4099871989758821 -12 5 0 -12 5 0 -9 2.465848112410058 1.4099871989758821 -9 2.465848112410058 1.4099871989758821 -12 2.4999999879139869 4.3301270259000564 -9 4.3301270155636349 2.5000000058171929 -9 2.465848112410058 1.4099871989758821 -12 4.3301270155636349 2.5000000058171929 -9 5 0 -12 5 0 -9 2.465848112410058 1.4099871989758821 -12 4.3301270155636349 2.5000000058171929 -12 4.3301270155636349 2.5000000058171929 -9 5 0 -12 2.465848112410058 1.4099871989758821 -9 2.465848112410058 1.4099871989758821 -12 4.3301270155636349 2.5000000058171929 -9 5 0 -9 2.465848112410058 1.4099871989758821 -9 4.3301270155636349 2.5000000058171929 -9 5 0 -9 4.3301270155636349 2.5000000058171929 -6 2.3883545080289421 -0.94497882694672608 -9 5 0 -9 4.3301270218486989 -2.4999999949311431 -9 5 0 -6 2.3883545080289421 -0.94497882694672608 -9 2.465848112410058 1.4099871989758821 -9 5 0 -9 5 0 -6 2.217625015551433 -2.5696135239339939 -9 2.3883545080289421 -0.94497882694672608 -9 4.3301270218486989 -2.4999999949311431 -9 4.3301270218486989 -2.4999999949311431 -6 2.217625015551433 -2.5696135239339939 -9 4.3301270218486989 -2.4999999949311431 -9 2.500000010727558 -4.3301270127286351 -9 4.3301270218486989 -2.4999999949311431 -6 2.217625015551433 -2.5696135239339939 -12 2.3883545080289421 -0.94497882694672608 -12 4.3301270218486989 -2.4999999949311431 -12 4.3301270218486989 -2.4999999949311431 -9 2.217625015551433 -2.5696135239339939 -12 2.217625015551433 -2.5696135239339939 -9 2.3883545080289421 -0.94497882694672608 -9 4.3301270218486989 -2.4999999949311431 -9 2.3883545080289421 -0.94497882694672608 -12 4.3301270218486989 -2.4999999949311431 -12 5 0 -9 4.3301270218486989 -2.4999999949311431 -9 2.217625015551433 -2.5696135239339939 -12 2.3883545080289421 -0.94497882694672608 -9 2.3883545080289421 -0.94497882694672608 -12 4.3301270218486989 -2.4999999949311431 -9 2.217625015551433 -2.5696135239339939 -12 2.217625015551433 -2.5696135239339939 -9 4.3301270218486989 -2.4999999949311431 -9 2.500000010727558 -4.3301270127286351 -9 2.217625015551433 -2.5696135239339939 -12 2.500000010727558 -4.3301270127286351 -12 4.3301270218486989 -2.4999999949311431 -12 4.3301270218486989 -2.4999999949311431 -9 2.217625015551433 -2.5696135239339939 -12 2.500000010727558 -4.3301270127286351 -12 4.3301270218486989 -2.4999999949311431 -9 2.500000010727558 -4.3301270127286351 -9 2.217625015551433 -2.5696135239339939 -9 2.500000010727558 -4.3301270127286351 -9 2.500000010727558 -4.3301270127286351 -6 4.3301270218486989 -2.4999999949311431 -6 2.500000010727558 -4.3301270127286351 -6 4.3301270218486989 -2.4999999949311431 -3 2.500000010727558 -4.3301270127286351 -3 2.217625015551433 -2.5696135239339939 -6 4.3301270218486989 -2.4999999949311431 -3 2.3883545080289421 -0.94497882694672608 -3 2.3883545080289421 -0.94497882694672608 -6 2.217625015551433 -2.5696135239339939 -6 4.3301270218486989 -2.4999999949311431 -6 4.3301270218486989 -2.4999999949311431 -3 2.3883545080289421 -0.94497882694672608 -6 2.217625015551433 -2.5696135239339939 -6 4.3301270218486989 -2.4999999949311431 -6 5 0 -3 4.3301270218486989 -2.4999999949311431 -3 2.3883545080289421 -0.94497882694672608 -6 2.500000010727558 -4.3301270127286351 -6 4.3301270218486989 -2.4999999949311431 -6 4.3301270218486989 -2.4999999949311431 -3 2.217625015551433 -2.5696135239339939 -6 2.217625015551433 -2.5696135239339939 -9 2.500000010727558 -4.3301270127286351 -6 4.3301270218486989 -2.4999999949311431 -6 2.217625015551433 -2.5696135239339939 -6 2.217625015551433 -2.5696135239339939 -9 4.3301270218486989 -2.4999999949311431 -6 2.3883545080289421 -0.94497882694672608 -6 2.217625015551433 -2.5696135239339939 -6 2.3883545080289421 -0.94497882694672608 -9 4.3301270218486989 -2.4999999949311431 -9 4.3301270218486989 -2.4999999949311431 -6 5 0 -6 2.217625015551433 -2.5696135239339939 -9 2.3883545080289421 -0.94497882694672608 -9 4.3301270218486989 -2.4999999949311431 -6 2.3883545080289421 -0.94497882694672608 -6 2.3883545080289421 -0.94497882694672608 -9 2.465848112410058 1.4099871989758821 -9 5 0 -6 2.3883545080289421 -0.94497882694672608 -6 2.3883545080289421 -0.94497882694672608 -9 4.3301270218486989 -2.4999999949311431 -6 5 0 -6 2.3883545080289421 -0.94497882694672608 -6 2.465848112410058 1.4099871989758821 -9 5 0 -6 2.465848112410058 1.4099871989758821 -6 2.3883545080289421 -0.94497882694672608 -6 2.465848112410058 1.4099871989758821 -9 5 0 -9 5 0 -6 4.3301270155636349 2.5000000058171929 -6 2.465848112410058 1.4099871989758821 -9 5 0 -6 4.3301270155636349 2.5000000058171929 -6 2.465848112410058 1.4099871989758821 -6 2.465848112410058 1.4099871989758821 -9 4.3301270155636349 2.5000000058171929 -6 2.4999999879139869 4.3301270259000564 -6 2.465848112410058 1.4099871989758821 -6 5 0 -6 5 0 -3 4.3301270155636349 2.5000000058171929 -3 2.465848112410058 1.4099871989758821 -6 5 0 -6 4.3301270155636349 2.5000000058171929 -6 4.3301270155636349 2.5000000058171929 -3 2.465848112410058 1.4099871989758821 -6 5 0 -6 5 0 -3 2.465848112410058 1.4099871989758821 -6 2.3883545080289421 -0.94497882694672608 -6 5 0 -3 2.3883545080289421 -0.94497882694672608 -3 2.465848112410058 1.4099871989758821 -6 2.3883545080289421 -0.94497882694672608 -6 4.3301270218486989 -2.4999999949311431 -6 5 0 -6 5 0 -3 2.3883545080289421 -0.94497882694672608 -6 5 0 -3 2.465848112410058 1.4099871989758821 -3 2.3883545080289421 -0.94497882694672608 -3 2.465848112410058 1.4099871989758821 -6 5 0 -3 5 0 0 2.465848112410058 1.4099871989758821 -3 2.3883545080289421 -0.94497882694672608 -3 5 0 -3 5 0 0 4.3301270218486989 -2.4999999949311431 -3 2.3883545080289421 -0.94497882694672608 -3 5 0 -3 4.3301270218486989 -2.4999999949311431 -3 2.3883545080289421 -0.94497882694672608 -3 2.3883545080289421 -0.94497882694672608 -6 5 0 -3 4.3301270155636349 2.5000000058171929 -3 4.3301270155636349 2.5000000058171929 0 2.465848112410058 1.4099871989758821 -3 5 0 -3 4.3301270155636349 2.5000000058171929 -3 2.465848112410058 1.4099871989758821 -3 2.465848112410058 1.4099871989758821 -6 4.3301270155636349 2.5000000058171929 -3 2.4999999879139869 4.3301270259000564 -3 2.465848112410058 1.4099871989758821 -3 2.465848112410058 1.4099871989758821 -6 4.3301270155636349 2.5000000058171929 0 2.4999999879139869 4.3301270259000564 0 2.465848112410058 1.4099871989758821 0 2.465848112410058 1.4099871989758821 -3 5 0 -3 5 0 0 4.3301270155636349 2.5000000058171929 0 2.465848112410058 1.4099871989758821 -3 5 0 0 4.3301270155636349 2.5000000058171929 0 2.465848112410058 1.4099871989758821 0 2.465848112410058 1.4099871989758821 -3 5 0 0 4.3301270218486989 -2.4999999949311431 0 2.3883545080289421 -0.94497882694672608 0 2.3883545080289421 -0.94497882694672608 -3 5 0 0 2.3883545080289421 -0.94497882694672608 0 2.465848112410058 1.4099871989758821 0 2.465848112410058 1.4099871989758821 -3 5 0 0 2.3883545080289421 -0.94497882694672608 0 2.465848112410058 1.4099871989758821 -3 2.3883545080289421 -0.94497882694672608 -3 4.3301270218486989 -2.4999999949311431 0 2.500000010727558 -4.3301270127286351 0 2.217625015551433 -2.5696135239339939 -3 2.217625015551433 -2.5696135239339939 0 4.3301270218486989 -2.4999999949311431 0 2.3883545080289421 -0.94497882694672608 0 2.217625015551433 -2.5696135239339939 -3 2.217625015551433 -2.5696135239339939 0 4.3301270218486989 -2.4999999949311431 0 2.3883545080289421 -0.94497882694672608 0 2.3883545080289421 -0.94497882694672608 -3 2.217625015551433 -2.5696135239339939 -3 5 0 0 4.3301270218486989 -2.4999999949311431 0 4.3301270218486989 -2.4999999949311431 -3 2.3883545080289421 -0.94497882694672608 -3 4.3301270218486989 -2.4999999949311431 -3 2.500000010727558 -4.3301270127286351 -3 2.217625015551433 -2.5696135239339939 -6 2.217625015551433 -2.5696135239339939 -3 4.3301270218486989 -2.4999999949311431 0 4.3301270218486989 -2.4999999949311431 -3 2.3883545080289421 -0.94497882694672608 -3 2.217625015551433 -2.5696135239339939 -3 4.3301270218486989 -2.4999999949311431 -3 2.3883545080289421 -0.94497882694672608 -3 2.217625015551433 -2.5696135239339939 -6 2.217625015551433 -2.5696135239339939 -3 4.3301270218486989 -2.4999999949311431 0 4.3301270218486989 -2.4999999949311431 -3 2.500000010727558 -4.3301270127286351 -3 2.217625015551433 -2.5696135239339939 -3 4.3301270218486989 -2.4999999949311431 0 2.500000010727558 -4.3301270127286351 -3 2.500000010727558 -4.3301270127286351 0 2.217625015551433 -2.5696135239339939 -3 2.465848112410058 1.4099871989758821 -9 4.3301270155636349 2.5000000058171929 -9 4.3301270155636349 2.5000000058171929 -6 2.4999999879139869 4.3301270259000564 -6 4.3301270155636349 2.5000000058171929 -6 2.4999999879139869 4.3301270259000564 -3 2.4999999879139869 4.3301270259000564 -6 2.465848112410058 1.4099871989758821 -6 4.3301270155636349 2.5000000058171929 -6 4.3301270155636349 2.5000000058171929 -3 2.4999999879139869 4.3301270259000564 -3 2.465848112410058 1.4099871989758821 -6 4.3301270155636349 2.5000000058171929 -3 2.4999999879139869 4.3301270259000564 0 2.4999999879139869 4.3301270259000564 -3 2.465848112410058 1.4099871989758821 -3 4.3301270155636349 2.5000000058171929 -3 4.3301270155636349 2.5000000058171929 0 2.4999999879139869 4.3301270259000564 0 2.465848112410058 1.4099871989758821 -3 2.4999999879139869 4.3301270259000564 0 -6.2995949836986492e-09 5 0 0.37580157663508379 2.5408650916807378 0 0.37580157663508379 2.5408650916807378 -3 2.4999999879139869 4.3301270259000564 0 0.37580157663508379 2.5408650916807378 0 0.37580157663508379 2.5408650916807378 -3 2.465848112410058 1.4099871989758821 -3 2.4999999879139869 4.3301270259000564 0 -6.2995949836986492e-09 5 0 0.37580157663508379 2.5408650916807378 -3 2.4999999879139869 4.3301270259000564 -3 -6.2995949836986492e-09 5 0 -1.107852388446384 3.1911857209629071 -3 -6.2995949836986492e-09 5 -3 -2.4999999999999991 4.3301270189221936 0 -6.2995949836986492e-09 5 0 -1.107852388446384 3.1911857209629071 0 0.37580157663508379 2.5408650916807378 0 -1.107852388446384 3.1911857209629071 -3 -6.2995949836986492e-09 5 0 -1.107852388446384 3.1911857209629071 0 -1.107852388446384 3.1911857209629071 -3 -2.4999999999999991 4.3301270189221936 0 -6.2995949836986492e-09 5 0 0.37580157663508379 2.5408650916807378 0 -1.107852388446384 3.1911857209629071 -3 0.37580157663508379 2.5408650916807378 -3 -1.107852388446384 3.1911857209629071 0 0.37580157663508379 2.5408650916807378 0 -1.107852388446384 3.1911857209629071 -3 -0.91506351183037493 1.5849364925866429 0 -6.2995949836986492e-09 5 0 -1.107852388446384 3.1911857209629071 -3 0.37580157663508379 2.5408650916807378 -3 -6.2995949836986492e-09 5 -3 -6.2995949836986492e-09 5 0 0.37580157663508379 2.5408650916807378 -3 -6.2995949836986492e-09 5 -3 2.4999999879139869 4.3301270259000564 -3 2.4999999879139869 4.3301270259000564 0 0.37580157663508379 2.5408650916807378 -3 2.4999999879139869 4.3301270259000564 -3 2.465848112410058 1.4099871989758821 -3 0.37580157663508379 2.5408650916807378 -3 2.4999999879139869 4.3301270259000564 -3 0.37580157663508379 2.5408650916807378 -6 2.465848112410058 1.4099871989758821 -6 2.4999999879139869 4.3301270259000564 -3 0.37580157663508379 2.5408650916807378 -6 2.4999999879139869 4.3301270259000564 -6 2.465848112410058 1.4099871989758821 -6 -6.2995949836986492e-09 5 -3 2.4999999879139869 4.3301270259000564 -3 0.37580157663508379 2.5408650916807378 -6 2.4999999879139869 4.3301270259000564 -6 -6.2995949836986492e-09 5 -3 0.37580157663508379 2.5408650916807378 -6 2.4999999879139869 4.3301270259000564 -6 -6.2995949836986492e-09 5 -6 0.37580157663508379 2.5408650916807378 -3 -6.2995949836986492e-09 5 -3 2.4999999879139869 4.3301270259000564 -3 0.37580157663508379 2.5408650916807378 -6 -1.107852388446384 3.1911857209629071 -3 0.37580157663508379 2.5408650916807378 -3 -1.107852388446384 3.1911857209629071 -6 -0.91506351183037493 1.5849364925866429 -3 -1.107852388446384 3.1911857209629071 -3 0.37580157663508379 2.5408650916807378 -3 -6.2995949836986492e-09 5 -3 -1.107852388446384 3.1911857209629071 -6 -6.2995949836986492e-09 5 -3 -1.107852388446384 3.1911857209629071 -6 0.37580157663508379 2.5408650916807378 -6 -6.2995949836986492e-09 5 -6 0.37580157663508379 2.5408650916807378 -3 -6.2995949836986492e-09 5 -3 -1.107852388446384 3.1911857209629071 -6 0.37580157663508379 2.5408650916807378 -6 -1.107852388446384 3.1911857209629071 -3 -6.2995949836986492e-09 5 -3 -1.107852388446384 3.1911857209629071 -6 -2.4999999999999991 4.3301270189221936 -3 -1.107852388446384 3.1911857209629071 -9 -1.107852388446384 3.1911857209629071 -6 0.37580157663508379 2.5408650916807378 -6 -6.2995949836986492e-09 5 -6 -1.107852388446384 3.1911857209629071 -9 -1.107852388446384 3.1911857209629071 -6 -6.2995949836986492e-09 5 -6 -2.4999999999999991 4.3301270189221936 -6 0.37580157663508379 2.5408650916807378 -9 -1.107852388446384 3.1911857209629071 -9 0.37580157663508379 2.5408650916807378 -6 -6.2995949836986492e-09 5 -6 -1.107852388446384 3.1911857209629071 -9 -1.107852388446384 3.1911857209629071 -6 0.37580157663508379 2.5408650916807378 -6 -0.91506351183037493 1.5849364925866429 -6 2.4999999879139869 4.3301270259000564 -9 0.37580157663508379 2.5408650916807378 -9 2.4999999879139869 4.3301270259000564 -6 -6.2995949836986492e-09 5 -6 0.37580157663508379 2.5408650916807378 -9 0.37580157663508379 2.5408650916807378 -6 2.4999999879139869 4.3301270259000564 -6 -6.2995949836986492e-09 5 -6 2.465848112410058 1.4099871989758821 -9 0.37580157663508379 2.5408650916807378 -9 0.37580157663508379 2.5408650916807378 -6 2.4999999879139869 4.3301270259000564 -6 -6.2995949836986492e-09 5 -9 -1.107852388446384 3.1911857209629071 -9 -6.2995949836986492e-09 5 -6 -2.4999999999999991 4.3301270189221936 -6 -6.2995949836986492e-09 5 -3 -1.107852388446384 3.1911857209629071 -6 -6.2995949836986492e-09 5 -6 -2.4999999999999991 4.3301270189221936 -3 -2.2253246846922492 2.366533744740174 -9 -1.107852388446384 3.1911857209629071 -6 -2.4999999999999991 4.3301270189221936 -6 -2.2253246846922492 2.366533744740174 -6 -2.2253246846922492 2.366533744740174 -9 -1.107852388446384 3.1911857209629071 -9 -1.107852388446384 3.1911857209629071 -6 -0.91506351183037493 1.5849364925866429 -6 -2.2253246846922492 2.366533744740174 -9 -1.107852388446384 3.1911857209629071 -9 -1.107852388446384 3.1911857209629071 -6 -2.4999999999999991 4.3301270189221936 -6 -2.2253246846922492 2.366533744740174 -9 -2.4999999999999991 4.3301270189221936 -9 -2.4999999999999991 4.3301270189221936 -6 -4.3301270221112951 2.4999999944763132 -6 -2.2253246846922492 2.366533744740174 -9 -2.4999999999999991 4.3301270189221936 -6 -2.2253246846922492 2.366533744740174 -6 -4.3301270221112951 2.4999999944763132 -6 -1.107852388446384 3.1911857209629071 -3 -1.107852388446384 3.1911857209629071 -6 -0.91506351183037493 1.5849364925866429 -3 -2.2253246846922492 2.366533744740174 -6 -1.107852388446384 3.1911857209629071 -6 -2.4999999999999991 4.3301270189221936 -6 -2.4999999999999991 4.3301270189221936 -3 -2.2253246846922492 2.366533744740174 -6 -1.107852388446384 3.1911857209629071 -6 -6.2995949836986492e-09 5 -6 -2.4999999999999991 4.3301270189221936 -6 -2.4999999999999991 4.3301270189221936 -3 -1.107852388446384 3.1911857209629071 -3 -2.4999999999999991 4.3301270189221936 -3 -2.2253246846922492 2.366533744740174 -3 -2.2253246846922492 2.366533744740174 -6 -1.107852388446384 3.1911857209629071 -3 -1.107852388446384 3.1911857209629071 -6 -2.4999999999999991 4.3301270189221936 -3 -2.2253246846922492 2.366533744740174 -6 -2.4999999999999991 4.3301270189221936 -6 -2.4999999999999991 4.3301270189221936 -3 -4.3301270221112951 2.4999999944763132 -3 -2.2253246846922492 2.366533744740174 -6 -2.4999999999999991 4.3301270189221936 -3 -4.3301270221112951 2.4999999944763132 -3 -2.2253246846922492 2.366533744740174 -3 -2.2253246846922492 2.366533744740174 -6 -2.4999999999999991 4.3301270189221936 -6 -4.3301270221112951 2.4999999944763132 -3 -2.2253246846922492 2.366533744740174 -6 -4.3301270221112951 2.4999999944763132 -6 -2.4999999999999991 4.3301270189221936 -3 -4.3301270221112951 2.4999999944763132 0 -4.3301270221112951 2.4999999944763132 -3 -2.2253246846922492 2.366533744740174 -3 -1.107852388446384 3.1911857209629071 -3 -2.4999999999999991 4.3301270189221936 -3 -2.4999999999999991 4.3301270189221936 0 -2.2253246846922492 2.366533744740174 -3 -1.107852388446384 3.1911857209629071 -3 -6.2995949836986492e-09 5 -3 -2.4999999999999991 4.3301270189221936 -3 -2.4999999999999991 4.3301270189221936 0 -2.4999999999999991 4.3301270189221936 0 -4.3301270221112951 2.4999999944763132 0 -2.2253246846922492 2.366533744740174 -3 -2.2253246846922492 2.366533744740174 0 -1.107852388446384 3.1911857209629071 0 -1.107852388446384 3.1911857209629071 -3 -2.2253246846922492 2.366533744740174 -3 -0.91506351183037493 1.5849364925866429 0 -2.4999999999999991 4.3301270189221936 -3 -2.4999999999999991 4.3301270189221936 0 -4.3301270221112951 2.4999999944763132 0 -2.2253246846922492 2.366533744740174 -3 -1.107852388446384 3.1911857209629071 0 -1.107852388446384 3.1911857209629071 -3 -2.4999999999999991 4.3301270189221936 0 -2.2253246846922492 2.366533744740174 -3 -1.107852388446384 3.1911857209629071 0 -2.4999999999999991 4.3301270189221936 0 -2.2253246846922492 2.366533744740174 -3 -2.2253246846922492 2.366533744740174 0 -4.3301270221112951 2.4999999944763132 0 -5 -1.397247784140632e-08 0 -2.2735805010731909 0.22641949675281539 0 -2.2735805010731909 0.22641949675281539 -3 -4.3301270221112951 2.4999999944763132 0 -4.3301270221112951 2.4999999944763132 -3 -5 -1.397247784140632e-08 0 -2.2735805010731909 0.22641949675281539 -3 -4.3301270221112951 2.4999999944763132 0 -4.3301270221112951 2.4999999944763132 -3 -2.2735805010731909 0.22641949675281539 -3 -2.2253246846922492 2.366533744740174 -3 -4.3301270221112951 2.4999999944763132 -3 -5 -1.397247784140632e-08 -3 -5 -1.397247784140632e-08 0 -2.2735805010731909 0.22641949675281539 -3 -5 -1.397247784140632e-08 -3 -5 -1.397247784140632e-08 0 -2.2735805010731909 0.22641949675281539 -3 -2.9547160992544761 -1.820741508163664 -3 -5 -1.397247784140632e-08 -3 -5 -1.397247784140632e-08 0 -2.9547160992544761 -1.820741508163664 -3 -4.3301270160527148 -2.500000004970083 0 -5 -1.397247784140632e-08 0 -2.2735805010731909 0.22641949675281539 0 -2.2735805010731909 0.22641949675281539 -3 -2.9547160992544761 -1.820741508163664 -3 -5 -1.397247784140632e-08 0 -2.2735805010731909 0.22641949675281539 0 -2.9547160992544761 -1.820741508163664 -3 -2.9547160992544761 -1.820741508163664 0 -2.2735805010731909 0.22641949675281539 0 -2.2735805010731909 0.22641949675281539 -3 -0.66987297914647026 -2.499999999706382 -3 -2.9547160992544761 -1.820741508163664 -3 -2.2735805010731909 0.22641949675281539 0 -2.2735805010731909 0.22641949675281539 -3 0.20080558631870429 0.033909897404034287 -3 -0.66987297914647026 -2.499999999706382 -3 -2.2735805010731909 0.22641949675281539 0 -2.2735805010731909 0.22641949675281539 -3 0.20080558631870429 0.033909897404034287 -3 -0.91506351183037493 1.5849364925866429 -3 -2.2735805010731909 0.22641949675281539 0 -2.2735805010731909 0.22641949675281539 -3 -2.2253246846922492 2.366533744740174 -3 -0.91506351183037493 1.5849364925866429 -3 -1.107852388446384 3.1911857209629071 -3 -2.2253246846922492 2.366533744740174 -3 -0.91506351183037493 1.5849364925866429 0 -0.91506351183037493 1.5849364925866429 -3 -2.2735805010731909 0.22641949675281539 0 -2.2253246846922492 2.366533744740174 -3 -0.91506351183037493 1.5849364925866429 0 -0.91506351183037493 1.5849364925866429 -3 -1.107852388446384 3.1911857209629071 0 -2.2253246846922492 2.366533744740174 -3 -2.2253246846922492 2.366533744740174 0 -0.91506351183037493 1.5849364925866429 0 -4.3301270221112951 2.4999999944763132 0 -2.2735805010731909 0.22641949675281539 0 -2.2735805010731909 0.22641949675281539 -3 -2.2253246846922492 2.366533744740174 -3 -2.2735805010731909 0.22641949675281539 0 -2.2253246846922492 2.366533744740174 -3 -2.2253246846922492 2.366533744740174 0 -0.91506351183037493 1.5849364925866429 0 -4.3301270221112951 2.4999999944763132 0 -2.2735805010731909 0.22641949675281539 0 -2.2253246846922492 2.366533744740174 -3 -2.2253246846922492 2.366533744740174 0 0.37580157663508379 2.5408650916807378 0 -1.107852388446384 3.1911857209629071 -3 -0.91506351183037493 1.5849364925866429 0 -0.91506351183037493 1.5849364925866429 -3 0.37580157663508379 2.5408650916807378 0 -0.91506351183037493 1.5849364925866429 0 0.20080558631870429 0.033909897404034287 0 -0.91506351183037493 1.5849364925866429 -3 -2.2735805010731909 0.22641949675281539 0 -0.91506351183037493 1.5849364925866429 0 0.20080558631870429 0.033909897404034287 0 -0.91506351183037493 1.5849364925866429 -3 0.37580157663508379 2.5408650916807378 0 0.37580157663508379 2.5408650916807378 -3 0.20080558631870429 0.033909897404034287 0 -0.91506351183037493 1.5849364925866429 -3 -2.2735805010731909 0.22641949675281539 0 0.20080558631870429 0.033909897404034287 0 0.20080558631870429 0.033909897404034287 -3 -0.66987297914647026 -2.499999999706382 0 -2.2735805010731909 0.22641949675281539 0 0.20080558631870429 0.033909897404034287 0 0.20080558631870429 0.033909897404034287 -3 -0.91506351183037493 1.5849364925866429 -3 0.20080558631870429 0.033909897404034287 0 0.20080558631870429 0.033909897404034287 -3 0.95458002071209891 -1.657898275923388 -3 -0.66987297914647026 -2.499999999706382 0 -2.2735805010731909 0.22641949675281539 0 0.20080558631870429 0.033909897404034287 -3 -0.66987297914647026 -2.499999999706382 -3 -0.66987297914647026 -2.499999999706382 0 0.20080558631870429 0.033909897404034287 0 2.3883545080289421 -0.94497882694672608 0 0.95458002071209891 -1.657898275923388 -3 0.95458002071209891 -1.657898275923388 0 0.20080558631870429 0.033909897404034287 0 2.3883545080289421 -0.94497882694672608 0 0.20080558631870429 0.033909897404034287 -3 0.95458002071209891 -1.657898275923388 -3 0.20080558631870429 0.033909897404034287 0 2.3883545080289421 -0.94497882694672608 0 2.465848112410058 1.4099871989758821 -3 0.20080558631870429 0.033909897404034287 -3 0.20080558631870429 0.033909897404034287 0 2.3883545080289421 -0.94497882694672608 0 2.465848112410058 1.4099871989758821 0 2.465848112410058 1.4099871989758821 -3 2.4999999879139869 4.3301270259000564 0 0.37580157663508379 2.5408650916807378 0 2.465848112410058 1.4099871989758821 0 2.465848112410058 1.4099871989758821 -3 0.37580157663508379 2.5408650916807378 0 0.37580157663508379 2.5408650916807378 -3 0.20080558631870429 0.033909897404034287 0 2.465848112410058 1.4099871989758821 -3 0.37580157663508379 2.5408650916807378 0 0.20080558631870429 0.033909897404034287 0 2.465848112410058 1.4099871989758821 0 2.465848112410058 1.4099871989758821 -3 0.37580157663508379 2.5408650916807378 -3 0.20080558631870429 0.033909897404034287 0 2.465848112410058 1.4099871989758821 -3 0.20080558631870429 0.033909897404034287 -3 2.3883545080289421 -0.94497882694672608 0 2.465848112410058 1.4099871989758821 -3 2.3883545080289421 -0.94497882694672608 -3 0.20080558631870429 0.033909897404034287 -3 2.3883545080289421 -0.94497882694672608 0 2.3883545080289421 -0.94497882694672608 -3 0.20080558631870429 0.033909897404034287 -3 0.95458002071209891 -1.657898275923388 -3 0.37580157663508379 2.5408650916807378 0 -1.107852388446384 3.1911857209629071 -3 0.37580157663508379 2.5408650916807378 -3 -0.91506351183037493 1.5849364925866429 -3 0.37580157663508379 2.5408650916807378 -3 0.20080558631870429 0.033909897404034287 0 0.20080558631870429 0.033909897404034287 -3 -0.91506351183037493 1.5849364925866429 -3 0.37580157663508379 2.5408650916807378 -3 0.37580157663508379 2.5408650916807378 -6 0.20080558631870429 0.033909897404034287 -3 -0.91506351183037493 1.5849364925866429 -6 0.37580157663508379 2.5408650916807378 -6 0.20080558631870429 0.033909897404034287 -3 0.20080558631870429 0.033909897404034287 -6 -0.91506351183037493 1.5849364925866429 -6 0.37580157663508379 2.5408650916807378 -3 -1.107852388446384 3.1911857209629071 -6 0.37580157663508379 2.5408650916807378 -6 -0.91506351183037493 1.5849364925866429 -6 -2.2735805010731909 0.22641949675281539 -3 0.20080558631870429 0.033909897404034287 -3 -0.91506351183037493 1.5849364925866429 -3 -0.91506351183037493 1.5849364925866429 -6 0.37580157663508379 2.5408650916807378 -3 -1.107852388446384 3.1911857209629071 -6 -0.91506351183037493 1.5849364925866429 -3 -0.91506351183037493 1.5849364925866429 -6 0.37580157663508379 2.5408650916807378 -3 0.20080558631870429 0.033909897404034287 -3 -0.91506351183037493 1.5849364925866429 -3 -0.91506351183037493 1.5849364925866429 -6 0.20080558631870429 0.033909897404034287 -3 0.20080558631870429 0.033909897404034287 -6 0.95458002071209891 -1.657898275923388 -6 -0.66987297914647026 -2.499999999706382 -3 -2.2735805010731909 0.22641949675281539 -3 0.20080558631870429 0.033909897404034287 -6 -0.66987297914647026 -2.499999999706382 -6 -0.66987297914647026 -2.499999999706382 -3 -2.2735805010731909 0.22641949675281539 -3 0.20080558631870429 0.033909897404034287 -3 0.20080558631870429 0.033909897404034287 -6 -0.66987297914647026 -2.499999999706382 -3 -2.2735805010731909 0.22641949675281539 -3 0.20080558631870429 0.033909897404034287 -3 0.20080558631870429 0.033909897404034287 -6 -0.91506351183037493 1.5849364925866429 -6 2.3883545080289421 -0.94497882694672608 -3 0.20080558631870429 0.033909897404034287 -3 0.20080558631870429 0.033909897404034287 -6 0.95458002071209891 -1.657898275923388 -6 2.3883545080289421 -0.94497882694672608 -3 2.3883545080289421 -0.94497882694672608 -6 0.20080558631870429 0.033909897404034287 -6 0.95458002071209891 -1.657898275923388 -6 2.3883545080289421 -0.94497882694672608 -3 0.20080558631870429 0.033909897404034287 -3 0.95458002071209891 -1.657898275923388 -6 0.95458002071209891 -1.657898275923388 -3 2.3883545080289421 -0.94497882694672608 -3 0.20080558631870429 0.033909897404034287 -3 2.465848112410058 1.4099871989758821 -6 0.20080558631870429 0.033909897404034287 -6 2.3883545080289421 -0.94497882694672608 -3 2.465848112410058 1.4099871989758821 -6 2.3883545080289421 -0.94497882694672608 -6 0.20080558631870429 0.033909897404034287 -6 2.465848112410058 1.4099871989758821 -3 2.3883545080289421 -0.94497882694672608 -3 0.20080558631870429 0.033909897404034287 -3 2.465848112410058 1.4099871989758821 -6 0.37580157663508379 2.5408650916807378 -3 2.4999999879139869 4.3301270259000564 -3 2.465848112410058 1.4099871989758821 -3 2.465848112410058 1.4099871989758821 -6 0.37580157663508379 2.5408650916807378 -3 0.37580157663508379 2.5408650916807378 -6 0.20080558631870429 0.033909897404034287 -3 2.465848112410058 1.4099871989758821 -6 0.37580157663508379 2.5408650916807378 -6 0.20080558631870429 0.033909897404034287 -3 2.465848112410058 1.4099871989758821 -6 0.20080558631870429 0.033909897404034287 -6 0.37580157663508379 2.5408650916807378 -3 2.465848112410058 1.4099871989758821 -3 0.20080558631870429 0.033909897404034287 -3 2.465848112410058 1.4099871989758821 -6 2.465848112410058 1.4099871989758821 -9 0.37580157663508379 2.5408650916807378 -9 0.37580157663508379 2.5408650916807378 -6 0.20080558631870429 0.033909897404034287 -6 2.465848112410058 1.4099871989758821 -9 0.37580157663508379 2.5408650916807378 -6 2.4999999879139869 4.3301270259000564 -6 2.465848112410058 1.4099871989758821 -6 2.465848112410058 1.4099871989758821 -9 0.37580157663508379 2.5408650916807378 -6 2.465848112410058 1.4099871989758821 -6 0.20080558631870429 0.033909897404034287 -6 0.95458002071209891 -1.657898275923388 -9 0.20080558631870429 0.033909897404034287 -9 2.3883545080289421 -0.94497882694672608 -6 0.20080558631870429 0.033909897404034287 -6 0.95458002071209891 -1.657898275923388 -9 2.3883545080289421 -0.94497882694672608 -6 0.20080558631870429 0.033909897404034287 -6 0.95458002071209891 -1.657898275923388 -6 0.20080558631870429 0.033909897404034287 -9 2.465848112410058 1.4099871989758821 -9 2.3883545080289421 -0.94497882694672608 -6 0.20080558631870429 0.033909897404034287 -6 2.465848112410058 1.4099871989758821 -9 2.465848112410058 1.4099871989758821 -6 2.3883545080289421 -0.94497882694672608 -6 0.20080558631870429 0.033909897404034287 -6 -0.91506351183037493 1.5849364925866429 -9 0.20080558631870429 0.033909897404034287 -9 0.20080558631870429 0.033909897404034287 -6 -2.2735805010731909 0.22641949675281539 -6 0.20080558631870429 0.033909897404034287 -9 0.20080558631870429 0.033909897404034287 -6 -2.2735805010731909 0.22641949675281539 -6 -0.66987297914647026 -2.499999999706382 -6 -0.66987297914647026 -2.499999999706382 -9 0.20080558631870429 0.033909897404034287 -9 -2.2735805010731909 0.22641949675281539 -6 -0.66987297914647026 -2.499999999706382 -6 0.95458002071209891 -1.657898275923388 -9 0.20080558631870429 0.033909897404034287 -9 0.20080558631870429 0.033909897404034287 -6 -0.66987297914647026 -2.499999999706382 -6 -0.91506351183037493 1.5849364925866429 -9 -1.107852388446384 3.1911857209629071 -9 0.37580157663508379 2.5408650916807378 -6 -0.91506351183037493 1.5849364925866429 -6 -0.91506351183037493 1.5849364925866429 -9 0.20080558631870429 0.033909897404034287 -6 -0.91506351183037493 1.5849364925866429 -6 -2.2735805010731909 0.22641949675281539 -6 -0.91506351183037493 1.5849364925866429 -9 0.37580157663508379 2.5408650916807378 -9 0.37580157663508379 2.5408650916807378 -6 0.20080558631870429 0.033909897404034287 -6 -0.91506351183037493 1.5849364925866429 -9 0.37580157663508379 2.5408650916807378 -6 0.20080558631870429 0.033909897404034287 -6 -0.91506351183037493 1.5849364925866429 -6 -2.2253246846922492 2.366533744740174 -9 -2.2253246846922492 2.366533744740174 -6 -4.3301270221112951 2.4999999944763132 -6 -2.2735805010731909 0.22641949675281539 -6 -2.2253246846922492 2.366533744740174 -9 -1.107852388446384 3.1911857209629071 -6 -0.91506351183037493 1.5849364925866429 -6 -2.2253246846922492 2.366533744740174 -6 -2.2735805010731909 0.22641949675281539 -9 -2.2253246846922492 2.366533744740174 -9 -4.3301270221112951 2.4999999944763132 -6 -2.2735805010731909 0.22641949675281539 -6 -2.2253246846922492 2.366533744740174 -9 -0.91506351183037493 1.5849364925866429 -9 -0.91506351183037493 1.5849364925866429 -6 -2.2735805010731909 0.22641949675281539 -6 -2.2253246846922492 2.366533744740174 -9 -0.91506351183037493 1.5849364925866429 -6 -2.2253246846922492 2.366533744740174 -6 -2.2735805010731909 0.22641949675281539 -6 -2.2735805010731909 0.22641949675281539 -9 -4.3301270221112951 2.4999999944763132 -6 -5 -1.397247784140632e-08 -6 -2.2735805010731909 0.22641949675281539 -6 -2.2735805010731909 0.22641949675281539 -9 -4.3301270221112951 2.4999999944763132 -9 -4.3301270221112951 2.4999999944763132 -6 -5 -1.397247784140632e-08 -6 -4.3301270221112951 2.4999999944763132 -3 -5 -1.397247784140632e-08 -3 -2.2735805010731909 0.22641949675281539 -3 -2.2735805010731909 0.22641949675281539 -6 -4.3301270221112951 2.4999999944763132 -3 -2.2253246846922492 2.366533744740174 -6 -4.3301270221112951 2.4999999944763132 -6 -2.2735805010731909 0.22641949675281539 -6 -5 -1.397247784140632e-08 -3 -4.3301270221112951 2.4999999944763132 -6 -5 -1.397247784140632e-08 -6 -2.2735805010731909 0.22641949675281539 -6 -4.3301270221112951 2.4999999944763132 -3 -5 -1.397247784140632e-08 -3 -4.3301270221112951 2.4999999944763132 -6 -2.2735805010731909 0.22641949675281539 -6 -1.107852388446384 3.1911857209629071 -3 -2.2253246846922492 2.366533744740174 -3 -0.91506351183037493 1.5849364925866429 -3 -2.2253246846922492 2.366533744740174 -6 -4.3301270221112951 2.4999999944763132 -3 -2.2735805010731909 0.22641949675281539 -3 -2.2253246846922492 2.366533744740174 -3 -2.2253246846922492 2.366533744740174 -6 -1.107852388446384 3.1911857209629071 -6 -0.91506351183037493 1.5849364925866429 -3 -0.91506351183037493 1.5849364925866429 -6 -2.2253246846922492 2.366533744740174 -6 -2.2735805010731909 0.22641949675281539 -3 -2.2253246846922492 2.366533744740174 -3 -0.91506351183037493 1.5849364925866429 -3 -2.2253246846922492 2.366533744740174 -6 -2.2735805010731909 0.22641949675281539 -3 -0.91506351183037493 1.5849364925866429 -6 -2.2253246846922492 2.366533744740174 -6 -2.2735805010731909 0.22641949675281539 -6 -2.2735805010731909 0.22641949675281539 -3 -0.91506351183037493 1.5849364925866429 -3 -0.91506351183037493 1.5849364925866429 -6 -2.2253246846922492 2.366533744740174 -6 -4.3301270221112951 2.4999999944763132 -3 -2.2735805010731909 0.22641949675281539 -3 -2.2253246846922492 2.366533744740174 -6 -2.2735805010731909 0.22641949675281539 -6 -2.2735805010731909 0.22641949675281539 -3 0.20080558631870429 0.033909897404034287 -6 -2.2735805010731909 0.22641949675281539 -6 -0.66987297914647026 -2.499999999706382 -6 -2.2735805010731909 0.22641949675281539 -3 0.20080558631870429 0.033909897404034287 -6 -0.91506351183037493 1.5849364925866429 -6 -2.2735805010731909 0.22641949675281539 -6 -2.2735805010731909 0.22641949675281539 -3 -2.2735805010731909 0.22641949675281539 -6 -2.9547160992544761 -1.820741508163664 -6 -0.66987297914647026 -2.499999999706382 -6 -5 -1.397247784140632e-08 -3 -5 -1.397247784140632e-08 -6 -2.9547160992544761 -1.820741508163664 -6 -4.3301270160527148 -2.500000004970083 -3 -5 -1.397247784140632e-08 -3 -2.2735805010731909 0.22641949675281539 -3 -2.9547160992544761 -1.820741508163664 -6 -2.9547160992544761 -1.820741508163664 -3 -5 -1.397247784140632e-08 -3 -5 -1.397247784140632e-08 -6 -2.2735805010731909 0.22641949675281539 -6 -2.9547160992544761 -1.820741508163664 -6 -5 -1.397247784140632e-08 -3 -2.2735805010731909 0.22641949675281539 -3 -2.2735805010731909 0.22641949675281539 -6 -2.9547160992544761 -1.820741508163664 -6 -2.9547160992544761 -1.820741508163664 -9 -5 -1.397247784140632e-08 -9 -5 -1.397247784140632e-08 -6 -4.3301270160527148 -2.500000004970083 -6 -2.9547160992544761 -1.820741508163664 -9 -2.2735805010731909 0.22641949675281539 -9 -5 -1.397247784140632e-08 -6 -2.2735805010731909 0.22641949675281539 -6 -2.9547160992544761 -1.820741508163664 -9 -5 -1.397247784140632e-08 -6 -2.2735805010731909 0.22641949675281539 -6 -2.9547160992544761 -1.820741508163664 -6 -0.66987297914647026 -2.499999999706382 -9 -2.9547160992544761 -1.820741508163664 -9 -2.2735805010731909 0.22641949675281539 -6 -0.66987297914647026 -2.499999999706382 -6 -2.9547160992544761 -1.820741508163664 -9 -2.2735805010731909 0.22641949675281539 -6 -2.9547160992544761 -1.820741508163664 -6 -0.66987297914647026 -2.499999999706382 -6 -0.66987297914647026 -2.499999999706382 -9 -2.9547160992544761 -1.820741508163664 -9 -2.5000000000000022 -4.3301270189221919 -6 -0.66987297914647026 -2.499999999706382 -6 -2.9547160992544761 -1.820741508163664 -9 -2.9547160992544761 -1.820741508163664 -6 -2.5000000000000022 -4.3301270189221919 -6 -0.66987297914647026 -2.499999999706382 -6 -2.9547160992544761 -1.820741508163664 -9 -2.9547160992544761 -1.820741508163664 -6 -4.3301270160527148 -2.500000004970083 -6 -2.5000000000000022 -4.3301270189221919 -6 -2.9547160992544761 -1.820741508163664 -9 -5 -1.397247784140632e-08 -6 -2.9547160992544761 -1.820741508163664 -6 -4.3301270160527148 -2.500000004970083 -6 -4.3301270160527148 -2.500000004970083 -9 -2.9547160992544761 -1.820741508163664 -9 -4.3301270160527148 -2.500000004970083 -6 -2.5000000000000022 -4.3301270189221919 -6 -2.9547160992544761 -1.820741508163664 -6 -4.3301270160527148 -2.500000004970083 -6 -2.5000000000000022 -4.3301270189221919 -3 -4.3301270160527148 -2.500000004970083 -3 -5 -1.397247784140632e-08 -6 -2.9547160992544761 -1.820741508163664 -6 -4.3301270160527148 -2.500000004970083 -6 -4.3301270160527148 -2.500000004970083 -3 -5 -1.397247784140632e-08 -3 -2.9547160992544761 -1.820741508163664 -6 -2.9547160992544761 -1.820741508163664 -3 -4.3301270160527148 -2.500000004970083 -3 -2.9547160992544761 -1.820741508163664 -6 -2.5000000000000022 -4.3301270189221919 -3 -2.9547160992544761 -1.820741508163664 -3 -4.3301270160527148 -2.500000004970083 -3 -2.9547160992544761 -1.820741508163664 -6 -0.66987297914647026 -2.499999999706382 -3 -2.5000000000000022 -4.3301270189221919 -3 -2.9547160992544761 -1.820741508163664 -3 -2.2735805010731909 0.22641949675281539 -3 -2.9547160992544761 -1.820741508163664 -6 -0.66987297914647026 -2.499999999706382 -3 -2.9547160992544761 -1.820741508163664 -3 -2.9547160992544761 -1.820741508163664 -6 -0.66987297914647026 -2.499999999706382 -6 -0.66987297914647026 -2.499999999706382 -3 -2.5000000000000022 -4.3301270189221919 -3 -2.2735805010731909 0.22641949675281539 -3 -2.9547160992544761 -1.820741508163664 -6 -0.66987297914647026 -2.499999999706382 -6 -0.66987297914647026 -2.499999999706382 -3 -2.9547160992544761 -1.820741508163664 -6 -2.5000000000000022 -4.3301270189221919 -6 -0.66987297914647026 -2.499999999706382 -6 -2.5000000000000022 -4.3301270189221919 -3 -2.9547160992544761 -1.820741508163664 -6 -4.3301270160527148 -2.500000004970083 -6 -2.5000000000000022 -4.3301270189221919 -6 -2.5000000000000022 -4.3301270189221919 -3 -2.5000000000000022 -4.3301270189221919 -6 -0.66987297914647026 -2.499999999706382 -6 6.9142305214597846e-09 -5 -3 -2.5000000000000022 -4.3301270189221919 -3 -0.66987297914647026 -2.499999999706382 -9 -2.5000000000000022 -4.3301270189221919 -9 -2.5000000000000022 -4.3301270189221919 -6 6.9142305214597846e-09 -5 -6 0.91506351643986317 -3.4150635091400758 -9 -0.66987297914647026 -2.499999999706382 -9 6.9142305214597846e-09 -5 -6 -0.66987297914647026 -2.499999999706382 -6 -0.66987297914647026 -2.499999999706382 -9 -2.5000000000000022 -4.3301270189221919 -6 6.9142305214597846e-09 -5 -6 -0.66987297914647026 -2.499999999706382 -6 0.91506351643986317 -3.4150635091400758 -9 6.9142305214597846e-09 -5 -6 -0.66987297914647026 -2.499999999706382 -6 0.91506351643986317 -3.4150635091400758 -6 0.91506351643986317 -3.4150635091400758 -9 0.95458002071209891 -1.657898275923388 -9 -0.66987297914647026 -2.499999999706382 -6 0.91506351643986317 -3.4150635091400758 -6 0.95458002071209891 -1.657898275923388 -9 0.20080558631870429 0.033909897404034287 -6 -0.66987297914647026 -2.499999999706382 -6 0.95458002071209891 -1.657898275923388 -6 0.95458002071209891 -1.657898275923388 -9 -0.66987297914647026 -2.499999999706382 -6 0.95458002071209891 -1.657898275923388 -6 0.91506351643986317 -3.4150635091400758 -6 2.217625015551433 -2.5696135239339939 -9 2.3883545080289421 -0.94497882694672608 -6 2.217625015551433 -2.5696135239339939 -6 0.95458002071209891 -1.657898275923388 -6 0.95458002071209891 -1.657898275923388 -9 2.217625015551433 -2.5696135239339939 -9 2.3883545080289421 -0.94497882694672608 -6 0.95458002071209891 -1.657898275923388 -6 2.217625015551433 -2.5696135239339939 -9 2.217625015551433 -2.5696135239339939 -6 0.95458002071209891 -1.657898275923388 -6 0.91506351643986317 -3.4150635091400758 -6 0.95458002071209891 -1.657898275923388 -9 2.217625015551433 -2.5696135239339939 -9 0.95458002071209891 -1.657898275923388 -6 0.91506351643986317 -3.4150635091400758 -6 0.91506351643986317 -3.4150635091400758 -9 6.9142305214597846e-09 -5 -9 2.500000010727558 -4.3301270127286351 -6 6.9142305214597846e-09 -5 -6 0.91506351643986317 -3.4150635091400758 -9 2.500000010727558 -4.3301270127286351 -6 6.9142305214597846e-09 -5 -6 0.91506351643986317 -3.4150635091400758 -6 2.217625015551433 -2.5696135239339939 -9 2.500000010727558 -4.3301270127286351 -6 2.217625015551433 -2.5696135239339939 -6 0.91506351643986317 -3.4150635091400758 -6 0.91506351643986317 -3.4150635091400758 -9 2.217625015551433 -2.5696135239339939 -9 2.500000010727558 -4.3301270127286351 -6 0.91506351643986317 -3.4150635091400758 -6 2.500000010727558 -4.3301270127286351 -3 0.91506351643986317 -3.4150635091400758 -6 6.9142305214597846e-09 -5 -3 0.91506351643986317 -3.4150635091400758 -3 2.500000010727558 -4.3301270127286351 -6 2.500000010727558 -4.3301270127286351 -3 2.217625015551433 -2.5696135239339939 -6 0.91506351643986317 -3.4150635091400758 -6 2.500000010727558 -4.3301270127286351 -3 2.217625015551433 -2.5696135239339939 -6 0.91506351643986317 -3.4150635091400758 -6 0.91506351643986317 -3.4150635091400758 -3 2.500000010727558 -4.3301270127286351 -3 2.217625015551433 -2.5696135239339939 -6 2.217625015551433 -2.5696135239339939 -3 0.91506351643986317 -3.4150635091400758 -3 2.500000010727558 -4.3301270127286351 -6 2.500000010727558 -4.3301270127286351 -3 6.9142305214597846e-09 -5 -6 0.91506351643986317 -3.4150635091400758 -6 2.500000010727558 -4.3301270127286351 -3 6.9142305214597846e-09 -5 -6 0.91506351643986317 -3.4150635091400758 -6 6.9142305214597846e-09 -5 -3 2.217625015551433 -2.5696135239339939 -6 0.95458002071209891 -1.657898275923388 -6 0.95458002071209891 -1.657898275923388 -3 0.91506351643986317 -3.4150635091400758 -3 2.3883545080289421 -0.94497882694672608 -3 2.217625015551433 -2.5696135239339939 -6 0.95458002071209891 -1.657898275923388 -6 0.95458002071209891 -1.657898275923388 -3 2.3883545080289421 -0.94497882694672608 -3 2.3883545080289421 -0.94497882694672608 -6 2.217625015551433 -2.5696135239339939 -6 0.95458002071209891 -1.657898275923388 -6 2.3883545080289421 -0.94497882694672608 -3 2.217625015551433 -2.5696135239339939 -6 2.217625015551433 -2.5696135239339939 -3 0.95458002071209891 -1.657898275923388 -3 2.217625015551433 -2.5696135239339939 -6 2.217625015551433 -2.5696135239339939 -3 0.95458002071209891 -1.657898275923388 -3 0.91506351643986317 -3.4150635091400758 -3 2.217625015551433 -2.5696135239339939 -6 0.95458002071209891 -1.657898275923388 -6 0.91506351643986317 -3.4150635091400758 -6 0.91506351643986317 -3.4150635091400758 -3 0.20080558631870429 0.033909897404034287 -3 0.95458002071209891 -1.657898275923388 -6 -0.66987297914647026 -2.499999999706382 -3 0.95458002071209891 -1.657898275923388 -3 0.20080558631870429 0.033909897404034287 -6 -0.66987297914647026 -2.499999999706382 -6 0.95458002071209891 -1.657898275923388 -6 -0.66987297914647026 -2.499999999706382 -3 0.95458002071209891 -1.657898275923388 -6 -0.66987297914647026 -2.499999999706382 -3 0.95458002071209891 -1.657898275923388 -3 0.91506351643986317 -3.4150635091400758 -3 -0.66987297914647026 -2.499999999706382 -6 0.95458002071209891 -1.657898275923388 -6 0.91506351643986317 -3.4150635091400758 -6 -0.66987297914647026 -2.499999999706382 -3 0.95458002071209891 -1.657898275923388 -6 0.91506351643986317 -3.4150635091400758 -6 -0.66987297914647026 -2.499999999706382 -3 0.91506351643986317 -3.4150635091400758 -3 0.91506351643986317 -3.4150635091400758 -6 6.9142305214597846e-09 -5 -3 -0.66987297914647026 -2.499999999706382 -3 0.91506351643986317 -3.4150635091400758 -3 6.9142305214597846e-09 -5 -6 -0.66987297914647026 -2.499999999706382 -6 0.91506351643986317 -3.4150635091400758 -6 6.9142305214597846e-09 -5 -3 -0.66987297914647026 -2.499999999706382 -6 0.91506351643986317 -3.4150635091400758 -6 6.9142305214597846e-09 -5 -3 -0.66987297914647026 -2.499999999706382 -3 -2.5000000000000022 -4.3301270189221919 -6 6.9142305214597846e-09 -5 -6 -0.66987297914647026 -2.499999999706382 -6 6.9142305214597846e-09 -5 -3 -0.66987297914647026 -2.499999999706382 -6 6.9142305214597846e-09 -5 -3 -0.66987297914647026 -2.499999999706382 -3 -2.5000000000000022 -4.3301270189221919 -3 6.9142305214597846e-09 -5 -3 -0.66987297914647026 -2.499999999706382 -3 0.91506351643986317 -3.4150635091400758 -3 6.9142305214597846e-09 -5 0 6.9142305214597846e-09 -5 -3 -0.66987297914647026 -2.499999999706382 -3 6.9142305214597846e-09 -5 0 -2.5000000000000022 -4.3301270189221919 -3 -0.66987297914647026 -2.499999999706382 -3 0.95458002071209891 -1.657898275923388 -3 0.91506351643986317 -3.4150635091400758 -3 -0.66987297914647026 -2.499999999706382 0 0.20080558631870429 0.033909897404034287 -3 -0.66987297914647026 -2.499999999706382 -3 0.95458002071209891 -1.657898275923388 -3 -0.66987297914647026 -2.499999999706382 0 2.3883545080289421 -0.94497882694672608 0 2.3883545080289421 -0.94497882694672608 -3 2.217625015551433 -2.5696135239339939 -3 0.95458002071209891 -1.657898275923388 -3 2.217625015551433 -2.5696135239339939 -3 0.95458002071209891 -1.657898275923388 -3 0.91506351643986317 -3.4150635091400758 -3 0.91506351643986317 -3.4150635091400758 0 2.500000010727558 -4.3301270127286351 -3 2.500000010727558 -4.3301270127286351 0 2.217625015551433 -2.5696135239339939 -3 0.91506351643986317 -3.4150635091400758 -3 2.500000010727558 -4.3301270127286351 -3 2.500000010727558 -4.3301270127286351 0 6.9142305214597846e-09 -5 -3 0.91506351643986317 -3.4150635091400758 -3 2.500000010727558 -4.3301270127286351 0 2.217625015551433 -2.5696135239339939 -3 0.91506351643986317 -3.4150635091400758 0 2.217625015551433 -2.5696135239339939 0 2.500000010727558 -4.3301270127286351 0 2.217625015551433 -2.5696135239339939 -3 0.91506351643986317 -3.4150635091400758 -3 0.91506351643986317 -3.4150635091400758 0 2.500000010727558 -4.3301270127286351 0 0.91506351643986317 -3.4150635091400758 -3 0.91506351643986317 -3.4150635091400758 0 6.9142305214597846e-09 -5 0 2.500000010727558 -4.3301270127286351 0 6.9142305214597846e-09 -5 -3 0.91506351643986317 -3.4150635091400758 -3 6.9142305214597846e-09 -5 0 2.217625015551433 -2.5696135239339939 -3 0.91506351643986317 -3.4150635091400758 0 2.217625015551433 -2.5696135239339939 0 0.95458002071209891 -1.657898275923388 0 2.217625015551433 -2.5696135239339939 -3 0.95458002071209891 -1.657898275923388 -3 0.91506351643986317 -3.4150635091400758 0 0.95458002071209891 -1.657898275923388 0 2.3883545080289421 -0.94497882694672608 0 2.217625015551433 -2.5696135239339939 -3 2.217625015551433 -2.5696135239339939 0 0.95458002071209891 -1.657898275923388 0 2.3883545080289421 -0.94497882694672608 0 2.217625015551433 -2.5696135239339939 -3 0.95458002071209891 -1.657898275923388 -3 0.95458002071209891 -1.657898275923388 0 0.95458002071209891 -1.657898275923388 -3 0.91506351643986317 -3.4150635091400758 -3 0.91506351643986317 -3.4150635091400758 0 -0.66987297914647026 -2.499999999706382 0 0.95458002071209891 -1.657898275923388 -3 0.91506351643986317 -3.4150635091400758 0 0.95458002071209891 -1.657898275923388 0 -0.66987297914647026 -2.499999999706382 0 0.20080558631870429 0.033909897404034287 0 0.95458002071209891 -1.657898275923388 -3 0.95458002071209891 -1.657898275923388 0 -0.66987297914647026 -2.499999999706382 0 -0.66987297914647026 -2.499999999706382 -3 -0.66987297914647026 -2.499999999706382 0 6.9142305214597846e-09 -5 0 -2.5000000000000022 -4.3301270189221919 0 -0.66987297914647026 -2.499999999706382 -3 0.91506351643986317 -3.4150635091400758 -3 -0.66987297914647026 -2.499999999706382 0 6.9142305214597846e-09 -5 0 0.91506351643986317 -3.4150635091400758 -3 0.91506351643986317 -3.4150635091400758 0 -0.66987297914647026 -2.499999999706382 0 6.9142305214597846e-09 -5 0 -0.66987297914647026 -2.499999999706382 -3 6.9142305214597846e-09 -5 0 -2.5000000000000022 -4.3301270189221919 0 -2.5000000000000022 -4.3301270189221919 -3 -0.66987297914647026 -2.499999999706382 -3 -2.5000000000000022 -4.3301270189221919 0 -2.5000000000000022 -4.3301270189221919 -3 -2.9547160992544761 -1.820741508163664 -3 -2.5000000000000022 -4.3301270189221919 0 -2.5000000000000022 -4.3301270189221919 -3 -2.9547160992544761 -1.820741508163664 -3 -4.3301270160527148 -2.500000004970083 -3 -0.66987297914647026 -2.499999999706382 -3 -0.66987297914647026 -2.499999999706382 0 -2.5000000000000022 -4.3301270189221919 0 -2.9547160992544761 -1.820741508163664 -3 -0.66987297914647026 -2.499999999706382 0 -2.5000000000000022 -4.3301270189221919 0 -2.9547160992544761 -1.820741508163664 -3 -2.9547160992544761 -1.820741508163664 0 -2.2735805010731909 0.22641949675281539 0 -0.66987297914647026 -2.499999999706382 -3 -0.66987297914647026 -2.499999999706382 0 -2.9547160992544761 -1.820741508163664 -3 -2.2735805010731909 0.22641949675281539 0 -0.66987297914647026 -2.499999999706382 0 -2.9547160992544761 -1.820741508163664 -3 -2.9547160992544761 -1.820741508163664 0 -5 -1.397247784140632e-08 0 -2.9547160992544761 -1.820741508163664 -3 -2.9547160992544761 -1.820741508163664 0 -4.3301270160527148 -2.500000004970083 0 -2.5000000000000022 -4.3301270189221919 0 -2.9547160992544761 -1.820741508163664 -3 -2.9547160992544761 -1.820741508163664 0 -4.3301270160527148 -2.500000004970083 0 -2.5000000000000022 -4.3301270189221919 0 -2.9547160992544761 -1.820741508163664 -3 -4.3301270160527148 -2.500000004970083 0 -4.3301270160527148 -2.500000004970083 -3 -5 -1.397247784140632e-08 -3 -2.9547160992544761 -1.820741508163664 -3 -4.3301270160527148 -2.500000004970083 0 -4.3301270160527148 -2.500000004970083 -3 
</DataArray>
</Points>
<Cells>
<DataArray type="UInt32" Name="connectivity" format="ascii">
0 1 2 3 4 5 6 7 8 9 10 11 12 13 14 15 16 17 18 19 20 21 22 23 24 25 26 27 28 29 30 31 32 33 34 35 36 37 38 39 40 41 42 43 44 45 46 47 48 49 50 51 52 53 54 55 56 57 58 59 60 61 62 63 64 65 66 67 68 69 70 71 72 73 74 75 76 77 78 79 80 81 82 83 84 85 86 87 88 89 90 91 92 93 94 95 96 97 98 99 100 101 102 103 104 105 106 107 108 109 110 111 112 113 114 115 116 117 118 119 120 121 122 123 124 125 126 127 128 129 130 131 132 133 134 135 136 137 138 139 140 141 142 143 144 145 146 147 148 149 150 151 152 153 154 155 156 157 158 159 160 161 162 163 164 165 166 167 168 169 170 171 172 173 174 175 176 177 178 179 180 181 182 183 184 185 186 187 188 189 190 191 192 193 194 195 196 197 198 199 200 201 202 203 204 205 206 207 208 209 210 211 212 213 214 215 216 217 218 219 220 221 222 223 224 225 226 227 228 229 230 231 232 233 234 235 236 237 238 239 240 241 242 243 244 245 246 247 248 249 250 251 252 253 254 255 256 257 258 259 260 261 262 263 264 265 266 267 268 269 270 271 272 273 274 275 276 277 278 279 280 281 282 283 284 285 286 287 288 289 290 291 292 293 294 295 296 297 298 299 300 301 302 303 304 305 306 307 308 309 310 311 312 313 314 315 316 317 318 319 320 321 322 323 324 325 326 327 328 329 330 331 332 333 334 335 336 337 338 339 340 341 342 343 344 345 346 347 348 349 350 351 352 353 354 355 356 357 358 359 360 361 362 363 364 365 366 367 368 369 370 371 372 373 374 375 376 377 378 379 380 381 382 383 384 385 386 387 388 389 390 391 392 393 394 395 396 397 398 399 400 401 402 403 404 405 406 407 408 409 410 411 412 413 414 415 416 417 418 419 420 421 422 423 424 425 426 427 428 429 430 431 432 433 434 435 436 437 438 439 440 441 442 443 444 445 446 447 448 449 450 451 452 453 454 455 456 457 458 459 460 461 462 463 464 465 466 467 468 469 470 471 472 473 474 475 476 477 478 479 480 481 482 483 484 485 486 487 488 489 490 491 492 493 494 495 496 497 498 499 500 501 502 503 504 505 506 507 508 509 510 511 512 513 514 515 516 517 518 519 520 521 522 523 524 525 526 527 528 529 530 531 532 533 534 535 536 537 538 539 540 541 542 543 544 545 546 547 548 549 550 551 552 553 554 555 556 557 558 559 560 561 562 563 564 565 566 567 568 569 570 571 572 573 574 575 576 577 578 579 580 581 582 583 584 585 586 587 588 589 590 591 592 593 594 595 596 597 598 599 600 601 602 603 604 605 606 607 608 609 610 611 612 613 614 615 616 617 618 619 620 621 622 623 624 625 626 627 628 629 630 631 632 633 634 635 636 637 638 639 640 641 642 643 644 645 646 647 648 649 650 651 652 653 654 655 656 657 658 659 660 661 662 663 664 665 666 667 668 669 670 671 672 673 674 675 676 677 678 679 680 681 682 683 684 685 686 687 688 689 690 691 692 693 694 695 696 697 698 699 700 701 702 703 704 705 706 707 708 709 710 711 712 713 714 715 716 717 718 719 720 721 722 723 724 725 726 727 728 729 730 731 732 733 734 735 736 737 738 739 740 741 742 743 744 745 746 747 748 749 750 751 752 753 754 755 756 757 758 759 760 761 762 763 764 765 766 767 768 769 770 771 772 773 774 775 776 777 778 779 780 781 782 783 784 785 786 787 788 789 790 791 792 793 794 795 796 797 798 799 800 801 802 803 804 805 806 807 808 809 810 811 812 813 814 815 816 817 818 819 820 821 822 823 824 825 826 827 828 829 830 831 832 833 834 835 836 837 838 839 840 841 842 843 844 845 846 847 848 849 850 851 852 853 854 855 856 857 858 859 860 861 862 863 864 865 866 867 868 869 870 871 872 873 874 875 876 877 878 879 880 881 882 883 884 885 886 887 888 889 890 891 892 893 894 895 896 897 898 899 900 901 902 903 904 905 906 907 908 909 910 911 912 913 914 915 916 917 918 919 920 921 922 923 924 925 926 927 928 929 930 931 932 933 934 935 936 937 938 939 940 941 942 943 944 945 946 947 948 949 950 951 952 953 954 955 956 957 958 959 960 961 962 963 964 965 966 967 968 969 970 971 972 973 974 975 976 977 978 979 980 981 982 983 984 985 986 987 988 989 990 991 992 993 994 995 996 997 998 999 1000 1001 1002 1003 1004 1005 1006 1007 1008 1009 1010 1011 1012 1013 1014 1015 1016 1017 1018 1019 1020 1021 1022 1023 1024 1025 1026 1027 1028 1029 1030 1031 1032 1033 1034 1035 1036 1037 1038 1039 1040 1041 1042 1043 1044 1045 1046 1047 1048 1049 1050 1051 1052 1053 1054 1055 1056 1057 1058 1059 1060 1061 1062 1063 1064 1065 1066 1067 1068 1069 1070 1071 1072 1073 1074 1075 1076 1077 1078 1079 1080 1081 1082 1083 1084 1085 1086 1087 1088 1089 1090 1091 1092 1093 1094 1095 1096 1097 1098 1099 1100 1101 1102 1103 1104 1105 1106 1107 1108 1109 1110 1111 1112 1113 1114 1115 1116 1117 1118 1119 1120 1121 1122 1123 1124 1125 1126 1127 1128 1129 1130 1131 1132 1133 1134 1135 1136 1137 1138 1139 1140 1141 1142 1143 1144 1145 1146 1147 1148 1149 1150 1151 1152 1153 1154 1155 1156 1157 1158 1159 1160 1161 1162 1163 1164 1165 1166 1167 1168 1169 1170 1171 1172 1173 1174 1175 1176 1177 1178 1179 1180 1181 1182 1183 1184 1185 1186 1187 1188 1189 1190 1191 1192 1193 1194 1195 1196 1197 1198 1199 1200 1201 1202 1203 1204 1205 1206 1207 1208 1209 1210 1211 1212 1213 1214 1215 1216 1217 1218 1219 1220 1221 1222 1223 1224 1225 1226 1227 1228 1229 1230 1231 1232 1233 1234 1235 1236 1237 1238 1239 1240 1241 1242 1243 1244 1245 1246 1247 1248 1249 1250 1251 1252 1253 1254 1255 1256 1257 1258 1259 1260 1261 1262 1263 1264 1265 1266 1267 1268 1269 1270 1271 1272 1273 1274 1275 1276 1277 1278 1279 1280 1281 1282 1283 1284 1285 1286 1287 1288 1289 1290 1291 1292 1293 1294 1295 1296 1297 1298 1299 1300 1301 1302 1303 1304 1305 1306 1307 1308 1309 1310 1311 1312 1313 1314 1315 1316 1317 1318 1319 1320 1321 1322 1323 1324 1325 1326 1327 1328 1329 1330 1331 1332 1333 1334 1335 1336 1337 1338 1339 1340 1341 1342 1343 1344 1345 1346 1347 1348 1349 1350 1351 1352 1353 1354 1355 1356 1357 1358 1359 1360 1361 1362 1363 1364 1365 1366 1367 1368 1369 1370 1371 1372 1373 1374 1375 1376 1377 1378 1379 1380 1381 1382 1383 1384 1385 1386 1387 1388 1389 1390 1391 1392 1393 1394 1395 1396 1397 1398 1399 1400 1401 1402 1403 1404 1405 1406 1407 1408 1409 1410 1411 1412 1413 1414 1415 1416 1417 1418 1419 1420 1421 1422 1423 1424 1425 1426 1427 1428 1429 1430 1431 1432 1433 1434 1435 1436 1437 1438 1439 1440 1441 1442 1443 1444 1445 1446 1447 1448 1449 1450 1451 1452 1453 1454 1455 1456 1457 1458 1459 1460 1461 1462 1463 1464 1465 1466 1467 1468 1469 1470 1471 1472 1473 1474 1475 1476 1477 1478 1479 1480 1481 1482 1483 1484 1485 1486 1487 1488 1489 1490 1491 1492 1493 1494 1495 1496 1497 1498 1499 1500 1501 1502 1503 1504 1505 1506 1507 1508 1509 1510 1511 1512 1513 1514 1515 1516 1517 1518 1519 1520 1521 1522 1523 1524 1525 1526 1527 1528 1529 1530 1531 1532 1533 1534 1535 1536 1537 1538 1539 1540 1541 1542 1543 1544 1545 1546 1547 1548 1549 1550 1551 1552 1553 1554 1555 1556 1557 1558 1559 1560 1561 1562 1563 1564 1565 1566 1567 1568 1569 1570 1571 1572 1573 1574 1575 1576 1577 1578 1579 1580 1581 1582 1583 1584 1585 1586 1587 1588 1589 1590 1591 1592 1593 1594 1595 1596 1597 1598 1599 1600 1601 1602 1603 1604 1605 1606 1607 1608 1609 1610 1611 1612 1613 1614 1615 1616 1617 1618 1619 1620 1621 1622 1623 1624 1625 1626 1627 1628 1629 1630 1631 1632 1633 1634 1635 1636 1637 1638 1639 1640 1641 1642 1643 1644 1645 1646 1647 1648 1649 1650 1651 1652 1653 1654 1655 1656 1657 1658 1659 1660 1661 1662 1663 1664 1665 1666 1667 1668 1669 1670 1671 1672 1673 1674 1675 1676 1677 1678 1679 1680 1681 1682 1683 1684 1685 1686 1687 1688 1689 1690 1691 1692 1693 1694 1695 1696 1697 1698 1699 1700 1701 1702 1703 1704 1705 1706 1707 1708 1709 1710 1711 1712 1713 1714 1715 1716 1717 1718 1719 1720 1721 1722 1723 1724 1725 1726 1727 1728 1729 1730 1731 1732 1733 1734 1735 1736 1737 1738 1739 1740 1741 1742 1743 1744 1745 1746 1747 1748 1749 1750 1751 1752 1753 1754 1755 1756 1757 1758 1759 1760 1761 1762 1763 1764 1765 1766 1767 1768 1769 1770 1771 1772 1773 1774 1775 1776 1777 1778 1779 1780 1781 1782 1783 1784 1785 1786 1787 1788 1789 1790 1791 1792 1793 1794 1795 1796 1797 1798 1799 1800 1801 1802 1803 1804 1805 1806 1807 1808 1809 1810 1811 1812 1813 1814 1815 1816 1817 1818 1819 1820 1821 1822 1823 1824 1825 1826 1827 1828 1829 1830 1831 1832 1833 1834 1835 1836 1837 1838 1839 1840 1841 1842 1843 1844 1845 1846 1847 1848 1849 1850 1851 1852 1853 1854 1855 1856 1857 1858 1859 1860 1861 1862 1863 1864 1865 1866 1867 1868 1869 1870 1871 1872 1873 1874 1875 1876 1877 1878 1879 1880 1881 1882 1883 1884 1885 1886 1887 1888 1889 1890 1891 1892 1893 1894 1895 1896 1897 1898 1899 1900 1901 1902 1903 1904 1905 1906 1907 1908 1909 1910 1911 1912 1913 1914 1915 1916 1917 1918 1919 1920 1921 1922 1923 1924 1925 1926 1927 1928 1929 1930 1931 1932 1933 1934 1935 1936 1937 1938 1939 1940 1941 1942 1943 1944 1945 1946 1947 1948 1949 1950 1951 1952 1953 1954 1955 1956 1957 1958 1959 1960 1961 1962 1963 1964 1965 1966 1967 1968 1969 1970 1971 1972 1973 1974 1975 1976 1977 1978 1979 1980 1981 1982 1983 1984 1985 1986 1987 1988 1989 1990 1991 1992 1993 1994 1995 1996 1997 1998 1999 2000 2001 2002 2003 2004 2005 2006 2007 2008 2009 2010 2011 2012 2013 2014 2015 2016 2017 2018 2019 2020 2021 2022 2023 2024 2025 2026 2027 2028 2029 2030 2031 2032 2033 2034 2035 2036 2037 2038 2039 2040 2041 2042 2043 2044 2045 2046 2047 2048 2049 2050 2051 2052 2053 2054 2055 2056 2057 2058 2059 2060 2061 2062 2063 2064 2065 2066 2067 2068 2069 2070 2071 2072 2073 2074 2075 2076 2077 2078 2079 2080 2081 2082 2083 2084 2085 2086 2087 2088 2089 2090 2091 2092 2093 2094 2095 2096 2097 2098 2099 2100 2101 2102 2103 2104 2105 2106 2107 2108 2109 2110 2111 2112 2113 2114 2115 2116 2117 2118 2119 2120 2121 2122 2123 2124 2125 2126 2127 2128 2129 2130 2131 2132 2133 2134 2135 2136 2137 2138 2139 2140 2141 2142 2143 2144 2145 2146 2147 2148 2149 2150 2151 2152 2153 2154 2155 2156 2157 2158 2159 
</DataArray>
<DataArray type="UInt32" Name="offsets" format="ascii">
4 8 12 16 20 24 28 32 36 40 44 48 52 56 60 64 68 72 76 80 84 88 92 96 100 104 108 112 116 120 124 128 132 136 140 144 148 152 156 160 164 168 172 176 180 184 188 192 196 200 204 208 212 216 220 224 228 232 236 240 244 248 252 256 260 264 268 272 276 280 284 288 292 296 300 304 308 312 316 320 324 328 332 336 340 344 348 352 356 360 364 368 372 376 380 384 388 392 396 400 404 408 412 416 420 424 428 432 436 440 444 448 452 456 460 464 468 472 476 480 484 488 492 496 500 504 508 512 516 520 524 528 532 536 540 544 548 552 556 560 564 568 572 576 580 584 588 592 596 600 604 608 612 616 620 624 628 632 636 640 644 648 652 656 660 664 668 672 676 680 684 688 692 696 700 704 708 712 716 720 724 728 732 736 740 744 748 752 756 760 764 768 772 776 780 784 788 792 796 800 804 808 812 816 820 824 828 832 836 840 844 848 852 856 860 864 868 872 876 880 884 888 892 896 900 904 908 912 916 920 924 928 932 936 940 944 948 952 956 960 964 968 972 976 980 984 988 992 996 1000 1004 1008 1012 1016 1020 1024 1028 1032 1036 1040 1044 1048 1052 1056 1060 1064 1068 1072 1076 1080 1084 1088 1092 1096 1100 1104 1108 1112 1116 1120 1124 1128 1132 1136 1140 1144 1148 1152 1156 1160 1164 1168 1172 1176 1180 1184 1188 1192 1196 1200 1204 1208 1212 1216 1220 1224 1228 1232 1236 1240 1244 1248 1252 1256 1260 1264 1268 1272 1276 1280 1284 1288 1292 1296 1300 1304 1308 1312 1316 1320 1324 1328 1332 1336 1340 1344 1348 1352 1356 1360 1364 1368 1372 1376 1380 1384 1388 1392 1396 1400 1404 1408 1412 1416 1420 1424 1428 1432 1436 1440 1444 1448 1452 1456 1460 1464 1468 1472 1476 1480 1484 1488 1492 1496 1500 1504 1508 1512 1516 1520 1524 1528 1532 1536 1540 1544 1548 1552 1556 1560 1564 1568 1572 1576 1580 1584 1588 1592 1596 1600 1604 1608 1612 1616 1620 1624 1628 1632 1636 1640 1644 1648 1652 1656 1660 1664 1668 1672 1676 1680 1684 1688 1692 1696 1700 1704 1708 1712 1716 1720 1724 1728 1732 1736 1740 1744 1748 1752 1756 1760 1764 1768 1772 1776 1780 1784 1788 1792 1796 1800 1804 1808 1812 1816 1820 1824 1828 1832 1836 1840 1844 1848 1852 1856 1860 1864 1868 1872 1876 1880 1884 1888 1892 1896 1900 1904 1908 1912 1916 1920 1924 1928 1932 1936 1940 1944 1948 1952 1956 1960 1964 1968 1972 1976 1980 1984 1988 1992 1996 2000 2004 2008 2012 2016 2020 2024 2028 2032 2036 2040 2044 2048 2052 2056 2060 2064 2068 2072 2076 2080 2084 2088 2092 2096 2100 2104 2108 2112 2116 2120 2124 2128 2132 2136 2140 2144 2148 2152 2156 2160 
</DataArray>
<DataArray type="UInt32" Name="types" format="ascii">
10 10 10 10 10 10 10 10 10 10 10 10 10 10 10 10 10 10 10 10 10 10 10 10 10 10 10 10 10 10 10 10 10 10 10 10 10 10 10 10 10 10 10 10 10 10 10 10 10 10 10 10 10 10 10 10 10 10 10 10 10 10 10 10 10 10 10 10 10 10 10 10 10 10 10 10 10 10 10 10 10 10 10 10 10 10 10 10 10 10 10 10 10 10 10 10 10 10 10 10 10 10 10 10 10 10 10 10 10 10 10 10 10 10 10 10 10 10 10 10 10 10 10 10 10 10 10 10 10 10 10 10 10 10 10 10 10 10 10 10 10 10 10 10 10 10 10 10 10 10 10 10 10 10 10 10 10 10 10 10 10 10 10 10 10 10 10 10 10 10 10 10 10 10 10 10 10 10 10 10 10 10 10 10 10 10 10 10 10 10 10 10 10 10 10 10 10 10 10 10 10 10 10 10 10 10 10 10 10 10 10 10 10 10 10 10 10 10 10 10 10 10 10 10 10 10 10 10 10 10 10 10 10 10 10 10 10 10 10 10 10 10 10 10 10 10 10 10 10 10 10 10 10 10 10 10 10 10 10 10 10 10 10 10 10 10 10 10 10 10 10 10 10 10 10 10 10 10 10 10 10 10 10 10 10 10 10 10 10 10 10 10 10 10 10 10 10 10 10 10 10 10 10 10 10 10 10 10 10 10 10 10 10 10 10 10 10 10 10 10 10 10 10 10 10 10 10 10 10 10 10 10 10 10 10 10 10 10 10 10 10 10 10 10 10 10 10 10 10 10 10 10 10 10 10 10 10 10 10 10 10 10 10 10 10 10 10 10 10 10 10 10 10 10 10 10 10 10 10 10 10 10 10 10 10 10 10 10 10 10 10 10 10 10 10 10 10 10 10 10 10 10 10 10 10 10 10 10 10 10 10 10 10 10 10 10 10 10 10 10 10 10 10 10 10 10 10 10 10 10 10 10 10 10 10 10 10 10 10 10 10 10 10 10 10 10 10 10 10 10 10 10 10 10 10 10 10 10 10 10 10 10 10 10 10 10 10 10 10 10 10 10 10 10 10 10 10 10 10 10 10 10 10 10 10 10 10 10 10 10 10 10 10 10 10 10 10 10 10 10 10 10 10 10 10 10 10 10 10 10 10 10 10 10 10 10 10 10 10 10 10 10 10 10 10 10 10 10 10 10 10 10 10 10 10 10 10 10 10 10 
</DataArray>
</Cells>
<PointData Scalars="" Vectors="displacement," Tensors="">
<DataArray type="Float64" Name="displacement" NumberOfComponents="3" format="ascii">
-1.3343361719204994e-07 -1.9517227570369499e-08 -0.00025021885772636663 2.4515318281127734e-08 1.6152693514367997e-08 -1.8749941580290587e-07 -8.4336777566555544e-08 -2.3213279994182006e-08 -0.00025021818895147526 -1.2759872034929743e-07 4.9916617705406904e-08 -0.00025023836325347511 -1.3343361719204994e-07 -1.9517227570369499e-08 -0.00025021885772636663 2.4515318281127734e-08 1.6152693514367997e-08 -1.8749941580290587e-07 -8.4336777566555544e-08 -2.3213279994182006e-08 -0.00025021818895147526 -1.0075478580731386e-07 -8.6367731885993908e-08 -0.0002502333349849587 -1.3343361719204994e-07 -1.9517227570369499e-08 -0.00025021885772636663 -5.4630244251913037e-08 -3.5568361500209097e-08 -1.0558484785113583e-07 2.4515318281127734e-08 1.6152693514368001e-08 -1.8749941580290587e-07 -1.0075478580731386e-07 -8.6367731885993908e-08 -0.0002502333349849587 -1.3343361719204994e-07 -1.9517227570369499e-08 -0.00025021885772636663 -5.4630244251913037e-08 -3.5568361500209097e-08 -1.0558484785113583e-07 2.4515318281127737e-08 1.6152693514368004e-08 -1.874994158028925e-07 -5.2296042368208915e-08 -4.3714206427737444e-09 -2.4535996119940716e-07 2.4515318281127734e-08 1.6152693514367997e-08 -1.8749941580290587e-07 -2.6317451100498886e-09 1.1332127652521482e-08 -2.1468367025489584e-07 -4.015933710735115e-08 -5.0915247168079658e-08 -0.00025020398636850142 -5.4684884532647973e-08 1.3877451495744026e-08 -0.0002502048169833896 2.4515318281127734e-08 1.6152693514367997e-08 -1.8749941580290587e-07 -1.0075478580731388e-07 -8.6367731885993922e-08 -0.0002502333349849587 -2.6317451100498828e-09 1.133212765252148e-08 -2.1468367025490809e-07 -4.0159337107351104e-08 -5.0915247168079645e-08 -0.00025020398636850147 2.4515318281127734e-08 1.6152693514367997e-08 -1.8749941580290587e-07 -8.4336777566555544e-08 -2.3213279994182006e-08 -0.00025021818895147526 -4.0159337107351156e-08 -5.0915247168079685e-08 -0.00025020398636850142 -5.4684884532647986e-08 1.3877451495744034e-08 -0.0002502048169833896 2.4515318281127734e-08 1.6152693514367997e-08 -1.8749941580290587e-07 -8.4336777566555544e-08 -2.3213279994182006e-08 -0.00025021818895147526 -1.0075478580731387e-07 -8.6367731885993908e-08 -0.0002502333349849587 -4.0159337107351123e-08 -5.0915247168079645e-08 -0.00025020398636850142 -1.0075478580731386e-07 -8.6367731885993908e-08 -0.0002502333349849587 -2.4656533557659219e-08 -4.6470922767891643e-08 -2.3441201197197304e-07 -2.631745110049884e-09 1.1332127652521478e-08 -2.1468367025489584e-07 -5.1940963741443448e-08 -1.2724769161861102e-07 -0.00025020775325474819 2.4515318281127734e-08 1.6152693514367997e-08 -1.8749941580290587e-07 -1.0075478580731386e-07 -8.6367731885993908e-08 -0.0002502333349849587 -2.4656533557659219e-08 -4.6470922767891643e-08 -2.3441201197197304e-07 -2.6317451100498886e-09 1.1332127652521482e-08 -2.1468367025489584e-07 -5.4630244251913037e-08 -3.5568361500209097e-08 -1.0558484785113583e-07 2.4515318281127731e-08 1.6152693514368001e-08 -1.8749941580290587e-07 -1.0075478580731386e-07 -8.6367731885993908e-08 -0.0002502333349849587 -2.4656533557659219e-08 -4.6470922767891643e-08 -2.3441201197197304e-07 -2.4656533557659219e-08 -4.6470922767891643e-08 -2.3441201197197304e-07 5.0248009858260523e-09 -5.2720986279763516e-08 -1.8098149061381405e-07 -2.6317451100498886e-09 1.1332127652521482e-08 -2.1468367025489584e-07 -5.1940963741443461e-08 -1.2724769161861102e-07 -0.00025020775325474825 5.0248009858260565e-09 -5.2720986279763516e-08 -1.8098149061378938e-07 -2.6317451100498886e-09 1.1332127652521482e-08 -2.1468367025489584e-07 -4.8807934977451234e-09 1.6546707625835466e-08 -9.7709443171024976e-08 -5.1940963741443448e-08 -1.2724769161861102e-07 -0.00025020775325474819 -2.6317451100498886e-09 1.1332127652521482e-08 -2.1468367025489584e-07 -4.8807934977451234e-09 1.6546707625835466e-08 -9.7709443171024976e-08 -4.015933710735115e-08 -5.0915247168079658e-08 -0.00025020398636850142 -5.1940963741443448e-08 -1.2724769161861105e-07 -0.00025020775325474819 -2.6317451100498886e-09 1.1332127652521482e-08 -2.1468367025489584e-07 5.7103979706072377e-09 -9.1897553456825958e-09 -7.2571553845100246e-08 -4.015933710735115e-08 -5.0915247168079658e-08 -0.00025020398636850142 3.7897829452638804e-09 2.5030855877049004e-09 -1.8649049674388379e-07 -2.6317451100498886e-09 1.1332127652521482e-08 -2.1468367025489584e-07 5.7103979706072377e-09 -9.1897553456825958e-09 -7.2571553845100246e-08 -4.8807934977451234e-09 1.6546707625835466e-08 -9.7709443171024976e-08 -4.015933710735115e-08 -5.0915247168079658e-08 -0.00025020398636850142 5.7103979706072377e-09 -9.1897553456825958e-09 -7.2571553845100246e-08 -4.8807934977451234e-09 1.6546707625835466e-08 -9.7709443171024976e-08 -5.110065593335329e-09 -8.4149725218848555e-08 -0.00025018507265962364 -4.015933710735115e-08 -5.0915247168079658e-08 -0.00025020398636850142 5.7103979706072377e-09 -9.1897553456825958e-09 -7.2571553845100246e-08 -1.2701597484612498e-08 1.131499676403669e-08 -9.8543760335473846e-08 1.240193621368141e-08 -4.2730937146350839e-08 -0.00025018016648342212 5.3192690919620619e-08 -2.6644470231555694e-08 -0.00025019539836647066 5.7103979706072377e-09 -9.1897553456825958e-09 -7.2571553845100246e-08 -1.2701597484612498e-08 1.131499676403669e-08 -9.8543760335473846e-08 5.3192690919620619e-08 -2.6644470231555694e-08 -0.00025019539836647066 -1.260105665391406e-08 4.7781304753361386e-09 -1.7697880110779202e-07 5.7103979706072377e-09 -9.1897553456825958e-09 -7.2571553845100246e-08 -1.2701597484612498e-08 1.131499676403669e-08 -9.8543760335473846e-08 -5.110065593335329e-09 -8.4149725218848555e-08 -0.00025018507265962364 1.240193621368141e-08 -4.2730937146350839e-08 -0.00025018016648342212 5.7103979706072377e-09 -9.1897553456825958e-09 -7.2571553845100246e-08 -1.2701597484612498e-08 1.131499676403669e-08 -9.8543760335473846e-08 -4.8807934977451234e-09 1.6546707625835466e-08 -9.7709443171024976e-08 -5.110065593335329e-09 -8.4149725218848555e-08 -0.00025018507265962364 -1.2701597484612498e-08 1.131499676403669e-08 -9.8543760335473846e-08 -4.8807934977451234e-09 1.6546707625835466e-08 -9.7709443171024976e-08 2.9118624754217188e-08 -4.4973803610685757e-08 -1.3795280721346523e-07 1.9424279989004228e-08 -1.3542571034450274e-07 -0.00025019745817874366 5.0248009858260565e-09 -5.2720986279763516e-08 -1.8098149061378938e-07 -4.8807934977451341e-09 1.6546707625835483e-08 -9.7709443171024962e-08 -5.1940963741443448e-08 -1.2724769161861102e-07 -0.00025020775325474819 1.9424279989004264e-08 -1.3542571034450277e-07 -0.00025019745817874366 5.0248009858260565e-09 -5.2720986279763516e-08 -1.8098149061378938e-07 -4.8807934977451292e-09 1.6546707625835473e-08 -9.770944317103731e-08 2.9118624754217188e-08 -4.4973803610685757e-08 -1.3795280721346523e-07 1.9424279989004228e-08 -1.3542571034450274e-07 -0.00025019745817874366 -1.2701597484612498e-08 1.131499676403669e-08 -9.8543760335473846e-08 -4.8807934977451234e-09 1.6546707625835466e-08 -9.7709443171024976e-08 -5.110065593335329e-09 -8.4149725218848555e-08 -0.00025018507265962364 1.9424279989004228e-08 -1.3542571034450274e-07 -0.00025019745817874366 -4.8807934977451234e-09 1.6546707625835466e-08 -9.7709443171024976e-08 -5.110065593335329e-09 -8.4149725218848555e-08 -0.00025018507265962364 -5.1940963741443448e-08 -1.2724769161861102e-07 -0.00025020775325474819 1.9424279989004228e-08 -1.3542571034450274e-07 -0.00025019745817874366 -1.2701597484612498e-08 1.131499676403669e-08 -9.8543760335473846e-08 -5.110065593335329e-09 -8.4149725218848555e-08 -0.00025018507265962364 3.6405840529932813e-08 -7.0376829193214751e-08 -0.00025018848937156263 1.9424279989004228e-08 -1.3542571034450274e-07 -0.00025019745817874366 -1.2701597484612498e-08 1.131499676403669e-08 -9.8543760335473846e-08 3.6405840529932813e-08 -7.0376829193214751e-08 -0.00025018848937156263 1.2401936213681442e-08 -4.2730937146350813e-08 -0.00025018016648342212 5.319269091962058e-08 -2.6644470231555681e-08 -0.00025019539836647066 -1.2701597484612498e-08 1.131499676403669e-08 -9.8543760335473846e-08 -5.110065593335329e-09 -8.4149725218848555e-08 -0.00025018507265962364 3.6405840529932813e-08 -7.0376829193214751e-08 -0.00025018848937156263 1.240193621368141e-08 -4.2730937146350839e-08 -0.00025018016648342212 5.7103979706072377e-09 -9.1897553456825958e-09 -7.2571553845100246e-08 -5.110065593335329e-09 -8.4149725218848555e-08 -0.00025018507265962364 1.240193621368141e-08 -4.2730937146350839e-08 -0.00025018016648342212 -4.015933710735115e-08 -5.0915247168079658e-08 -0.00025020398636850142 5.7103979706072377e-09 -9.1897553456825958e-09 -7.2571553845100246e-08 1.240193621368141e-08 -4.2730937146350839e-08 -0.00025018016648342212 -4.0159337107351156e-08 -5.0915247168079632e-08 -0.00025020398636850137 4.6030561002933543e-09 -1.6842088711722196e-10 -0.0002501972265399634 -4.8807934977451234e-09 1.6546707625835466e-08 -9.7709443171024976e-08 -5.110065593335329e-09 -8.4149725218848555e-08 -0.00025018507265962364 -4.015933710735115e-08 -5.0915247168079658e-08 -0.00025020398636850142 -5.1940963741443448e-08 -1.2724769161861102e-07 -0.00025020775325474819 -1.0075478580731386e-07 -8.6367731885993908e-08 -0.0002502333349849587 -2.6317451100498869e-09 1.1332127652521475e-08 -2.1468367025489584e-07 -4.015933710735115e-08 -5.0915247168079658e-08 -0.00025020398636850142 -5.1940963741443448e-08 -1.2724769161861102e-07 -0.00025020775325474819 -5.110065593335329e-09 -8.4149725218848555e-08 -0.00025018507265962364 -4.015933710735115e-08 -5.0915247168079658e-08 -0.00025020398636850142 -5.1940963741443448e-08 -1.2724769161861102e-07 -0.00025020775325474819 1.3426481430261384e-08 -1.0928212528302629e-07 -0.00050024180898278431 -5.110065593335329e-09 -8.4149725218848555e-08 -0.00025018507265962364 2.1582090839418194e-08 -7.3848457570648681e-08 -0.00050023705050862978 -1.7767771593188337e-08 -5.5704108924301895e-08 -0.00050024072486093483 1.3426481430261384e-08 -1.0928212528302629e-07 -0.00050024180898278431 -5.110065593335329e-09 -8.4149725218848555e-08 -0.00025018507265962364 -4.015933710735115e-08 -5.0915247168079658e-08 -0.00025020398636850142 -1.7767771593188337e-08 -5.5704108924301895e-08 -0.00050024072486093483 1.3426481430261384e-08 -1.0928212528302629e-07 -0.00050024180898278431 -4.015933710735115e-08 -5.0915247168079658e-08 -0.00025020398636850142 -1.7767771593188337e-08 -5.5704108924301895e-08 -0.00050024072486093483 1.3426481430261384e-08 -1.0928212528302632e-07 -0.00050024180898278431 -4.4958685719926496e-08 -1.0091890764999083e-07 -0.0005002514200376962 -1.0075478580731386e-07 -8.6367731885993908e-08 -0.0002502333349849587 -4.015933710735115e-08 -5.0915247168079665e-08 -0.00025020398636850142 -5.1940963741443448e-08 -1.2724769161861102e-07 -0.00025020775325474819 1.3426481430261384e-08 -1.0928212528302629e-07 -0.00050024180898278431 1.240193621368141e-08 -4.2730937146350839e-08 -0.00025018016648342212 -4.015933710735115e-08 -5.0915247168079658e-08 -0.00025020398636850142 -1.7767771593188337e-08 -5.5704108924301895e-08 -0.00050024072486093483 4.6030561002933849e-09 -1.6842088711722589e-10 -0.0002501972265399634 -5.110065593335329e-09 -8.4149725218848555e-08 -0.00025018507265962364 1.240193621368141e-08 -4.2730937146350839e-08 -0.00025018016648342212 2.1582090839418194e-08 -7.3848457570648681e-08 -0.00050023705050862978 -1.7767771593188337e-08 -5.5704108924301895e-08 -0.00050024072486093483 1.240193621368141e-08 -4.2730937146350839e-08 -0.00025018016648342212 2.1894845554943911e-08 -3.3949311708798505e-08 -0.00050023619295787259 -1.7767771593188344e-08 -5.5704108924301882e-08 -0.00050024072486093483 5.2838649358938445e-09 3.3952949656216699e-09 -0.00050024016759117043 -5.110065593335329e-09 -8.4149725218848555e-08 -0.00025018507265962364 1.240193621368141e-08 -4.2730937146350839e-08 -0.00025018016648342212 -4.015933710735115e-08 -5.0915247168079658e-08 -0.00025020398636850142 -1.7767771593188337e-08 -5.5704108924301895e-08 -0.00050024072486093483 1.240193621368141e-08 -4.2730937146350839e-08 -0.00025018016648342212 2.1582090839418194e-08 -7.3848457570648681e-08 -0.00050023705050862978 2.1894845554943911e-08 -3.3949311708798505e-08 -0.00050023619295787259 -1.7767771593188337e-08 -5.5704108924301895e-08 -0.00050024072486093483 3.6405840529932813e-08 -7.0376829193214751e-08 -0.00025018848937156263 2.1894845554943928e-08 -3.3949311708798485e-08 -0.00050023619295787259 5.1807451634865326e-08 -5.3010039954965041e-08 -0.00050023741979403401 5.474183798617841e-08 -1.5675962266732897e-08 -0.00050024195595392692 3.6405840529932813e-08 -7.0376829193214751e-08 -0.00025018848937156263 1.240193621368141e-08 -4.2730937146350839e-08 -0.00025018016648342212 5.4741837986178423e-08 -1.5675962266732917e-08 -0.00050024195595392692 5.3192690919620619e-08 -2.6644470231555694e-08 -0.00025019539836647066 3.6405840529932813e-08 -7.0376829193214751e-08 -0.00025018848937156263 1.240193621368141e-08 -4.2730937146350839e-08 -0.00025018016648342212 2.1894845554943934e-08 -3.3949311708798479e-08 -0.00050023619295787259 5.4741837986178404e-08 -1.5675962266732937e-08 -0.00050024195595392692 3.6405840529932813e-08 -7.0376829193214751e-08 -0.00025018848937156263 1.240193621368141e-08 -4.2730937146350839e-08 -0.00025018016648342212 2.1582090839418194e-08 -7.3848457570648681e-08 -0.00050023705050862978 2.1894845554943911e-08 -3.3949311708798505e-08 -0.00050023619295787259 -5.110065593335329e-09 -8.4149725218848555e-08 -0.00025018507265962364 3.6405840529932813e-08 -7.0376829193214751e-08 -0.00025018848937156263 1.240193621368141e-08 -4.2730937146350839e-08 -0.00025018016648342212 2.1582090839418194e-08 -7.3848457570648681e-08 -0.00050023705050862978 3.6405840529932813e-08 -7.0376829193214751e-08 -0.00025018848937156263 2.1582090839418194e-08 -7.3848457570648681e-08 -0.00050023705050862978 2.1894845554943911e-08 -3.3949311708798505e-08 -0.00050023619295787259 5.1807451634865326e-08 -5.3010039954965034e-08 -0.00050023741979403401 -5.110065593335329e-09 -8.4149725218848555e-08 -0.00025018507265962364 -5.1940963741443448e-08 -1.2724769161861102e-07 -0.00025020775325474819 1.9424279989004228e-08 -1.3542571034450274e-07 -0.00025019745817874366 6.6420897493244259e-08 -8.7910750964997643e-08 -0.00050023805240371089 -5.110065593335329e-09 -8.4149725218848555e-08 -0.00025018507265962364 2.1582090839418194e-08 -7.3848457570648681e-08 -0.00050023705050862978 1.3426481430261384e-08 -1.0928212528302629e-07 -0.00050024180898278431 6.6420897493244259e-08 -8.7910750964997643e-08 -0.00050023805240371089 -5.110065593335329e-09 -8.4149725218848555e-08 -0.00025018507265962364 -5.1940963741443448e-08 -1.2724769161861102e-07 -0.00025020775325474819 1.3426481430261384e-08 -1.0928212528302629e-07 -0.00050024180898278431 6.6420897493244259e-08 -8.7910750964997643e-08 -0.00050023805240371089 -5.110065593335329e-09 -8.4149725218848555e-08 -0.00025018507265962364 3.6405840529932813e-08 -7.0376829193214751e-08 -0.00025018848937156263 2.1582090839418194e-08 -7.3848457570648681e-08 -0.00050023705050862978 6.6420897493244259e-08 -8.7910750964997643e-08 -0.00050023805240371089 -5.110065593335329e-09 -8.4149725218848555e-08 -0.00025018507265962364 3.6405840529932813e-08 -7.0376829193214751e-08 -0.00025018848937156263 1.9424279989004228e-08 -1.3542571034450274e-07 -0.00025019745817874366 6.6420897493244259e-08 -8.7910750964997643e-08 -0.00050023805240371089 3.6405840529932813e-08 -7.0376829193214751e-08 -0.00025018848937156263 2.1582090839418194e-08 -7.3848457570648681e-08 -0.00050023705050862978 5.1807451634865326e-08 -5.3010039954965034e-08 -0.00050023741979403401 6.6420897493244259e-08 -8.7910750964997643e-08 -0.00050023805240371089 2.1582090839418194e-08 -7.3848457570648681e-08 -0.00050023705050862978 1.3426481430261384e-08 -1.0928212528302629e-07 -0.00050024180898278431 6.6420897493244259e-08 -8.7910750964997643e-08 -0.00050023805240371089 5.4071381424872131e-08 -9.7714249371913136e-08 -0.00075027446938382835 2.1582090839418194e-08 -7.3848457570648681e-08 -0.00050023705050862978 5.1807451634865326e-08 -5.3010039954965034e-08 -0.00050023741979403401 6.6420897493244259e-08 -8.7910750964997643e-08 -0.00050023805240371089 5.4071381424872131e-08 -9.7714249371913136e-08 -0.00075027446938382835 2.1582090839418194e-08 -7.3848457570648681e-08 -0.00050023705050862978 2.1894845554943911e-08 -3.3949311708798505e-08 -0.00050023619295787259 5.1807451634865326e-08 -5.3010039954965034e-08 -0.00050023741979403401 1.9435434997174925e-08 -7.5934527239549298e-08 -0.00075027448214383559 2.1894845554943911e-08 -3.3949311708798505e-08 -0.00050023619295787259 5.1807451634865326e-08 -5.3010039954965034e-08 -0.00050023741979403401 5.4741837986178423e-08 -1.5675962266732917e-08 -0.00050024195595392692 5.3660213007688462e-08 -1.9717044563996876e-08 -0.00075027714288926231 2.1582090839418194e-08 -7.3848457570648681e-08 -0.00050023705050862978 2.1894845554943911e-08 -3.3949311708798505e-08 -0.00050023619295787259 -1.7767771593188337e-08 -5.5704108924301895e-08 -0.00050024072486093483 -1.6517860231310928e-08 -5.5258302737469958e-08 -0.0007502752832760399 2.1894845554943911e-08 -3.3949311708798505e-08 -0.00050023619295787259 -1.7767771593188337e-08 -5.5704108924301895e-08 -0.00050024072486093483 5.2838649358938693e-09 3.3952949656216745e-09 -0.00050024016759117043 -1.6517860231310928e-08 -5.5258302737469958e-08 -0.0007502752832760399 -1.7767771593188337e-08 -5.5704108924301895e-08 -0.00050024072486093483 1.3426481430261384e-08 -1.0928212528302629e-07 -0.00050024180898278431 -4.4958685719926516e-08 -1.0091890764999083e-07 -0.0005002514200376962 -1.9358016799815161e-09 -1.1165216154227679e-07 -0.00075027477368505428 2.1582090839418194e-08 -7.3848457570648681e-08 -0.00050023705050862978 -1.7767771593188337e-08 -5.5704108924301895e-08 -0.00050024072486093483 1.3426481430261384e-08 -1.0928212528302629e-07 -0.00050024180898278431 -1.935801679981512e-09 -1.1165216154227679e-07 -0.00075027477368505417 -1.7767771593188337e-08 -5.5704108924301895e-08 -0.00050024072486093483 -4.4958685719926523e-08 -1.0091890764999083e-07 -0.0005002514200376962 -6.5686352995869027e-08 -4.349518830159702e-08 -0.00050024544384602717 -5.7169568470787003e-08 -9.5809128041064603e-08 -0.00075027794126433583 -4.4958685719926516e-08 -1.0091890764999083e-07 -0.0005002514200376962 -8.7987181054795224e-08 -6.6310360000070448e-08 -0.00050024670073543266 -6.5686352995869027e-08 -4.349518830159702e-08 -0.00050024544384602717 -5.7169568470787003e-08 -9.5809128041064603e-08 -0.00075027794126433583 -1.0075478580731386e-07 -8.6367731885993908e-08 -0.0002502333349849587 -4.0159337107351143e-08 -5.0915247168079658e-08 -0.00025020398636850142 1.342648143026139e-08 -1.0928212528302631e-07 -0.0005002418089827842 -4.4958685719926516e-08 -1.0091890764999083e-07 -0.0005002514200376962 -8.4336777566555544e-08 -2.3213279994182006e-08 -0.00025021818895147526 -1.0075478580731386e-07 -8.6367731885993908e-08 -0.0002502333349849587 -4.015933710735115e-08 -5.0915247168079658e-08 -0.00025020398636850142 -4.4958685719926516e-08 -1.0091890764999083e-07 -0.0005002514200376962 -1.3343361719204994e-07 -1.9517227570369499e-08 -0.00025021885772636663 -8.4336777566555544e-08 -2.3213279994182003e-08 -0.00025021818895147526 -1.0075478580731386e-07 -8.6367731885993908e-08 -0.0002502333349849587 -4.4958685719926516e-08 -1.0091890764999083e-07 -0.0005002514200376962 -8.4336777566555544e-08 -2.3213279994182006e-08 -0.00025021818895147526 -1.7767771593188317e-08 -5.5704108924301902e-08 -0.00050024072486093483 -6.568635299586904e-08 -4.349518830159702e-08 -0.00050024544384602728 -5.0937521584810326e-08 3.0301023285299147e-09 -0.00050024263110856864 -8.4336777566555544e-08 -2.3213279994182006e-08 -0.00025021818895147526 -1.7767771593188317e-08 -5.5704108924301869e-08 -0.00050024072486093483 -4.4958685719926529e-08 -1.0091890764999082e-07 -0.00050025142003769609 -6.5686352995869027e-08 -4.349518830159702e-08 -0.00050024544384602717 -8.4336777566555544e-08 -2.3213279994182006e-08 -0.00025021818895147526 -4.015933710735115e-08 -5.0915247168079658e-08 -0.00025020398636850142 -1.7767771593188337e-08 -5.5704108924301895e-08 -0.00050024072486093483 -4.4958685719926516e-08 -1.0091890764999083e-07 -0.0005002514200376962 -8.4336777566555544e-08 -2.3213279994182006e-08 -0.00025021818895147526 -4.015933710735115e-08 -5.0915247168079658e-08 -0.00025020398636850142 -1.7767771593188337e-08 -5.5704108924301895e-08 -0.00050024072486093483 -5.0937521584810313e-08 3.0301023285299102e-09 -0.00050024263110856864 -8.4336777566555544e-08 -2.3213279994182006e-08 -0.00025021818895147526 -4.4958685719926536e-08 -1.0091890764999083e-07 -0.0005002514200376962 -8.7987181054795224e-08 -6.6310360000070461e-08 -0.00050024670073543266 -6.5686352995869027e-08 -4.349518830159702e-08 -0.00050024544384602717 -1.3343361719204994e-07 -1.9517227570369499e-08 -0.00025021885772636663 -8.4336777566555544e-08 -2.3213279994182006e-08 -0.00025021818895147526 -4.4958685719926516e-08 -1.0091890764999083e-07 -0.0005002514200376962 -8.7987181054795224e-08 -6.6310360000070448e-08 -0.00050024670073543266 -8.4336777566555544e-08 -2.3213279994182006e-08 -0.00025021818895147526 -8.7987181054795224e-08 -6.6310360000070448e-08 -0.00050024670073543266 -6.5686352995869027e-08 -4.349518830159702e-08 -0.00050024544384602717 -1.0916643656631173e-07 -1.3238743784511246e-08 -0.00050025382444079513 -1.3343361719204994e-07 -1.9517227570369499e-08 -0.00025021885772636663 -8.4336777566555544e-08 -2.3213279994182006e-08 -0.00025021818895147526 -8.7987181054795224e-08 -6.6310360000070448e-08 -0.00050024670073543266 -1.2759872034929743e-07 4.9916617705406904e-08 -0.00025023836325347511 -8.7987181054795224e-08 -6.6310360000070448e-08 -0.00050024670073543266 -6.5686352995869027e-08 -4.349518830159702e-08 -0.00050024544384602717 -1.0916643656631173e-07 -1.3238743784511246e-08 -0.00050025382444079513 -9.7769776566245366e-08 -5.407881221031395e-08 -0.00075027635761765882 -1.7767771593188337e-08 -5.5704108924301895e-08 -0.00050024072486093483 -5.0937521584810313e-08 3.0301023285299102e-09 -0.00050024263110856864 5.2838649358938693e-09 3.3952949656216745e-09 -0.00050024016759117043 -5.0696960373753342e-08 5.2372885267698635e-09 -0.00075027633708765024 -1.7767771593188337e-08 -5.5704108924301895e-08 -0.00050024072486093483 -6.5686352995869027e-08 -4.349518830159702e-08 -0.00050024544384602717 -5.0937521584810313e-08 3.0301023285299102e-09 -0.00050024263110856864 -5.0696960373753342e-08 5.2372885267698685e-09 -0.00075027633708765024 -5.0937521584810313e-08 3.0301023285299102e-09 -0.00050024263110856864 -1.984167421183431e-08 3.6184649431000149e-08 -0.00050023855144423529 5.2838649358938693e-09 3.3952949656216745e-09 -0.00050024016759117043 -5.0696960373753349e-08 5.2372885267698627e-09 -0.00075027633708765014 -6.5686352995869027e-08 -4.349518830159702e-08 -0.00050024544384602717 -5.0937521584810313e-08 3.0301023285299102e-09 -0.00050024263110856864 -1.0916643656631173e-07 -1.3238743784511246e-08 -0.00050025382444079513 -1.1167816606067629e-07 1.937116427275397e-09 -0.00075027944562958235 -8.4336777566555544e-08 -2.3213279994182006e-08 -0.00025021818895147526 -6.5686352995869027e-08 -4.349518830159702e-08 -0.00050024544384602717 -5.0937521584810313e-08 3.030102328529911e-09 -0.00050024263110856864 -1.0916643656631173e-07 -1.3238743784511246e-08 -0.00050025382444079513 -8.4336777566555544e-08 -2.3213279994182006e-08 -0.00025021818895147526 -1.0916643656631173e-07 -1.3238743784511261e-08 -0.00050025382444079524 -5.4684884532647973e-08 1.3877451495744026e-08 -0.0002502048169833896 -1.2759872034929743e-07 4.9916617705406904e-08 -0.00025023836325347511 -8.4336777566555544e-08 -2.3213279994182006e-08 -0.00025021818895147526 -5.0937521584810319e-08 3.0301023285299122e-09 -0.00050024263110856864 -1.0916643656631173e-07 -1.3238743784511246e-08 -0.00050025382444079513 -5.4684884532647973e-08 1.3877451495744026e-08 -0.0002502048169833896 -8.4336777566555544e-08 -2.3213279994182006e-08 -0.00025021818895147526 -8.7987181054795224e-08 -6.6310360000070448e-08 -0.00050024670073543266 -1.0916643656631173e-07 -1.3238743784511246e-08 -0.00050025382444079513 -1.2759872034929743e-07 4.9916617705406904e-08 -0.00025023836325347511 -8.4336777566555544e-08 -2.3213279994182006e-08 -0.00025021818895147526 -4.015933710735115e-08 -5.0915247168079658e-08 -0.00025020398636850142 -5.0937521584810313e-08 3.0301023285299102e-09 -0.00050024263110856864 -5.4684884532647973e-08 1.3877451495744026e-08 -0.0002502048169833896 -5.0937521584810313e-08 3.0301023285299102e-09 -0.00050024263110856864 -7.0334623217789262e-09 4.0877835127017951e-08 -0.00025017992255524526 4.6030561002933898e-09 -1.6842088711724406e-10 -0.00025019722653996345 -5.4684884532647973e-08 1.3877451495744026e-08 -0.0002502048169833896 -4.015933710735115e-08 -5.0915247168079658e-08 -0.00025020398636850142 -5.0937521584810299e-08 3.0301023285299135e-09 -0.00050024263110856886 4.6030561002933849e-09 -1.6842088711722589e-10 -0.0002501972265399634 -5.4684884532647973e-08 1.3877451495744026e-08 -0.0002502048169833896 -5.1292106952046617e-08 5.0051992100312015e-08 -0.00050023974058978945 -1.984167421183431e-08 3.6184649431000149e-08 -0.00050023855144423529 -3.577821238520514e-08 6.6277975391746407e-08 -0.00025019369346824003 -2.5388025849861895e-08 6.9262899321620892e-08 -0.00050024057870222275 -5.0937521584810313e-08 3.0301023285299102e-09 -0.00050024263110856864 -7.0334623217789378e-09 4.0877835127017984e-08 -0.0002501799225552452 -3.577821238520514e-08 6.6277975391746407e-08 -0.00025019369346824003 -5.4684884532647973e-08 1.3877451495744026e-08 -0.0002502048169833896 -1.984167421183431e-08 3.6184649431000149e-08 -0.00050023855144423529 -7.0334623217789262e-09 4.0877835127017951e-08 -0.00025017992255524526 -3.577821238520514e-08 6.6277975391746407e-08 -0.00025019369346824003 -5.513298986373383e-10 8.0960185127613561e-08 -0.00025019045557875377 -5.0937521584810313e-08 3.0301023285299102e-09 -0.00050024263110856864 -5.1292106952046617e-08 5.0051992100312015e-08 -0.00050023974058978945 -1.984167421183431e-08 3.6184649431000149e-08 -0.00050023855144423529 -3.577821238520514e-08 6.6277975391746407e-08 -0.00025019369346824003 -5.0937521584810313e-08 3.0301023285299102e-09 -0.00050024263110856864 -1.984167421183431e-08 3.6184649431000149e-08 -0.00050023855144423529 -7.0334623217789262e-09 4.0877835127017951e-08 -0.00025017992255524526 -3.577821238520514e-08 6.6277975391746407e-08 -0.00025019369346824003 -5.0937521584810313e-08 3.0301023285299102e-09 -0.00050024263110856864 -1.0132644689712481e-07 4.3164076035060454e-08 -0.0005002481293266914 -5.1292106952046617e-08 5.0051992100312015e-08 -0.00050023974058978945 -3.577821238520514e-08 6.6277975391746407e-08 -0.00025019369346824003 -5.0937521584810313e-08 3.0301023285299102e-09 -0.00050024263110856864 -1.013264468971248e-07 4.3164076035060454e-08 -0.0005002481293266914 -3.577821238520514e-08 6.6277975391746407e-08 -0.00025019369346824003 -5.4684884532647973e-08 1.3877451495744026e-08 -0.0002502048169833896 -1.0916643656631173e-07 -1.3238743784511246e-08 -0.00050025382444079513 -1.0132644689712481e-07 4.316407603506046e-08 -0.00050024812932669151 -5.4684884532647973e-08 1.3877451495744026e-08 -0.0002502048169833896 -8.5148372241161982e-08 1.0636626093887662e-07 -0.000250225533555869 -1.0916643656631173e-07 -1.3238743784511246e-08 -0.00050025382444079513 -5.4684884532647986e-08 1.3877451495744003e-08 -0.00025020481698338965 -1.2759872034929743e-07 4.9916617705406904e-08 -0.00025023836325347511 -8.5148372241161982e-08 1.0636626093887662e-07 -0.000250225533555869 -5.0937521584810313e-08 3.0301023285299102e-09 -0.00050024263110856864 -1.0916643656631173e-07 -1.3238743784511246e-08 -0.00050025382444079513 -1.0132644689712483e-07 4.316407603506044e-08 -0.0005002481293266914 -5.4684884532647973e-08 1.3877451495744026e-08 -0.0002502048169833896 -1.0132644689712483e-07 4.316407603506044e-08 -0.0005002481293266914 -3.5778212385205159e-08 6.6277975391746433e-08 -0.00025019369346823998 -5.4684884532647973e-08 1.3877451495744026e-08 -0.0002502048169833896 -8.5148372241161982e-08 1.0636626093887662e-07 -0.000250225533555869 -5.0937521584810313e-08 3.0301023285299102e-09 -0.00050024263110856864 -1.0916643656631173e-07 -1.3238743784511246e-08 -0.00050025382444079513 -1.0132644689712483e-07 4.316407603506044e-08 -0.0005002481293266914 -1.1167816606067629e-07 1.937116427275397e-09 -0.00075027944562958235 -5.0937521584810313e-08 3.0301023285299102e-09 -0.00050024263110856864 -1.0132644689712481e-07 4.3164076035060454e-08 -0.0005002481293266914 -5.1292106952046617e-08 5.0051992100312015e-08 -0.00050023974058978945 -9.5745814794412087e-08 5.7468738857236557e-08 -0.00075027817874581118 -5.1292106952046617e-08 5.0051992100312015e-08 -0.00050023974058978945 -1.984167421183431e-08 3.6184649431000149e-08 -0.00050023855144423529 -2.5388025849861895e-08 6.9262899321620892e-08 -0.00050024057870222275 -1.9288400763656135e-08 3.6138372476059378e-08 -0.00075027603314516687 -5.0937521584810313e-08 3.0301023285299102e-09 -0.00050024263110856864 -5.1292106952046617e-08 5.0051992100312015e-08 -0.00050023974058978945 -1.984167421183431e-08 3.6184649431000149e-08 -0.00050023855144423529 -5.0696960373753349e-08 5.2372885267698627e-09 -0.00075027633708765014 -1.984167421183431e-08 3.6184649431000149e-08 -0.00050023855144423529 5.2838649358938693e-09 3.3952949656216745e-09 -0.00050024016759117043 1.2954418918770951e-08 5.6984947565504081e-08 -0.00050024587829834179 4.9011464059138077e-09 1.8453467621994177e-09 -0.00075027577486464446 -1.984167421183431e-08 3.6184649431000149e-08 -0.00050023855144423529 1.2954418918770951e-08 5.6984947565504081e-08 -0.00050024587829834179 -2.5388025849861895e-08 6.9262899321620892e-08 -0.00050024057870222275 1.0863505169607146e-08 5.7025658312755475e-08 -0.00075027893609821831 5.2838649358938693e-09 3.3952949656216745e-09 -0.00050024016759117043 5.4741837986178423e-08 -1.5675962266732917e-08 -0.00050024195595392692 5.724676900785744e-08 3.4703900529485813e-08 -0.0005002557259795019 5.3660213007688456e-08 -1.9717044563996876e-08 -0.0007502771428892622 2.1894845554943911e-08 -3.3949311708798505e-08 -0.00050023619295787259 5.2838649358938693e-09 3.3952949656216745e-09 -0.00050024016759117043 5.4741837986178423e-08 -1.5675962266732914e-08 -0.00050024195595392692 5.3660213007688462e-08 -1.9717044563996876e-08 -0.00075027714288926231 5.2838649358938693e-09 3.3952949656216745e-09 -0.00050024016759117043 5.724676900785744e-08 3.4703900529485813e-08 -0.0005002557259795019 1.2954418918770951e-08 5.6984947565504081e-08 -0.00050024587829834179 4.9011464059138077e-09 1.8453467621994177e-09 -0.00075027577486464446 5.2838649358938693e-09 3.3952949656216745e-09 -0.00050024016759117043 6.9850464791747116e-08 1.9623098552910995e-08 -0.00025024115399875689 1.2954418918770951e-08 5.6984947565504081e-08 -0.00050024587829834179 3.7098420062191085e-08 5.4397749715866274e-08 -0.00025020752047064056 5.724676900785744e-08 3.4703900529485813e-08 -0.0005002557259795019 6.9850464791747116e-08 1.9623098552910995e-08 -0.00025024115399875689 4.4878332666934777e-08 1.0091034420036358e-07 -0.00050026550164603727 1.2954418918770951e-08 5.6984947565504081e-08 -0.00050024587829834179 5.2838649358938693e-09 3.3952949656216745e-09 -0.00050024016759117043 5.724676900785744e-08 3.4703900529485813e-08 -0.0005002557259795019 6.9850464791747116e-08 1.9623098552910995e-08 -0.00025024115399875689 1.2954418918770951e-08 5.6984947565504081e-08 -0.00050024587829834179 5.2838649358938693e-09 3.3952949656216745e-09 -0.00050024016759117043 4.6030561002933849e-09 -1.6842088711722589e-10 -0.0002501972265399634 6.9850464791747116e-08 1.9623098552911015e-08 -0.00025024115399875689 3.7098420062191092e-08 5.4397749715866274e-08 -0.00025020752047064061 1.240193621368141e-08 -4.2730937146350839e-08 -0.00025018016648342212 5.4741837986178423e-08 -1.5675962266732917e-08 -0.00050024195595392692 4.6030561002933849e-09 -1.6842088711722589e-10 -0.0002501972265399634 5.3192690919620619e-08 -2.6644470231555694e-08 -0.00025019539836647066 1.240193621368141e-08 -4.2730937146350839e-08 -0.00025018016648342212 5.2838649358938693e-09 3.3952949656216745e-09 -0.00050024016759117043 5.4741837986178423e-08 -1.5675962266732917e-08 -0.00050024195595392692 4.6030561002933849e-09 -1.6842088711722589e-10 -0.0002501972265399634 5.2838649358938693e-09 3.3952949656216745e-09 -0.00050024016759117043 5.4741837986178423e-08 -1.5675962266732917e-08 -0.00050024195595392692 5.724676900785744e-08 3.4703900529485813e-08 -0.0005002557259795019 6.9850464791747116e-08 1.9623098552910995e-08 -0.00025024115399875689 5.4741837986178423e-08 -1.5675962266732917e-08 -0.00050024195595392692 4.6030561002933964e-09 -1.6842088711724652e-10 -0.00025019722653996335 5.3192690919620619e-08 -2.6644470231555694e-08 -0.00025019539836647066 6.9850464791747116e-08 1.9623098552910995e-08 -0.00025024115399875689 5.2838649358938693e-09 3.3952949656216745e-09 -0.00050024016759117043 5.4741837986178423e-08 -1.5675962266732917e-08 -0.00050024195595392692 4.6030561002933849e-09 -1.6842088711722589e-10 -0.0002501972265399634 6.9850464791747116e-08 1.9623098552910995e-08 -0.00025024115399875689 1.240193621368141e-08 -4.2730937146350839e-08 -0.00025018016648342212 2.1894845554943911e-08 -3.3949311708798505e-08 -0.00050023619295787259 5.2838649358938693e-09 3.3952949656216745e-09 -0.00050024016759117043 5.4741837986178423e-08 -1.5675962266732917e-08 -0.00050024195595392692 -5.0937521584810313e-08 3.0301023285299102e-09 -0.00050024263110856864 5.2838649358938693e-09 3.3952949656216745e-09 -0.00050024016759117043 -7.0334623217789262e-09 4.0877835127017951e-08 -0.00025017992255524526 4.6030561002933708e-09 -1.6842088711726614e-10 -0.00025019722653996329 -4.015933710735115e-08 -5.0915247168079658e-08 -0.00025020398636850142 -1.7767771593188337e-08 -5.5704108924301895e-08 -0.00050024072486093483 -5.0937521584810346e-08 3.0301023285299114e-09 -0.00050024263110856864 4.6030561002933849e-09 -1.6842088711722589e-10 -0.0002501972265399634 1.240193621368141e-08 -4.2730937146350839e-08 -0.00025018016648342212 -1.7767771593188321e-08 -5.5704108924301888e-08 -0.00050024072486093472 5.2838649358938511e-09 3.3952949656216683e-09 -0.00050024016759117043 4.6030561002933849e-09 -1.6842088711722589e-10 -0.0002501972265399634 -1.7767771593188337e-08 -5.5704108924301895e-08 -0.00050024072486093483 -5.0937521584810313e-08 3.0301023285299102e-09 -0.00050024263110856864 5.2838649358938693e-09 3.3952949656216745e-09 -0.00050024016759117043 4.6030561002933849e-09 -1.6842088711722589e-10 -0.0002501972265399634 -5.0937521584810313e-08 3.0301023285299102e-09 -0.00050024263110856864 -1.984167421183431e-08 3.6184649431000149e-08 -0.00050023855144423529 5.2838649358938693e-09 3.3952949656216745e-09 -0.00050024016759117043 -7.0334623217789262e-09 4.0877835127017951e-08 -0.00025017992255524526 -1.984167421183431e-08 3.6184649431000149e-08 -0.00050023855144423529 5.2838649358938693e-09 3.3952949656216745e-09 -0.00050024016759117043 -7.0334623217789262e-09 4.0877835127017951e-08 -0.00025017992255524526 1.2954418918770951e-08 5.6984947565504081e-08 -0.00050024587829834179 5.2838649358938693e-09 3.3952949656216745e-09 -0.00050024016759117043 -7.0334623217789245e-09 4.0877835127017945e-08 -0.00025017992255524526 4.6030561002933849e-09 -1.6842088711722581e-10 -0.0002501972265399634 3.7098420062191112e-08 5.4397749715866267e-08 -0.00025020752047064056 5.2838649358938693e-09 3.3952949656216745e-09 -0.00050024016759117043 -7.0334623217789287e-09 4.0877835127017945e-08 -0.00025017992255524531 1.2954418918770951e-08 5.6984947565504081e-08 -0.00050024587829834179 3.7098420062191118e-08 5.4397749715866267e-08 -0.00025020752047064056 -1.984167421183431e-08 3.6184649431000149e-08 -0.00050023855144423529 -7.0334623217789262e-09 4.0877835127017951e-08 -0.00025017992255524526 1.2954418918770951e-08 5.6984947565504081e-08 -0.00050024587829834179 -5.513298986373383e-10 8.0960185127613561e-08 -0.00025019045557875377 -7.0334623217789262e-09 4.0877835127017951e-08 -0.00025017992255524526 1.2954418918770951e-08 5.6984947565504081e-08 -0.00050024587829834179 3.7098420062191072e-08 5.4397749715866274e-08 -0.00025020752047064056 -5.513298986373383e-10 8.0960185127613561e-08 -0.00025019045557875377 -7.0334623217789262e-09 4.0877835127017951e-08 -0.00025017992255524526 4.6030561002933849e-09 -1.6842088711722589e-10 -0.0002501972265399634 -6.1942158391759712e-09 8.8918302263855114e-09 -6.936177219686973e-08 -5.4684884532647973e-08 1.3877451495744026e-08 -0.0002502048169833896 -7.0334623217789262e-09 4.0877835127017951e-08 -0.00025017992255524526 4.6030561002933849e-09 -1.6842088711722589e-10 -0.0002501972265399634 -6.1942158391759712e-09 8.8918302263855114e-09 -6.936177219686973e-08 3.7098420062191072e-08 5.439774971586628e-08 -0.00025020752047064056 -4.015933710735115e-08 -5.0915247168079658e-08 -0.00025020398636850142 4.6030561002933849e-09 -1.6842088711722589e-10 -0.0002501972265399634 3.7897829452638804e-09 2.5030855877049004e-09 -1.8649049674388379e-07 -5.4684884532647973e-08 1.3877451495744026e-08 -0.0002502048169833896 4.6030561002933849e-09 -1.6842088711722589e-10 -0.0002501972265399634 5.3192690919620619e-08 -2.6644470231555694e-08 -0.00025019539836647066 6.9850464791747116e-08 1.9623098552910995e-08 -0.00025024115399875689 -1.9810293921287251e-08 -1.3053251444378999e-08 -2.5384932637412715e-07 5.7103979706072377e-09 -9.1897553456825958e-09 -7.2571553845100246e-08 1.240193621368141e-08 -4.2730937146350839e-08 -0.00025018016648342212 4.6030561002933849e-09 -1.6842088711722589e-10 -0.0002501972265399634 5.3192690919620619e-08 -2.6644470231555694e-08 -0.00025019539836647066 6.9850464791747116e-08 1.9623098552910995e-08 -0.00025024115399875689 -1.9810293921287251e-08 -1.3053251444378999e-08 -2.5384932637412715e-07 1.0163468604751955e-07 8.614157912578958e-08 -0.0002502573183217356 3.7098420062191072e-08 5.439774971586628e-08 -0.00025020752047064056 4.6030561002933849e-09 -1.6842088711722589e-10 -0.0002501972265399634 6.9850464791747116e-08 1.9623098552910995e-08 -0.00025024115399875689 -1.9810293921287251e-08 -1.3053251444378999e-08 -2.5384932637412715e-07 3.7098420062191072e-08 5.439774971586628e-08 -0.00025020752047064056 4.6030561002933849e-09 -1.6842088711722589e-10 -0.0002501972265399634 -1.9810293921287254e-08 -1.3053251444379019e-08 -2.5384932637409396e-07 3.7098420062191072e-08 5.439774971586628e-08 -0.00025020752047064056 -6.1794005069641065e-10 -1.3447569371600151e-08 -1.8495017483041101e-07 4.6030561002933849e-09 -1.6842088711722589e-10 -0.0002501972265399634 -1.9810293921287241e-08 -1.3053251444378998e-08 -2.5384932637418035e-07 3.7897829452638804e-09 2.5030855877049012e-09 -1.8649049674389699e-07 -6.1794005069641706e-10 -1.3447569371600159e-08 -1.8495017483039759e-07 5.3192690919620619e-08 -2.6644470231555694e-08 -0.00025019539836647066 -1.9810293921287261e-08 -1.3053251444379001e-08 -2.538493263741064e-07 -1.260105665391406e-08 4.7781304753361386e-09 -1.7697880110779202e-07 3.7897829452638738e-09 2.5030855877048996e-09 -1.8649049674388381e-07 5.7103979706072377e-09 -9.1897553456825958e-09 -7.2571553845100246e-08 4.6030561002933849e-09 -1.6842088711722589e-10 -0.0002501972265399634 5.3192690919620619e-08 -2.6644470231555694e-08 -0.00025019539836647066 3.7897829452638804e-09 2.5030855877049004e-09 -1.8649049674388379e-07 4.6030561002933849e-09 -1.6842088711722589e-10 -0.0002501972265399634 5.3192690919620619e-08 -2.6644470231555694e-08 -0.00025019539836647066 -1.9810293921287251e-08 -1.3053251444378999e-08 -2.5384932637412715e-07 3.7897829452638804e-09 2.5030855877049004e-09 -1.8649049674388379e-07 5.7103979706072377e-09 -9.1897553456825958e-09 -7.2571553845100246e-08 5.3192690919620619e-08 -2.6644470231555694e-08 -0.00025019539836647066 -1.260105665391406e-08 4.7781304753361386e-09 -1.7697880110779202e-07 3.7897829452638804e-09 2.5030855877049004e-09 -1.8649049674388379e-07 -2.6317451100498886e-09 1.1332127652521482e-08 -2.1468367025489584e-07 -4.015933710735115e-08 -5.0915247168079658e-08 -0.00025020398636850142 3.7897829452638804e-09 2.5030855877049004e-09 -1.8649049674388379e-07 -5.4684884532647992e-08 1.387745149574407e-08 -0.0002502048169833896 4.6030561002933849e-09 -1.6842088711722589e-10 -0.0002501972265399634 3.7897829452638804e-09 2.5030855877049004e-09 -1.8649049674388379e-07 -6.1942158391759712e-09 8.8918302263855114e-09 -6.936177219686973e-08 -5.4684884532647973e-08 1.3877451495744026e-08 -0.0002502048169833896 5.7103979706072377e-09 -9.1897553456825958e-09 -7.2571553845100246e-08 -4.0159337107351117e-08 -5.0915247168079639e-08 -0.00025020398636850142 4.6030561002933584e-09 -1.684208871172474e-10 -0.0002501972265399634 3.7897829452638804e-09 2.5030855877049004e-09 -1.8649049674388379e-07 4.6030561002933849e-09 -1.6842088711722589e-10 -0.0002501972265399634 -6.1942158391759629e-09 8.8918302263855213e-09 -6.9361772196940748e-08 3.7098420062191072e-08 5.439774971586628e-08 -0.00025020752047064056 -6.1794005069641654e-10 -1.344756937160021e-08 -1.8495017483039714e-07 -6.1942158391759712e-09 8.8918302263855114e-09 -6.936177219686973e-08 3.7098420062191072e-08 5.439774971586628e-08 -0.00025020752047064056 5.4298364953143656e-09 -1.6140605284007132e-08 -8.8469820569969231e-08 -6.1794005069640858e-10 -1.3447569371600161e-08 -1.8495017483039756e-07 -7.0334623217789262e-09 4.0877835127017951e-08 -0.00025017992255524526 -6.1942158391759712e-09 8.8918302263855114e-09 -6.936177219686973e-08 3.7098420062191072e-08 5.439774971586628e-08 -0.00025020752047064056 5.4298364953143656e-09 -1.6140605284007135e-08 -8.846982056996444e-08 4.6030561002933849e-09 -1.6842088711722589e-10 -0.0002501972265399634 3.7897829452638804e-09 2.5030855877049004e-09 -1.8649049674388379e-07 -6.1942158391759745e-09 8.8918302263855279e-09 -6.936177219682174e-08 -6.1794005069639928e-10 -1.3447569371600179e-08 -1.8495017483039772e-07 -7.0334623217789262e-09 4.0877835127017951e-08 -0.00025017992255524526 -6.1942158391759712e-09 8.8918302263855114e-09 -6.936177219686973e-08 1.3274554016526844e-08 -1.103283514383857e-08 -1.0743404602659415e-07 -5.4684884532647973e-08 1.3877451495744026e-08 -0.0002502048169833896 -6.1942158391759712e-09 8.8918302263855114e-09 -6.936177219686973e-08 1.3274554016526844e-08 -1.103283514383857e-08 -1.0743404602659415e-07 -5.4684884532647973e-08 1.3877451495744023e-08 -0.0002502048169833896 9.3687453943132451e-09 -6.9492346453409212e-09 -2.3280771468837383e-07 1.3274554016526844e-08 -1.103283514383857e-08 -1.0743404602659415e-07 -5.4684884532647973e-08 1.3877451495744026e-08 -0.0002502048169833896 9.3687453943132451e-09 -6.9492346453409212e-09 -2.3280771468837383e-07 -8.5148372241161982e-08 1.0636626093887662e-07 -0.000250225533555869 -7.0334623217789262e-09 4.0877835127017951e-08 -0.00025017992255524526 -6.1942158391759712e-09 8.8918302263855114e-09 -6.936177219686973e-08 1.3274554016526844e-08 -1.103283514383857e-08 -1.0743404602659415e-07 5.4298364953143656e-09 -1.6140605284007135e-08 -8.846982056996444e-08 -7.0334623217789262e-09 4.0877835127017951e-08 -0.00025017992255524526 1.3274554016526839e-08 -1.1032835143838561e-08 -1.0743404602659415e-07 -3.577821238520514e-08 6.6277975391746407e-08 -0.00025019369346824003 -5.4684884532647973e-08 1.3877451495744026e-08 -0.0002502048169833896 1.3274554016526844e-08 -1.103283514383857e-08 -1.0743404602659415e-07 -3.577821238520514e-08 6.6277975391746407e-08 -0.00025019369346824003 -5.4684884532647973e-08 1.3877451495744026e-08 -0.0002502048169833896 -8.5148372241161982e-08 1.0636626093887662e-07 -0.000250225533555869 -7.0334623217789262e-09 4.0877835127017951e-08 -0.00025017992255524526 1.3274554016526832e-08 -1.1032835143838568e-08 -1.0743404602659415e-07 -3.577821238520514e-08 6.6277975391746407e-08 -0.00025019369346824003 -5.513298986373383e-10 8.0960185127613561e-08 -0.00025019045557875377 2.4515318281127734e-08 1.6152693514367997e-08 -1.8749941580290587e-07 -2.6317451100498886e-09 1.1332127652521482e-08 -2.1468367025489584e-07 -5.4684884532647973e-08 1.3877451495744026e-08 -0.0002502048169833896 9.3687453943132451e-09 -6.9492346453409212e-09 -2.3280771468837383e-07 3.7897829452638804e-09 2.5030855877049004e-09 -1.8649049674388379e-07 -6.1942158391759712e-09 8.8918302263855114e-09 -6.936177219686973e-08 -5.4684884532647973e-08 1.3877451495744029e-08 -0.0002502048169833896 9.3687453943132451e-09 -6.9492346453409212e-09 -2.3280771468837383e-07 -2.6317451100498886e-09 1.1332127652521482e-08 -2.1468367025489584e-07 3.7897829452638804e-09 2.5030855877049004e-09 -1.8649049674388379e-07 -5.4684884532647999e-08 1.3877451495744034e-08 -0.0002502048169833897 9.3687453943132451e-09 -6.9492346453409212e-09 -2.3280771468837383e-07 -1.3343361719204994e-07 -1.9517227570369499e-08 -0.00025021885772636663 2.4515318281127681e-08 1.6152693514367924e-08 -1.8749941580285459e-07 -5.2296042368208955e-08 -4.371420642773775e-09 -2.4535996119937937e-07 -1.2759872034929743e-07 4.9916617705406904e-08 -0.00025023836325347511 2.4515318281127734e-08 1.6152693514367997e-08 -1.8749941580290587e-07 -5.4684884532647999e-08 1.3877451495744031e-08 -0.0002502048169833896 9.3687453943132451e-09 -6.9492346453409212e-09 -2.3280771468837383e-07 -1.2759872034929743e-07 4.9916617705406904e-08 -0.00025023836325347511 2.4515318281127734e-08 1.6152693514367997e-08 -1.8749941580290587e-07 9.3687453943132451e-09 -6.9492346453409212e-09 -2.3280771468837383e-07 -5.2296042368208975e-08 -4.3714206427737799e-09 -2.4535996119940711e-07 -1.2759872034929743e-07 4.9916617705406904e-08 -0.00025023836325347511 2.4515318281127734e-08 1.6152693514367997e-08 -1.8749941580290587e-07 -8.4336777566555544e-08 -2.3213279994182006e-08 -0.00025021818895147526 -5.4684884532647979e-08 1.3877451495744027e-08 -0.0002502048169833896 -1.2759872034929743e-07 4.9916617705406904e-08 -0.00025023836325347511 -5.4684884532647973e-08 1.3877451495744026e-08 -0.0002502048169833896 9.3687453943132451e-09 -6.9492346453409212e-09 -2.3280771468837383e-07 -1.2759872034929743e-07 4.9916617705406904e-08 -0.00025023836325347511 -8.5148372241161982e-08 1.0636626093887662e-07 -0.000250225533555869 9.3687453943132451e-09 -6.9492346453409212e-09 -2.3280771468837383e-07 -5.2296042368208975e-08 -4.3714206427737799e-09 -2.4535996119940711e-07 -1.2759872034929743e-07 4.9916617705406904e-08 -0.00025023836325347511 -4.648417501961011e-08 2.5656669308036362e-08 -2.4541158506076525e-07 9.3687453943132451e-09 -6.9492346453409212e-09 -2.3280771468837383e-07 -1.2759872034929743e-07 4.9916617705406904e-08 -0.00025023836325347511 -8.5148372241161968e-08 1.0636626093887664e-07 -0.00025022553355586905 -4.648417501961011e-08 2.5656669308036362e-08 -2.4541158506076525e-07 1.3274554016526844e-08 -1.103283514383857e-08 -1.0743404602659415e-07 9.3687453943132451e-09 -6.9492346453409212e-09 -2.3280771468837383e-07 -8.5148372241161982e-08 1.0636626093887662e-07 -0.00025022553355586894 -4.648417501961011e-08 2.5656669308036362e-08 -2.4541158506076525e-07 1.3274554016526844e-08 -1.103283514383857e-08 -1.0743404602659415e-07 -8.5148372241161982e-08 1.0636626093887662e-07 -0.00025022553355586894 -4.648417501961011e-08 2.5656669308036362e-08 -2.4541158506076525e-07 -2.9779779262788923e-08 4.455455144259381e-08 -1.4612565325000305e-07 -7.0334623217789262e-09 4.0877835127017951e-08 -0.00025017992255524526 1.3274554016526834e-08 -1.1032835143838623e-08 -1.0743404602651786e-07 -5.5132989863733757e-10 8.0960185127613561e-08 -0.00025019045557875377 5.4298364953143656e-09 -1.6140605284007135e-08 -8.846982056996444e-08 1.3274554016526844e-08 -1.103283514383857e-08 -1.0743404602659415e-07 -8.5148372241162021e-08 1.063662609388766e-07 -0.00025022553355586894 -2.9779779262788923e-08 4.455455144259381e-08 -1.4612565325000305e-07 -1.9503424205964295e-08 1.3539516912356054e-07 -0.00025020222895551258 1.3274554016526844e-08 -1.103283514383857e-08 -1.0743404602659415e-07 -2.9779779262788923e-08 4.4554551442593816e-08 -1.4612565325001539e-07 -1.9503424205964362e-08 1.3539516912356057e-07 -0.00025020222895551258 5.4298364953143656e-09 -1.6140605284007135e-08 -8.846982056996444e-08 1.3274554016526844e-08 -1.103283514383857e-08 -1.0743404602659415e-07 -1.9503424205964362e-08 1.3539516912356057e-07 -0.00025020222895551258 -5.5132989863733778e-10 8.0960185127613561e-08 -0.00025019045557875377 5.4298364953143656e-09 -1.6140605284007135e-08 -8.846982056996444e-08 -2.9779779262788923e-08 4.455455144259381e-08 -1.4612565325000305e-07 -1.9503424205964362e-08 1.3539516912356057e-07 -0.00025020222895551258 5.4298364953143697e-09 -1.6140605284007151e-08 -8.8469820569964413e-08 -3.9995647695067408e-09 5.3151283018428901e-08 -2.0220332804928122e-07 1.3274554016526844e-08 -1.103283514383857e-08 -1.0743404602659415e-07 -3.577821238520514e-08 6.6277975391746407e-08 -0.00025019369346824003 -1.9503424205964368e-08 1.3539516912356059e-07 -0.00025020222895551258 -5.513298986373383e-10 8.0960185127613561e-08 -0.00025019045557875377 1.3274554016526844e-08 -1.103283514383857e-08 -1.0743404602659415e-07 -3.577821238520514e-08 6.6277975391746407e-08 -0.00025019369346824003 -8.5148372241161982e-08 1.0636626093887658e-07 -0.000250225533555869 -1.9503424205964335e-08 1.3539516912356057e-07 -0.00025020222895551258 -1.0132644689712483e-07 4.316407603506044e-08 -0.0005002481293266914 -3.577821238520514e-08 6.6277975391746407e-08 -0.00025019369346824003 -8.5148372241161982e-08 1.0636626093887662e-07 -0.000250225533555869 -1.9503424205964362e-08 1.3539516912356057e-07 -0.00025020222895551258 -1.9503424205964362e-08 1.3539516912356057e-07 -0.00025020222895551258 -6.6338917853982058e-08 8.7950515018279162e-08 -0.00050024100603629246 5.2027478264873734e-08 1.2723520115207063e-07 -0.00025022351526651743 -5.513298986373383e-10 8.0960185127613561e-08 -0.00025019045557875377 -1.984167421183431e-08 3.6184649431000149e-08 -0.00050023855144423529 -3.5778212385205087e-08 6.6277975391746407e-08 -0.00025019369346823998 -2.5388025849861902e-08 6.9262899321620892e-08 -0.00050024057870222286 -5.513298986373383e-10 8.0960185127613561e-08 -0.00025019045557875377 -1.0132644689712483e-07 4.316407603506044e-08 -0.0005002481293266914 -3.5778212385205133e-08 6.6277975391746407e-08 -0.00025019369346823998 -1.9503424205964362e-08 1.3539516912356057e-07 -0.00025020222895551258 -6.6338917853982058e-08 8.7950515018279162e-08 -0.00050024100603629246 -1.0132644689712483e-07 4.316407603506044e-08 -0.0005002481293266914 -5.1292106952046617e-08 5.0051992100312015e-08 -0.00050023974058978945 -3.577821238520514e-08 6.6277975391746407e-08 -0.00025019369346824003 -6.6338917853982058e-08 8.7950515018279162e-08 -0.00050024100603629246 -5.1292106952046617e-08 5.0051992100312015e-08 -0.00050023974058978945 -3.577821238520514e-08 6.6277975391746407e-08 -0.00025019369346824003 -6.6338917853982058e-08 8.7950515018279162e-08 -0.00050024100603629246 -2.5388025849861895e-08 6.9262899321620892e-08 -0.00050024057870222275 -3.577821238520514e-08 6.6277975391746407e-08 -0.00025019369346824003 -1.9503424205964362e-08 1.3539516912356057e-07 -0.00025020222895551258 -6.6338917853982058e-08 8.7950515018279162e-08 -0.00050024100603629246 -5.513298986373383e-10 8.0960185127613561e-08 -0.00025019045557875377 -3.577821238520514e-08 6.6277975391746407e-08 -0.00025019369346824003 -6.6338917853982058e-08 8.7950515018279175e-08 -0.00050024100603629246 -2.5388025849861898e-08 6.9262899321620892e-08 -0.00050024057870222275 -5.513298986373383e-10 8.0960185127613561e-08 -0.00025019045557875377 -6.6338917853982058e-08 8.7950515018279162e-08 -0.00050024100603629246 -1.3462379924247344e-08 1.0928001149953107e-07 -0.00050025033566618977 -2.5388025849861895e-08 6.9262899321620892e-08 -0.00050024057870222275 -5.4065310006217712e-08 9.7720723258295199e-08 -0.00075027602416003988 -5.1292106952046617e-08 5.0051992100312015e-08 -0.00050023974058978945 -6.6338917853982058e-08 8.7950515018279162e-08 -0.00050024100603629246 -2.5388025849861895e-08 6.9262899321620892e-08 -0.00050024057870222275 -5.4065310006217712e-08 9.7720723258295199e-08 -0.00075027602416003988 -1.0132644689712483e-07 4.316407603506044e-08 -0.0005002481293266914 -5.1292106952046617e-08 5.0051992100312015e-08 -0.00050023974058978945 -6.6338917853982058e-08 8.7950515018279162e-08 -0.00050024100603629246 -9.5745814794412087e-08 5.7468738857236557e-08 -0.00075027817874581118 -6.6338917853982058e-08 8.7950515018279162e-08 -0.00050024100603629246 -1.3462379924247341e-08 1.0928001149953107e-07 -0.00050025033566618977 5.2027478264873721e-08 1.2723520115207063e-07 -0.00025022351526651743 -5.513298986373383e-10 8.0960185127613561e-08 -0.00025019045557875377 -1.3462379924247348e-08 1.0928001149953106e-07 -0.00050025033566618977 4.487833266693477e-08 1.0091034420036358e-07 -0.00050026550164603727 1.2954418918770951e-08 5.6984947565504081e-08 -0.00050024587829834179 1.9986678821565758e-09 1.1165787185997519e-07 -0.00075027967206982423 5.724676900785744e-08 3.4703900529485813e-08 -0.0005002557259795019 4.4878332666934777e-08 1.0091034420036358e-07 -0.00050026550164603727 1.2954418918770951e-08 5.6984947565504081e-08 -0.00050024587829834179 5.7208157090135289e-08 9.5797191623076072e-08 -0.00075028561194401028 -1.3462379924247348e-08 1.0928001149953106e-07 -0.00050025033566618977 1.2954418918770951e-08 5.6984947565504081e-08 -0.00050024587829834179 -2.5388025849861895e-08 6.9262899321620892e-08 -0.00050024057870222275 1.9986678821565758e-09 1.1165787185997519e-07 -0.00075027967206982423 -1.984167421183431e-08 3.6184649431000149e-08 -0.00050023855144423529 1.2954418918770951e-08 5.6984947565504081e-08 -0.00050024587829834179 -2.5388025849861895e-08 6.9262899321620892e-08 -0.00050024057870222275 -5.513298986373383e-10 8.0960185127613561e-08 -0.00025019045557875377 -1.3462379924247348e-08 1.0928001149953106e-07 -0.00050025033566618977 1.2954418918770951e-08 5.6984947565504081e-08 -0.00050024587829834179 3.7098420062191072e-08 5.439774971586628e-08 -0.00025020752047064056 -5.513298986373383e-10 8.0960185127613561e-08 -0.00025019045557875377 -1.3462379924247348e-08 1.0928001149953106e-07 -0.00050025033566618977 5.2027478264873721e-08 1.2723520115207063e-07 -0.00025022351526651743 3.7098420062191072e-08 5.439774971586628e-08 -0.00025020752047064056 -5.513298986373383e-10 8.0960185127613561e-08 -0.00025019045557875377 -6.6338917853982058e-08 8.7950515018279162e-08 -0.00050024100603629246 -1.3462379924247344e-08 1.0928001149953107e-07 -0.00050025033566618977 -2.5388025849861895e-08 6.9262899321620892e-08 -0.00050024057870222275 -5.513298986373383e-10 8.0960185127613561e-08 -0.00025019045557875377 -1.3462379924247348e-08 1.0928001149953106e-07 -0.00050025033566618977 1.2954418918770951e-08 5.6984947565504081e-08 -0.00050024587829834179 -2.5388025849861895e-08 6.9262899321620892e-08 -0.00050024057870222275 -5.513298986373383e-10 8.0960185127613561e-08 -0.00025019045557875377 6.9850464791747116e-08 1.9623098552910995e-08 -0.00025024115399875689 4.487833266693477e-08 1.0091034420036358e-07 -0.00050026550164603727 1.0163468604751954e-07 8.614157912578958e-08 -0.0002502573183217356 3.7098420062191072e-08 5.439774971586628e-08 -0.00025020752047064056 -1.3462379924247348e-08 1.0928001149953106e-07 -0.00050025033566618977 4.487833266693477e-08 1.0091034420036358e-07 -0.00050026550164603727 1.2954418918770951e-08 5.6984947565504081e-08 -0.00050024587829834179 3.7098420062191072e-08 5.439774971586628e-08 -0.00025020752047064056 -1.3462379924247348e-08 1.0928001149953106e-07 -0.00050025033566618977 1.0163468604751951e-07 8.6141579125789567e-08 -0.00025025731832173566 5.2027478264873708e-08 1.2723520115207063e-07 -0.00025022351526651749 3.7098420062191072e-08 5.439774971586628e-08 -0.00025020752047064056 -1.3462379924247348e-08 1.0928001149953106e-07 -0.00050025033566618977 4.487833266693477e-08 1.0091034420036358e-07 -0.00050026550164603727 1.0163468604751952e-07 8.6141579125789554e-08 -0.00025025731832173566 3.7098420062191072e-08 5.439774971586628e-08 -0.00025020752047064056 6.9850464791747116e-08 1.9623098552910995e-08 -0.00025024115399875689 4.4878332666934777e-08 1.009103442003636e-07 -0.00050026550164603727 1.2954418918770952e-08 5.6984947565504081e-08 -0.00050024587829834168 3.7098420062191072e-08 5.439774971586628e-08 -0.00025020752047064056 1.0163468604751954e-07 8.614157912578958e-08 -0.0002502573183217356 5.2027478264873721e-08 1.2723520115207063e-07 -0.00025022351526651743 3.7098420062191072e-08 5.439774971586628e-08 -0.00025020752047064056 -6.1794005069642533e-10 -1.3447569371600189e-08 -1.8495017483028167e-07 -1.9503424205964362e-08 1.3539516912356057e-07 -0.00025020222895551258 5.2027478264873734e-08 1.2723520115207063e-07 -0.00025022351526651743 -5.513298986373383e-10 8.0960185127613561e-08 -0.00025019045557875377 5.4298364953143656e-09 -1.6140605284007135e-08 -8.846982056996444e-08 -7.0334623217789262e-09 4.0877835127017951e-08 -0.00025017992255524526 3.7098420062191072e-08 5.439774971586628e-08 -0.00025020752047064056 -5.513298986373383e-10 8.0960185127613561e-08 -0.00025019045557875377 5.4298364953143656e-09 -1.6140605284007135e-08 -8.846982056996444e-08 5.2027478264873721e-08 1.2723520115207063e-07 -0.00025022351526651743 3.7098420062191072e-08 5.439774971586628e-08 -0.00025020752047064056 -5.513298986373383e-10 8.0960185127613561e-08 -0.00025019045557875377 5.4298364953143656e-09 -1.6140605284007135e-08 -8.846982056996444e-08 5.2027478264873721e-08 1.2723520115207063e-07 -0.00025022351526651743 3.7098420062191072e-08 5.439774971586628e-08 -0.00025020752047064056 5.4298364953143656e-09 -1.6140605284007135e-08 -8.846982056996444e-08 -6.1794005069640858e-10 -1.3447569371600161e-08 -1.8495017483039756e-07 5.2027478264873721e-08 1.2723520115207063e-07 -0.00025022351526651743 5.4298364953143656e-09 -1.6140605284007135e-08 -8.846982056996444e-08 -6.1794005069640858e-10 -1.3447569371600161e-08 -1.8495017483039756e-07 -3.9995647695067408e-09 5.3151283018428901e-08 -2.0220332804928122e-07 -1.9503424205964362e-08 1.3539516912356057e-07 -0.00025020222895551258 5.2027478264873714e-08 1.2723520115207063e-07 -0.00025022351526651743 5.4298364953143656e-09 -1.6140605284007135e-08 -8.846982056996444e-08 -3.9995647695067408e-09 5.3151283018428901e-08 -2.0220332804928122e-07 1.0163468604751954e-07 8.614157912578958e-08 -0.0002502573183217356 5.2027478264873721e-08 1.2723520115207063e-07 -0.00025022351526651743 -6.1794005069641055e-10 -1.3447569371600217e-08 -1.8495017483037749e-07 2.4287446023185907e-08 4.6341703851332057e-08 -2.7341330834563269e-07 -1.9810293921287251e-08 -1.3053251444378999e-08 -2.5384932637412715e-07 1.0163468604751956e-07 8.6141579125789593e-08 -0.0002502573183217356 3.7098420062191065e-08 5.4397749715866274e-08 -0.0002502075204706405 -6.1794005069640858e-10 -1.3447569371600161e-08 -1.8495017483039756e-07 -1.9810293921287251e-08 -1.3053251444378999e-08 -2.5384932637412715e-07 1.0163468604751954e-07 8.614157912578958e-08 -0.0002502573183217356 -6.1794005069640858e-10 -1.3447569371600161e-08 -1.8495017483039756e-07 2.4287446023185907e-08 4.6341703851332057e-08 -2.7341330834563269e-07 5.2027478264873721e-08 1.2723520115207063e-07 -0.00025022351526651743 -6.1794005069640124e-10 -1.3447569371600157e-08 -1.8495017483039229e-07 -3.9995647695067408e-09 5.3151283018428901e-08 -2.0220332804928122e-07 2.42874460231859e-08 4.6341703851332057e-08 -2.7341330834563263e-07 -1.9810293921287251e-08 -1.3053251444378999e-08 -2.5384932637412715e-07 1.0163468604751954e-07 8.614157912578958e-08 -0.0002502573183217356 5.3715554633428913e-08 3.4992239112328063e-08 -1.8640962796957999e-07 1.3377332352757121e-07 1.929244617129833e-08 -0.00025024721366047927 -1.9810293921287251e-08 -1.3053251444378999e-08 -2.5384932637412715e-07 1.0163468604751955e-07 8.614157912578958e-08 -0.0002502573183217356 2.4287446023185907e-08 4.6341703851332057e-08 -2.7341330834563269e-07 5.3715554633428913e-08 3.4992239112328063e-08 -1.8640962796957999e-07 6.9850464791747116e-08 1.9623098552910995e-08 -0.00025024115399875689 4.4878332666934777e-08 1.0091034420036358e-07 -0.00050026550164603727 1.3377332352757121e-07 1.929244617129833e-08 -0.00025024721366047927 8.7884208171792028e-08 6.6381716470496038e-08 -0.00050026243849449214 6.9850464791747116e-08 1.9623098552910995e-08 -0.00025024115399875689 4.4878332666934777e-08 1.0091034420036358e-07 -0.00050026550164603727 1.0163468604751954e-07 8.614157912578958e-08 -0.0002502573183217356 1.3377332352757121e-07 1.929244617129833e-08 -0.00025024721366047927 5.724676900785744e-08 3.4703900529485813e-08 -0.0005002557259795019 4.487833266693477e-08 1.0091034420036358e-07 -0.00050026550164603727 8.7884208171792028e-08 6.6381716470496038e-08 -0.00050026243849449214 5.7208157090135289e-08 9.5797191623076072e-08 -0.00075028561194401028 -1.2701597484612498e-08 1.131499676403669e-08 -9.8543760335473846e-08 2.9118624754217188e-08 -4.4973803610685757e-08 -1.3795280721346523e-07 1.9424279989004228e-08 -1.3542571034450274e-07 -0.00025019745817874366 8.4821239333416265e-08 -1.0696128576888049e-07 -0.00025021793069617487 -1.2701597484612498e-08 1.131499676403669e-08 -9.8543760335473846e-08 3.6405840529932813e-08 -7.0376829193214751e-08 -0.00025018848937156263 1.9424279989004228e-08 -1.3542571034450274e-07 -0.00025019745817874366 8.4821239333416265e-08 -1.0696128576888049e-07 -0.00025021793069617487 -1.2701597484612498e-08 1.131499676403669e-08 -9.8543760335473846e-08 3.6405840529932813e-08 -7.0376829193214751e-08 -0.00025018848937156263 5.3192690919620619e-08 -2.6644470231555694e-08 -0.00025019539836647066 8.4821239333416265e-08 -1.0696128576888049e-07 -0.00025021793069617487 -1.2701597484612498e-08 1.131499676403669e-08 -9.8543760335473846e-08 2.9118624754217188e-08 -4.4973803610685757e-08 -1.3795280721346523e-07 8.4821239333416265e-08 -1.0696128576888049e-07 -0.00025021793069617487 4.7289755466153359e-08 -2.4815515105250494e-08 -2.0212896809120177e-07 -1.2701597484612498e-08 1.131499676403669e-08 -9.8543760335473846e-08 5.3192690919620619e-08 -2.6644470231555694e-08 -0.00025019539836647066 -1.260105665391406e-08 4.7781304753361386e-09 -1.7697880110779202e-07 8.4821239333416265e-08 -1.0696128576888049e-07 -0.00025021793069617487 -1.2701597484612498e-08 1.131499676403669e-08 -9.8543760335473846e-08 -1.260105665391406e-08 4.7781304753361386e-09 -1.7697880110779202e-07 8.4821239333416265e-08 -1.0696128576888049e-07 -0.00025021793069617487 4.7289755466153359e-08 -2.4815515105250494e-08 -2.0212896809120177e-07 -1.260105665391406e-08 4.7781304753361386e-09 -1.7697880110779202e-07 8.4821239333416251e-08 -1.069612857688805e-07 -0.00025021793069617492 4.7289755466153359e-08 -2.4815515105250494e-08 -2.0212896809120177e-07 1.275189035732267e-07 -4.9479691803326167e-08 -0.00025025247188233428 -1.260105665391406e-08 4.7781304753361386e-09 -1.7697880110779202e-07 4.7289755466153359e-08 -2.4815515105250494e-08 -2.0212896809120177e-07 5.2083112101520545e-08 4.0616413748397177e-09 -2.7385055385585006e-07 1.275189035732267e-07 -4.9479691803326187e-08 -0.00025025247188233433 -1.9810293921287251e-08 -1.3053251444378999e-08 -2.5384932637412715e-07 -1.260105665391406e-08 4.7781304753361386e-09 -1.7697880110779202e-07 5.2083112101520551e-08 4.0616413748397119e-09 -2.7385055385587473e-07 1.2751890357322667e-07 -4.9479691803326167e-08 -0.00025025247188233422 5.3192690919620619e-08 -2.6644470231555694e-08 -0.00025019539836647066 -1.9810293921287251e-08 -1.3053251444378999e-08 -2.5384932637412715e-07 -1.260105665391406e-08 4.7781304753361386e-09 -1.7697880110779202e-07 1.2751890357322667e-07 -4.9479691803326167e-08 -0.00025025247188233422 -1.9810293921287251e-08 -1.3053251444378999e-08 -2.5384932637412715e-07 5.3715554633428913e-08 3.4992239112328063e-08 -1.8640962796957999e-07 1.3377332352757121e-07 1.929244617129833e-08 -0.00025024721366047927 5.2083112101520545e-08 4.0616413748397177e-09 -2.7385055385585006e-07 -1.9810293921287251e-08 -1.3053251444378999e-08 -2.5384932637412715e-07 1.3377332352757121e-07 1.9292446171298231e-08 -0.00025024721366047938 5.2083112101520545e-08 4.0616413748397177e-09 -2.7385055385585006e-07 1.275189035732267e-07 -4.9479691803326114e-08 -0.00025025247188233422 6.9850464791747116e-08 1.9623098552910995e-08 -0.00025024115399875689 -1.9810293921287251e-08 -1.3053251444378999e-08 -2.5384932637412715e-07 1.0163468604751954e-07 8.614157912578958e-08 -0.0002502573183217356 1.3377332352757121e-07 1.929244617129833e-08 -0.00025024721366047927 6.9850464791747116e-08 1.9623098552910995e-08 -0.00025024115399875689 -1.9810293921287251e-08 -1.3053251444378999e-08 -2.5384932637412715e-07 1.3377332352757121e-07 1.929244617129833e-08 -0.00025024721366047927 1.2751890357322667e-07 -4.9479691803326167e-08 -0.00025025247188233422 5.3192690919620619e-08 -2.6644470231555694e-08 -0.00025019539836647066 -1.260105665391406e-08 4.7781304753361386e-09 -1.7697880110779202e-07 8.4821239333416265e-08 -1.0696128576888049e-07 -0.00025021793069617487 1.2751890357322667e-07 -4.9479691803326167e-08 -0.00025025247188233422 5.3192690919620619e-08 -2.6644470231555694e-08 -0.00025019539836647066 6.9850464791747116e-08 1.9623098552910995e-08 -0.00025024115399875689 -1.9810293921287251e-08 -1.3053251444378999e-08 -2.5384932637412715e-07 1.2751890357322667e-07 -4.9479691803326167e-08 -0.00025025247188233422 5.4741837986178423e-08 -1.5675962266732917e-08 -0.00050024195595392692 5.3192690919620619e-08 -2.6644470231555694e-08 -0.00025019539836647066 1.0922076999610002e-07 1.3357640156441166e-08 -0.00050026176480624785 1.0146920622276011e-07 -4.2926813064825041e-08 -0.00050024698011487216 5.3192690919620619e-08 -2.6644470231555694e-08 -0.00025019539836647066 8.4821239333416265e-08 -1.0696128576888049e-07 -0.00025021793069617487 1.2751890357322667e-07 -4.9479691803326167e-08 -0.00025025247188233422 1.092207699961e-07 1.3357640156441197e-08 -0.00050026176480624795 5.4741837986178423e-08 -1.5675962266732917e-08 -0.00050024195595392692 5.3192690919620619e-08 -2.6644470231555694e-08 -0.00025019539836647066 6.9850464791747116e-08 1.9623098552910995e-08 -0.00025024115399875689 1.0922076999610002e-07 1.3357640156441166e-08 -0.00050026176480624785 5.4741837986178423e-08 -1.5675962266732917e-08 -0.00050024195595392692 5.724676900785744e-08 3.4703900529485813e-08 -0.0005002557259795019 6.9850464791747116e-08 1.9623098552910995e-08 -0.00025024115399875689 1.0922076999610002e-07 1.3357640156441166e-08 -0.00050026176480624785 5.3192690919620619e-08 -2.6644470231555694e-08 -0.00025019539836647066 6.9850464791747116e-08 1.9623098552910995e-08 -0.00025024115399875689 1.2751890357322667e-07 -4.9479691803326167e-08 -0.00025025247188233422 1.0922076999610002e-07 1.3357640156441192e-08 -0.00050026176480624795 5.724676900785744e-08 3.4703900529485813e-08 -0.0005002557259795019 6.9850464791747116e-08 1.9623098552910995e-08 -0.00025024115399875689 4.487833266693477e-08 1.0091034420036358e-07 -0.00050026550164603727 8.7884208171792028e-08 6.6381716470496038e-08 -0.00050026243849449214 6.9850464791747116e-08 1.9623098552910995e-08 -0.00025024115399875689 8.7884208171792001e-08 6.6381716470496051e-08 -0.00050026243849449225 1.2751890357322667e-07 -4.9479691803326167e-08 -0.00025025247188233422 1.0922076999610003e-07 1.3357640156441181e-08 -0.00050026176480624785 6.9850464791747116e-08 1.9623098552910995e-08 -0.00025024115399875689 1.3377332352757121e-07 1.929244617129833e-08 -0.00025024721366047927 8.7884208171792028e-08 6.6381716470496038e-08 -0.00050026243849449214 1.2751890357322667e-07 -4.9479691803326167e-08 -0.00025025247188233422 5.724676900785744e-08 3.4703900529485813e-08 -0.0005002557259795019 6.9850464791747116e-08 1.9623098552910995e-08 -0.00025024115399875689 8.7884208171792028e-08 6.6381716470496038e-08 -0.00050026243849449214 1.0922076999610002e-07 1.3357640156441166e-08 -0.00050026176480624785 5.724676900785744e-08 3.4703900529485813e-08 -0.0005002557259795019 8.7884208171792028e-08 6.6381716470496038e-08 -0.00050026243849449214 1.0922076999610002e-07 1.3357640156441166e-08 -0.00050026176480624785 9.7731237967317796e-08 5.4132855001621932e-08 -0.00075028440438965104 5.4741837986178423e-08 -1.5675962266732917e-08 -0.00050024195595392692 1.0922076999610002e-07 1.3357640156441166e-08 -0.00050026176480624785 1.0146920622276011e-07 -4.2926813064825041e-08 -0.00050024698011487216 1.1166295684255033e-07 -1.8628719021576816e-09 -0.00075028406831708641 5.4741837986178423e-08 -1.5675962266732917e-08 -0.00050024195595392692 5.724676900785744e-08 3.4703900529485813e-08 -0.0005002557259795019 1.0922076999610002e-07 1.3357640156441166e-08 -0.00050026176480624785 1.1166295684255034e-07 -1.8628719021576803e-09 -0.00075028406831708641 5.1807451634865326e-08 -5.3010039954965034e-08 -0.00050023741979403401 5.4741837986178423e-08 -1.5675962266732917e-08 -0.00050024195595392692 1.0146920622276011e-07 -4.2926813064825041e-08 -0.00050024698011487216 9.5731872562625487e-08 -5.7487923288223372e-08 -0.00075027839911505129 5.1807451634865326e-08 -5.3010039954965034e-08 -0.00050023741979403401 1.0146920622276011e-07 -4.2926813064825041e-08 -0.00050024698011487216 6.6420897493244259e-08 -8.7910750964997643e-08 -0.00050023805240371089 9.5731872562625487e-08 -5.7487923288223372e-08 -0.00075027839911505129 3.6405840529932813e-08 -7.0376829193214751e-08 -0.00025018848937156263 5.3192690919620619e-08 -2.6644470231555694e-08 -0.00025019539836647066 8.4821239333416265e-08 -1.0696128576888049e-07 -0.00025021793069617487 1.0146920622276011e-07 -4.2926813064825041e-08 -0.00050024698011487216 3.6405840529932813e-08 -7.0376829193214751e-08 -0.00025018848937156263 5.1807451634865326e-08 -5.3010039954965034e-08 -0.00050023741979403401 5.4741837986178423e-08 -1.5675962266732917e-08 -0.00050024195595392692 1.0146920622276011e-07 -4.2926813064825041e-08 -0.00050024698011487216 5.3192690919620619e-08 -2.6644470231555694e-08 -0.00025019539836647066 8.4821239333416265e-08 -1.0696128576888049e-07 -0.00025021793069617487 1.0922076999610003e-07 1.3357640156441184e-08 -0.00050026176480624795 1.0146920622276011e-07 -4.2926813064825041e-08 -0.00050024698011487216 3.6405840529932813e-08 -7.0376829193214751e-08 -0.00025018848937156263 5.4741837986178423e-08 -1.5675962266732917e-08 -0.00050024195595392692 5.3192690919620619e-08 -2.6644470231555694e-08 -0.00025019539836647066 1.0146920622276011e-07 -4.2926813064825041e-08 -0.00050024698011487216 3.6405840529932813e-08 -7.0376829193214751e-08 -0.00025018848937156263 5.1807451634865326e-08 -5.3010039954965034e-08 -0.00050023741979403401 1.0146920622276011e-07 -4.2926813064825041e-08 -0.00050024698011487216 6.6420897493244259e-08 -8.7910750964997643e-08 -0.00050023805240371089 3.6405840529932813e-08 -7.0376829193214751e-08 -0.00025018848937156263 1.9424279989004228e-08 -1.3542571034450274e-07 -0.00025019745817874366 8.4821239333416265e-08 -1.0696128576888049e-07 -0.00025021793069617487 1.0146920622276011e-07 -4.2926813064825041e-08 -0.00050024698011487216 3.6405840529932813e-08 -7.0376829193214751e-08 -0.00025018848937156263 1.9424279989004228e-08 -1.3542571034450274e-07 -0.00025019745817874366 1.0146920622276011e-07 -4.2926813064825041e-08 -0.00050024698011487216 6.6420897493244259e-08 -8.7910750964997643e-08 -0.00050023805240371089 5.1807451634865326e-08 -5.3010039954965034e-08 -0.00050023741979403401 6.6420897493244259e-08 -8.7910750964997643e-08 -0.00050023805240371089 5.4071381424872131e-08 -9.7714249371913136e-08 -0.00075027446938382835 9.5731872562625487e-08 -5.7487923288223372e-08 -0.00075027839911505129 5.4071381424872131e-08 -9.7714249371913136e-08 -0.00075027446938382835 9.6704006820881121e-08 -5.5724428379577236e-08 -0.0010003101864258434 5.5901280242345591e-08 -9.6596000292080466e-08 -0.0010003082747488121 4.9139135632290078e-08 -5.6868644755029158e-08 -0.00075027506619268285 9.6704006820881135e-08 -5.5724428379577242e-08 -0.0010003101864258434 5.3548642318484451e-08 -2.0498595187885487e-08 -0.0010003100243020683 5.3660213007688462e-08 -1.9717044563996876e-08 -0.00075027714288926231 4.9139135632290078e-08 -5.6868644755029158e-08 -0.00075027506619268285 9.5731872562625487e-08 -5.7487923288223372e-08 -0.00075027839911505129 9.6704006820881135e-08 -5.5724428379577242e-08 -0.0010003101864258434 5.3660213007688456e-08 -1.9717044563996879e-08 -0.00075027714288926231 4.9139135632290078e-08 -5.6868644755029158e-08 -0.00075027506619268285 9.5731872562625487e-08 -5.7487923288223372e-08 -0.00075027839911505129 1.1160902715469468e-07 1.0381108157909574e-10 -0.0010003127175824012 9.6704006820881135e-08 -5.5724428379577242e-08 -0.0010003101864258434 5.3660213007688462e-08 -1.9717044563996876e-08 -0.00075027714288926231 5.4071381424872131e-08 -9.7714249371913136e-08 -0.00075027446938382835 9.5731872562625487e-08 -5.7487923288223372e-08 -0.00075027839911505129 9.6704006820881135e-08 -5.5724428379577242e-08 -0.0010003101864258434 4.9139135632290078e-08 -5.6868644755029158e-08 -0.00075027506619268285 5.1807451634865326e-08 -5.3010039954965034e-08 -0.00050023741979403401 5.4071381424872131e-08 -9.7714249371913136e-08 -0.00075027446938382835 9.5731872562625487e-08 -5.7487923288223372e-08 -0.00075027839911505129 4.9139135632290078e-08 -5.6868644755029158e-08 -0.00075027506619268285 5.1807451634865326e-08 -5.3010039954965034e-08 -0.00050023741979403401 9.5731872562625487e-08 -5.7487923288223372e-08 -0.00075027839911505129 5.3660213007688462e-08 -1.9717044563996876e-08 -0.00075027714288926231 4.9139135632290078e-08 -5.6868644755029158e-08 -0.00075027506619268285 5.4741837986178423e-08 -1.5675962266732917e-08 -0.00050024195595392692 1.0146920622276011e-07 -4.2926813064825041e-08 -0.00050024698011487216 9.5731872562625501e-08 -5.7487923288223352e-08 -0.00075027839911505118 1.1166295684255034e-07 -1.8628719021576688e-09 -0.00075028406831708641 5.1807451634865326e-08 -5.3010039954965034e-08 -0.00050023741979403401 5.4741837986178423e-08 -1.5675962266732917e-08 -0.00050024195595392692 9.5731872562625487e-08 -5.7487923288223372e-08 -0.00075027839911505129 5.3660213007688462e-08 -1.9717044563996876e-08 -0.00075027714288926231 5.4741837986178423e-08 -1.5675962266732917e-08 -0.00050024195595392692 5.724676900785744e-08 3.4703900529485813e-08 -0.0005002557259795019 1.1166295684255035e-07 -1.8628719021576758e-09 -0.0007502840683170863 5.3660213007688462e-08 -1.9717044563996876e-08 -0.00075027714288926231 5.4741837986178423e-08 -1.5675962266732917e-08 -0.00050024195595392692 9.5731872562625514e-08 -5.7487923288223372e-08 -0.00075027839911505129 1.1166295684255035e-07 -1.8628719021576671e-09 -0.0007502840683170863 5.3660213007688462e-08 -1.9717044563996876e-08 -0.00075027714288926231 5.724676900785744e-08 3.4703900529485813e-08 -0.0005002557259795019 1.1166295684255033e-07 -1.8628719021576746e-09 -0.0007502840683170863 5.6590588107896335e-08 3.2005912000150839e-08 -0.00075028212851734511 5.3660213007688462e-08 -1.9717044563996876e-08 -0.00075027714288926231 5.724676900785744e-08 3.4703900529485813e-08 -0.0005002557259795019 1.0922076999610002e-07 1.3357640156441166e-08 -0.00050026176480624785 1.1166295684255034e-07 -1.8628719021576539e-09 -0.0007502840683170863 9.7731237967317796e-08 5.4132855001621905e-08 -0.00075028440438965115 5.724676900785744e-08 3.4703900529485813e-08 -0.0005002557259795019 1.1166295684255034e-07 -1.8628719021576559e-09 -0.0007502840683170863 9.7731237967317809e-08 5.4132855001621918e-08 -0.00075028440438965104 5.6590588107896335e-08 3.2005912000150839e-08 -0.00075028212851734511 5.724676900785744e-08 3.4703900529485813e-08 -0.0005002557259795019 9.7731237967317783e-08 5.4132855001621945e-08 -0.00075028440438965093 5.7208157090135289e-08 9.5797191623076072e-08 -0.00075028561194401028 5.6590588107896335e-08 3.2005912000150839e-08 -0.00075028212851734511 1.1166295684255033e-07 -1.8628719021576746e-09 -0.0007502840683170863 1.1160902715469468e-07 1.0381108157909574e-10 -0.0010003127175824012 9.6581958804674567e-08 5.5893491779417527e-08 -0.001000313050047144 5.6590588107896335e-08 3.2005912000150839e-08 -0.00075028212851734511 1.1166295684255033e-07 -1.8628719021576746e-09 -0.0007502840683170863 9.7731237967317796e-08 5.4132855001621932e-08 -0.00075028440438965104 9.6581958804674567e-08 5.5893491779417527e-08 -0.001000313050047144 5.6590588107896335e-08 3.2005912000150839e-08 -0.00075028212851734511 1.1166295684255033e-07 -1.8628719021576746e-09 -0.0007502840683170863 1.1160902715469468e-07 1.0381108157909574e-10 -0.0010003127175824012 5.6590588107896335e-08 3.2005912000150839e-08 -0.00075028212851734511 5.3660213007688462e-08 -1.9717044563996876e-08 -0.00075027714288926231 1.1160902715469468e-07 1.0381108157909574e-10 -0.0010003127175824012 5.3548642318484458e-08 -2.0498595187885487e-08 -0.0010003100243020683 5.6590588107896335e-08 3.2005912000150839e-08 -0.00075028212851734511 5.3660213007688469e-08 -1.9717044563996912e-08 -0.0007502771428892622 9.5731872562625487e-08 -5.7487923288223372e-08 -0.00075027839911505129 1.1166295684255033e-07 -1.8628719021576746e-09 -0.0007502840683170863 1.1160902715469468e-07 1.0381108157909574e-10 -0.0010003127175824012 5.3660213007688462e-08 -1.9717044563996876e-08 -0.00075027714288926231 1.1160902715469468e-07 1.0381108157909574e-10 -0.0010003127175824012 5.5597146763139997e-08 3.1824236939344825e-08 -0.0010003121858146481 5.3548642318484458e-08 -2.0498595187885487e-08 -0.0010003100243020683 5.6590588107896335e-08 3.2005912000150839e-08 -0.00075028212851734511 1.1160902715469468e-07 1.0381108157909574e-10 -0.0010003127175824012 1.1152987558067157e-07 6.6323827630733362e-11 -0.0012503438875040717 5.5597146763139997e-08 3.1824236939344825e-08 -0.0010003121858146481 5.3548642318484458e-08 -2.0498595187885487e-08 -0.0010003100243020683 1.1160902715469468e-07 1.0381108157909574e-10 -0.0010003127175824012 1.1152987558067157e-07 6.6323827630733362e-11 -0.0012503438875040717 9.6704006820881135e-08 -5.5724428379577242e-08 -0.0010003101864258434 5.3548642318484458e-08 -2.0498595187885487e-08 -0.0010003100243020683 1.1160902715469468e-07 1.0381108157909574e-10 -0.0010003127175824012 9.6704006820881135e-08 -5.5724428379577242e-08 -0.0010003101864258434 5.3548642318484458e-08 -2.0498595187885487e-08 -0.0010003100243020683 5.3660213007688469e-08 -1.9717044563996879e-08 -0.0007502771428892622 1.1160902715469468e-07 1.0381108157909574e-10 -0.0010003127175824012 9.6581958804674567e-08 5.5893491779417527e-08 -0.001000313050047144 9.6566384052488815e-08 5.5811832932468796e-08 -0.0012503442362145401 5.5597146763139997e-08 3.1824236939344825e-08 -0.0010003121858146481 1.1160902715469468e-07 1.0381108157909574e-10 -0.0010003127175824012 9.6581958804674567e-08 5.5893491779417527e-08 -0.001000313050047144 5.5597146763139997e-08 3.1824236939344825e-08 -0.0010003121858146481 5.6590588107896335e-08 3.2005912000150839e-08 -0.00075028212851734511 9.6581958804674567e-08 5.5893491779417527e-08 -0.001000313050047144 5.5759013623365729e-08 9.6692467893919281e-08 -0.001000313434773095 5.5597146763139997e-08 3.1824236939344825e-08 -0.0010003121858146481 5.6590588107896335e-08 3.2005912000150839e-08 -0.00075028212851734511 9.6566384052488815e-08 5.5811832932468796e-08 -0.0012503442362145401 5.5736461487861393e-08 9.6604554417924555e-08 -0.0012503443488547205 5.5743474366420395e-08 3.2033117042703981e-08 -0.0012503435536293378 5.5597146763139997e-08 3.1824236939344825e-08 -0.0010003121858146481 1.1160902715469468e-07 1.0381108157909574e-10 -0.0010003127175824012 1.1152987558067157e-07 6.6323827630733362e-11 -0.0012503438875040717 9.6566384052488815e-08 5.5811832932468796e-08 -0.0012503442362145401 5.5597146763139997e-08 3.1824236939344825e-08 -0.0010003121858146481 1.1152987558067157e-07 6.6323827630733362e-11 -0.0012503438875040717 9.6566384052488815e-08 5.5811832932468796e-08 -0.0012503442362145401 5.5743474366420395e-08 3.2033117042703981e-08 -0.0012503435536293378 5.5597146763139997e-08 3.1824236939344825e-08 -0.0010003121858146481 1.1152987558067157e-07 6.6323827630733362e-11 -0.0012503438875040717 9.6624069414015733e-08 -5.5701725284727789e-08 -0.0012503422257568711 5.3729578100695598e-08 -2.0307142133947663e-08 -0.0012503421181923355 5.3548642318484465e-08 -2.049859518788549e-08 -0.0010003100243020681 1.1152987558067157e-07 6.6323827630733362e-11 -0.0012503438875040717 5.3729578100695598e-08 -2.0307142133947663e-08 -0.0012503421181923355 5.5743474366420395e-08 3.2033117042703981e-08 -0.0012503435536293378 5.5597146763139997e-08 3.1824236939344825e-08 -0.0010003121858146481 1.1152987558067157e-07 6.6323827630733362e-11 -0.0012503438875040717 5.3729578100695598e-08 -2.0307142133947663e-08 -0.0012503421181923355 5.5597146763139997e-08 3.1824236939344825e-08 -0.0010003121858146481 5.3548642318484465e-08 -2.0498595187885523e-08 -0.0010003100243020681 9.6624069414015733e-08 -5.5701725284727789e-08 -0.0012503422257568711 5.5809813000018348e-08 -9.6562321400535187e-08 -0.0012503408498653562 4.9519903553658144e-08 -5.7031958949171929e-08 -0.0010003088072656964 4.9749962880143392e-08 -5.6816570661973024e-08 -0.0012503412354939113 9.6624069414015733e-08 -5.5701725284727789e-08 -0.0012503422257568711 5.3729578100695591e-08 -2.0307142133947666e-08 -0.0012503421181923352 4.9519903553658131e-08 -5.7031958949171929e-08 -0.0010003088072656964 4.9749962880143392e-08 -5.6816570661973024e-08 -0.0012503412354939113 9.6624069414015733e-08 -5.5701725284727789e-08 -0.0012503422257568711 5.3729578100695591e-08 -2.0307142133947663e-08 -0.0012503421181923355 5.3548642318484458e-08 -2.0498595187885487e-08 -0.0010003100243020683 4.9519903553658144e-08 -5.7031958949171929e-08 -0.0010003088072656964 1.1152987558067157e-07 6.6323827630733362e-11 -0.0012503438875040717 9.6624069414015733e-08 -5.5701725284727789e-08 -0.0012503422257568711 9.6704006820881135e-08 -5.5724428379577242e-08 -0.0010003101864258434 5.3548642318484425e-08 -2.0498595187885477e-08 -0.0010003100243020683 9.6704006820881135e-08 -5.5724428379577242e-08 -0.0010003101864258434 5.5901280242345591e-08 -9.6596000292080452e-08 -0.0010003082747488121 4.9139135632290078e-08 -5.6868644755029158e-08 -0.00075027506619268285 4.9519903553658144e-08 -5.7031958949171929e-08 -0.0010003088072656964 9.6624069414015733e-08 -5.5701725284727789e-08 -0.0012503422257568711 9.6704006820881135e-08 -5.5724428379577242e-08 -0.0010003101864258434 5.3548642318484458e-08 -2.0498595187885487e-08 -0.0010003100243020683 4.9519903553658144e-08 -5.7031958949171929e-08 -0.0010003088072656964 9.6704006820881135e-08 -5.5724428379577242e-08 -0.0010003101864258434 5.3548642318484451e-08 -2.049859518788549e-08 -0.0010003100243020681 4.9139135632290065e-08 -5.6868644755029158e-08 -0.00075027506619268275 4.9519903553658144e-08 -5.7031958949171929e-08 -0.0010003088072656964 9.6624069414015733e-08 -5.5701725284727789e-08 -0.0012503422257568711 9.6704006820881135e-08 -5.5724428379577242e-08 -0.0010003101864258434 5.5901280242345591e-08 -9.6596000292080466e-08 -0.0010003082747488121 4.9519903553658144e-08 -5.7031958949171929e-08 -0.0010003088072656964 9.6624069414015733e-08 -5.5701725284727789e-08 -0.0012503422257568711 5.5901280242345558e-08 -9.6596000292080439e-08 -0.0010003082747488121 5.5809813000018348e-08 -9.6562321400535187e-08 -0.0012503408498653562 4.9519903553658144e-08 -5.7031958949171929e-08 -0.0010003088072656964 5.724676900785744e-08 3.4703900529485813e-08 -0.0005002557259795019 8.7884208171792028e-08 6.6381716470496038e-08 -0.00050026243849449214 9.7731237967317796e-08 5.4132855001621932e-08 -0.00075028440438965104 5.7208157090135289e-08 9.5797191623076072e-08 -0.00075028561194401028 9.7731237967317796e-08 5.4132855001621932e-08 -0.00075028440438965104 5.5759013623365729e-08 9.6692467893919281e-08 -0.001000313434773095 5.7208157090135289e-08 9.5797191623076072e-08 -0.00075028561194401028 5.6590588107896335e-08 3.2005912000150839e-08 -0.00075028212851734511 9.7731237967317796e-08 5.4132855001621932e-08 -0.00075028440438965104 9.6581958804674567e-08 5.5893491779417527e-08 -0.001000313050047144 5.5759013623365729e-08 9.6692467893919281e-08 -0.001000313434773095 5.6590588107896335e-08 3.2005912000150839e-08 -0.00075028212851734511 9.6581958804674567e-08 5.5893491779417527e-08 -0.001000313050047144 5.5736461487861393e-08 9.6604554417924555e-08 -0.0012503443488547205 5.5759013623365729e-08 9.6692467893919281e-08 -0.001000313434773095 5.5597146763139997e-08 3.1824236939344825e-08 -0.0010003121858146481 9.6581958804674567e-08 5.5893491779417527e-08 -0.001000313050047144 9.6566384052488815e-08 5.5811832932468796e-08 -0.0012503442362145401 5.5736461487861393e-08 9.6604554417924555e-08 -0.0012503443488547205 5.5597146763139997e-08 3.1824236939344825e-08 -0.0010003121858146481 5.5736461487861393e-08 9.6604554417924555e-08 -0.0012503443488547205 -1.5823049803019076e-11 1.1152648077014207e-07 -0.0012503426799144364 9.2498346794196987e-09 5.7065854791745184e-08 -0.0012503425828431537 9.2259396895065274e-09 5.6956805714288378e-08 -0.001000310826955484 5.5736461487861393e-08 9.6604554417924555e-08 -0.0012503443488547205 9.2498346794196987e-09 5.7065854791745184e-08 -0.0012503425828431535 9.2259396895065092e-09 5.6956805714288411e-08 -0.0010003108269554843 5.5597146763139997e-08 3.1824236939344825e-08 -0.0010003121858146481 5.5736461487861393e-08 9.6604554417924555e-08 -0.0012503443488547205 -1.5823049803019076e-11 1.1152648077014207e-07 -0.0012503426799144364 9.2259396895065241e-09 5.6956805714288352e-08 -0.0010003108269554845 5.5759013623365729e-08 9.6692467893919281e-08 -0.001000313434773095 -1.5823049803019076e-11 1.1152648077014207e-07 -0.0012503426799144364 -2.4311754030182309e-08 7.1344841135731207e-08 -0.0010003098476221298 -8.327414594896283e-11 1.11606713692995e-07 -0.0010003108417050439 -5.5778120911810179e-08 9.6578885195222301e-08 -0.0012503416190424875 -1.5823049803019076e-11 1.1152648077014207e-07 -0.0012503426799144364 -2.4218588853756044e-08 7.1442273345728723e-08 -0.0012503419513356343 9.2498346794196987e-09 5.7065854791745184e-08 -0.0012503425828431537 -2.4311754030182309e-08 7.1344841135731207e-08 -0.0010003098476221298 -1.5823049803019076e-11 1.1152648077014207e-07 -0.0012503426799144364 -2.4218588853756044e-08 7.1442273345728723e-08 -0.0012503419513356343 -2.4311754030182309e-08 7.1344841135731207e-08 -0.0010003098476221298 -5.5778120911810179e-08 9.6578885195222301e-08 -0.0012503416190424875 -1.5823049803019076e-11 1.1152648077014207e-07 -0.0012503426799144364 9.2498346794196987e-09 5.7065854791745184e-08 -0.0012503425828431537 -2.4311754030182309e-08 7.1344841135731207e-08 -0.0010003098476221298 9.225939689506529e-09 5.6956805714288378e-08 -0.0010003108269554843 -2.4218588853756044e-08 7.1442273345728723e-08 -0.0012503419513356343 9.2498346794196987e-09 5.7065854791745184e-08 -0.0012503425828431537 -2.4311754030182309e-08 7.1344841135731207e-08 -0.0010003098476221298 -1.9839862051029295e-08 3.5895669598028451e-08 -0.0012503416891061056 -1.5823049803019076e-11 1.1152648077014207e-07 -0.0012503426799144364 -2.4311754030182309e-08 7.1344841135731207e-08 -0.0010003098476221298 9.225939689506529e-09 5.6956805714288378e-08 -0.0010003108269554843 -8.327414594896283e-11 1.11606713692995e-07 -0.0010003108417050439 -1.5823049803019076e-11 1.1152648077014207e-07 -0.0012503426799144364 9.2259396895065456e-09 5.6956805714288385e-08 -0.001000310826955484 -8.327414594896283e-11 1.11606713692995e-07 -0.0010003108417050439 5.5759013623365709e-08 9.6692467893919281e-08 -0.001000313434773095 5.5736461487861393e-08 9.6604554417924555e-08 -0.0012503443488547205 9.2259396895064877e-09 5.6956805714288385e-08 -0.0010003108269554843 5.5759013623365729e-08 9.6692467893919281e-08 -0.001000313434773095 5.5597146763139997e-08 3.1824236939344825e-08 -0.0010003121858146481 9.225939689506529e-09 5.6956805714288378e-08 -0.0010003108269554843 5.5759013623365729e-08 9.6692467893919281e-08 -0.001000313434773095 1.0863505169607146e-08 5.7025658312755475e-08 -0.00075027893609821831 5.6590588107896322e-08 3.2005912000150845e-08 -0.00075028212851734511 5.5759013623365729e-08 9.6692467893919281e-08 -0.001000313434773095 1.0863505169607106e-08 5.7025658312755482e-08 -0.00075027893609821831 5.7208157090135289e-08 9.5797191623076072e-08 -0.00075028561194401028 5.6590588107896335e-08 3.2005912000150839e-08 -0.00075028212851734511 -8.327414594896283e-11 1.11606713692995e-07 -0.0010003108417050439 5.5759013623365729e-08 9.6692467893919281e-08 -0.001000313434773095 1.0863505169607146e-08 5.7025658312755475e-08 -0.00075027893609821831 5.7208157090135283e-08 9.5797191623076058e-08 -0.00075028561194401039 -8.327414594896283e-11 1.11606713692995e-07 -0.0010003108417050439 1.0863505169607162e-08 5.7025658312755482e-08 -0.00075027893609821831 5.720815709013527e-08 9.5797191623076072e-08 -0.00075028561194401028 1.9986678821565758e-09 1.1165787185997519e-07 -0.00075027967206982423 9.225939689506529e-09 5.6956805714288378e-08 -0.0010003108269554843 -8.3274145948959146e-11 1.1160671369299501e-07 -0.0010003108417050439 5.5759013623365729e-08 9.6692467893919281e-08 -0.001000313434773095 1.0863505169607146e-08 5.7025658312755475e-08 -0.00075027893609821831 -2.4311754030182309e-08 7.1344841135731207e-08 -0.0010003098476221298 9.225939689506529e-09 5.6956805714288378e-08 -0.0010003108269554843 -2.3147509768748963e-08 7.1589185161288483e-08 -0.0007502768596568106 -2.0015711053770498e-08 3.5780823702299509e-08 -0.0010003094382389499 -2.4311754030182309e-08 7.1344841135731207e-08 -0.0010003098476221298 9.225939689506529e-09 5.6956805714288378e-08 -0.0010003108269554843 -8.327414594896283e-11 1.11606713692995e-07 -0.0010003108417050439 -2.3147509768748963e-08 7.1589185161288483e-08 -0.0007502768596568106 -8.327414594896283e-11 1.11606713692995e-07 -0.0010003108417050439 -2.3147509768748963e-08 7.1589185161288483e-08 -0.0007502768596568106 1.0863505169607146e-08 5.7025658312755475e-08 -0.00075027893609821831 1.9986678821565758e-09 1.1165787185997519e-07 -0.00075027967206982423 9.225939689506529e-09 5.6956805714288378e-08 -0.0010003108269554843 -8.327414594896283e-11 1.11606713692995e-07 -0.0010003108417050439 -2.3147509768748963e-08 7.1589185161288483e-08 -0.0007502768596568106 1.0863505169607146e-08 5.7025658312755475e-08 -0.00075027893609821831 -2.4311754030182309e-08 7.1344841135731207e-08 -0.0010003098476221298 -8.327414594896283e-11 1.11606713692995e-07 -0.0010003108417050439 -2.3147509768748963e-08 7.1589185161288483e-08 -0.0007502768596568106 -5.5882959841588102e-08 9.6607355006654877e-08 -0.0010003092503561798 -2.5388025849861895e-08 6.9262899321620892e-08 -0.00050024057870222275 -2.3147509768748963e-08 7.1589185161288483e-08 -0.0007502768596568106 1.0863505169607146e-08 5.7025658312755475e-08 -0.00075027893609821831 1.9986678821565758e-09 1.1165787185997519e-07 -0.00075027967206982423 -2.5388025849861895e-08 6.9262899321620892e-08 -0.00050024057870222275 -2.3147509768748963e-08 7.1589185161288483e-08 -0.0007502768596568106 1.9986678821565568e-09 1.116578718599752e-07 -0.00075027967206982423 -5.4065310006217699e-08 9.7720723258295213e-08 -0.00075027602416003988 1.2954418918770951e-08 5.6984947565504081e-08 -0.00050024587829834179 -2.5388025849861895e-08 6.9262899321620892e-08 -0.00050024057870222275 1.0863505169607146e-08 5.7025658312755475e-08 -0.00075027893609821831 1.9986678821565758e-09 1.1165787185997519e-07 -0.00075027967206982423 -2.5388025849861895e-08 6.9262899321620892e-08 -0.00050024057870222275 -2.3147509768748963e-08 7.1589185161288483e-08 -0.0007502768596568106 1.0863505169607146e-08 5.7025658312755475e-08 -0.00075027893609821831 -1.9288400763656135e-08 3.6138372476059378e-08 -0.00075027603314516687 4.487833266693477e-08 1.0091034420036358e-07 -0.00050026550164603727 1.2954418918770943e-08 5.6984947565504087e-08 -0.00050024587829834179 5.7208157090135289e-08 9.5797191623076072e-08 -0.00075028561194401028 1.9986678821565907e-09 1.1165787185997516e-07 -0.00075027967206982423 1.2954418918770951e-08 5.6984947565504081e-08 -0.00050024587829834179 1.0863505169607146e-08 5.7025658312755475e-08 -0.00075027893609821831 5.7208157090135323e-08 9.5797191623076098e-08 -0.00075028561194401039 1.9986678821565758e-09 1.1165787185997519e-07 -0.00075027967206982423 5.724676900785744e-08 3.4703900529485813e-08 -0.0005002557259795019 1.2954418918770948e-08 5.6984947565504081e-08 -0.00050024587829834179 1.0863505169607146e-08 5.7025658312755475e-08 -0.00075027893609821831 5.7208157090135303e-08 9.5797191623076085e-08 -0.00075028561194401028 -1.3462379924247348e-08 1.0928001149953106e-07 -0.00050025033566618977 -2.5388025849861895e-08 6.9262899321620892e-08 -0.00050024057870222275 1.9986678821565758e-09 1.1165787185997519e-07 -0.00075027967206982423 -5.4065310006217712e-08 9.7720723258295199e-08 -0.00075027602416003988 -8.327414594896283e-11 1.11606713692995e-07 -0.0010003108417050439 -2.3147509768748963e-08 7.1589185161288483e-08 -0.0007502768596568106 1.9986678821565758e-09 1.1165787185997519e-07 -0.00075027967206982423 -5.5882959841588102e-08 9.6607355006654877e-08 -0.0010003092503561798 -5.1292106952046617e-08 5.0051992100312015e-08 -0.00050023974058978945 -2.3147509768748963e-08 7.1589185161288483e-08 -0.0007502768596568106 -5.4065310006217712e-08 9.7720723258295199e-08 -0.00075027602416003988 -4.8833269693274657e-08 5.3221767397821769e-08 -0.00075027606906377328 -5.1292106952046617e-08 5.0051992100312015e-08 -0.00050023974058978945 -2.5388025849861895e-08 6.9262899321620892e-08 -0.00050024057870222264 -2.3147509768748963e-08 7.1589185161288483e-08 -0.0007502768596568106 -1.9288400763656135e-08 3.6138372476059378e-08 -0.00075027603314516687 -5.1292106952046617e-08 5.0051992100312015e-08 -0.00050023974058978945 -2.5388025849861895e-08 6.9262899321620892e-08 -0.00050024057870222275 -2.3147509768748963e-08 7.1589185161288483e-08 -0.0007502768596568106 -5.4065310006217712e-08 9.7720723258295199e-08 -0.00075027602416003988 -5.1292106952046617e-08 5.0051992100312015e-08 -0.00050023974058978945 -6.6338917853982045e-08 8.7950515018279162e-08 -0.00050024100603629235 -5.4065310006217699e-08 9.7720723258295199e-08 -0.00075027602416003988 -9.57458147944121e-08 5.746873885723655e-08 -0.00075027817874581107 -5.1292106952046617e-08 5.0051992100312015e-08 -0.00050023974058978945 -5.4065310006217693e-08 9.7720723258295186e-08 -0.00075027602416003977 -4.8833269693274664e-08 5.3221767397821769e-08 -0.00075027606906377328 -9.5745814794412087e-08 5.7468738857236537e-08 -0.00075027817874581118 -2.4311754030182309e-08 7.1344841135731207e-08 -0.0010003098476221298 -2.3147509768748963e-08 7.1589185161288483e-08 -0.0007502768596568106 -2.0015711053770498e-08 3.5780823702299509e-08 -0.0010003094382389499 -4.8833269693274657e-08 5.3221767397821769e-08 -0.00075027606906377328 -2.3147509768748963e-08 7.1589185161288483e-08 -0.0007502768596568106 -5.4065310006217712e-08 9.7720723258295199e-08 -0.00075027602416003988 -5.5882959841588102e-08 9.6607355006654877e-08 -0.0010003092503561798 -4.8833269693274657e-08 5.3221767397821769e-08 -0.00075027606906377328 -2.3147509768748963e-08 7.1589185161288483e-08 -0.0007502768596568106 1.9986678821565758e-09 1.1165787185997519e-07 -0.00075027967206982423 -5.4065310006217712e-08 9.7720723258295199e-08 -0.00075027602416003988 -5.5882959841588102e-08 9.6607355006654877e-08 -0.0010003092503561798 -2.4311754030182309e-08 7.1344841135731207e-08 -0.0010003098476221298 -5.5882959841588102e-08 9.6607355006654877e-08 -0.0010003092503561798 -4.9447114614541378e-08 5.2943463953991548e-08 -0.001000309283499169 -4.8833269693274657e-08 5.3221767397821769e-08 -0.00075027606906377328 -2.4311754030182309e-08 7.1344841135731207e-08 -0.0010003098476221298 -2.3147509768748963e-08 7.1589185161288483e-08 -0.0007502768596568106 -5.5882959841588102e-08 9.6607355006654877e-08 -0.0010003092503561798 -4.8833269693274657e-08 5.3221767397821769e-08 -0.00075027606906377328 -5.4065310006217712e-08 9.7720723258295199e-08 -0.00075027602416003988 -5.5882959841588102e-08 9.6607355006654877e-08 -0.0010003092503561798 -9.6696797392838794e-08 5.5736872092483362e-08 -0.001000309681705253 -4.8833269693274657e-08 5.3221767397821769e-08 -0.00075027606906377328 -5.5882959841588102e-08 9.6607355006654877e-08 -0.0010003092503561798 -9.6696797392838794e-08 5.5736872092483362e-08 -0.001000309681705253 -4.9447114614541378e-08 5.2943463953991548e-08 -0.001000309283499169 -4.8833269693274657e-08 5.3221767397821769e-08 -0.00075027606906377328 -5.4065310006217712e-08 9.7720723258295199e-08 -0.00075027602416003988 -9.6696797392838794e-08 5.5736872092483362e-08 -0.001000309681705253 -4.8833269693274657e-08 5.3221767397821769e-08 -0.00075027606906377328 -9.5745814794412087e-08 5.7468738857236557e-08 -0.00075027817874581118 -5.5882959841588102e-08 9.6607355006654877e-08 -0.0010003092503561798 -9.6600388636638641e-08 5.5738126587483808e-08 -0.0012503416526975326 -9.6696797392838794e-08 5.5736872092483362e-08 -0.001000309681705253 -4.9447114614541378e-08 5.2943463953991548e-08 -0.001000309283499169 -2.4311754030182309e-08 7.1344841135731207e-08 -0.0010003098476221298 -5.5882959841588102e-08 9.6607355006654877e-08 -0.0010003092503561798 -5.5778120911810179e-08 9.6578885195222301e-08 -0.0012503416190424875 -4.9447114614541378e-08 5.2943463953991548e-08 -0.001000309283499169 -2.4311754030182309e-08 7.1344841135731207e-08 -0.0010003098476221298 -8.327414594896283e-11 1.11606713692995e-07 -0.0010003108417050439 -5.5882959841588102e-08 9.6607355006654877e-08 -0.0010003092503561798 -5.5778120911810179e-08 9.6578885195222301e-08 -0.0012503416190424875 -5.5778120911810179e-08 9.6578885195222301e-08 -0.0012503416190424875 -9.6600388636638641e-08 5.5738126587483808e-08 -0.0012503416526975326 -4.9447114614541378e-08 5.2943463953991555e-08 -0.001000309283499169 -4.9312177031690539e-08 5.304900257078298e-08 -0.0012503415330848864 -2.4218588853756044e-08 7.1442273345728723e-08 -0.0012503419513356343 -2.4311754030182309e-08 7.1344841135731207e-08 -0.0010003098476221298 -4.9447114614541371e-08 5.2943463953991548e-08 -0.001000309283499169 -1.9839862051029295e-08 3.5895669598028451e-08 -0.0012503416891061056 -5.5882959841588102e-08 9.6607355006654877e-08 -0.0010003092503561798 -5.5778120911810179e-08 9.6578885195222301e-08 -0.0012503416190424875 -9.6600388636638641e-08 5.5738126587483808e-08 -0.0012503416526975326 -4.9447114614541378e-08 5.2943463953991548e-08 -0.001000309283499169 -2.4218588853756044e-08 7.1442273345728723e-08 -0.0012503419513356343 -2.4311754030182309e-08 7.1344841135731207e-08 -0.0010003098476221298 -5.5778120911810179e-08 9.6578885195222301e-08 -0.0012503416190424875 -4.9447114614541378e-08 5.2943463953991548e-08 -0.001000309283499169 -2.4218588853756044e-08 7.1442273345728723e-08 -0.0012503419513356343 -5.5778120911810179e-08 9.6578885195222301e-08 -0.0012503416190424875 -4.9447114614541378e-08 5.2943463953991541e-08 -0.001000309283499169 -4.9312177031690539e-08 5.304900257078298e-08 -0.0012503415330848864 -9.6600388636638641e-08 5.5738126587483808e-08 -0.0012503416526975326 -1.1152722233811466e-07 -1.8753531368727984e-11 -0.0012503415157257708 -5.0413716873457198e-08 5.4701188370531909e-09 -0.0012503412682324355 -5.0587421278843372e-08 5.2435074041261628e-09 -0.0010003090507762966 -9.6600388636638641e-08 5.5738126587483808e-08 -0.0012503416526975326 -9.6696797392838794e-08 5.5736872092483362e-08 -0.001000309681705253 -1.1152722233811466e-07 -1.8753531368723105e-11 -0.001250341515725771 -5.0587421278843372e-08 5.2435074041261628e-09 -0.0010003090507762966 -9.6600388636638641e-08 5.5738126587483808e-08 -0.0012503416526975326 -9.6696797392838794e-08 5.5736872092483362e-08 -0.001000309681705253 -5.0587421278843372e-08 5.2435074041261628e-09 -0.0010003090507762966 -4.9447114614541378e-08 5.2943463953991548e-08 -0.001000309283499169 -9.6696797392838794e-08 5.5736872092483362e-08 -0.001000309681705253 -1.1160382396190408e-07 -1.0407552412037319e-10 -0.0010003098271704298 -1.1152722233811466e-07 -1.8753531368727441e-11 -0.0012503415157257708 -5.0587421278843372e-08 5.2435074041261628e-09 -0.0010003090507762966 -1.1160382396190408e-07 -1.0407552412037332e-10 -0.0010003098271704296 -1.1152722233811466e-07 -1.8753531368727441e-11 -0.0012503415157257708 -5.0587421278843372e-08 5.2435074041261628e-09 -0.0010003090507762966 -6.6081770849157473e-08 -4.0498719986760988e-08 -0.0010003087200216583 -1.1160382396190408e-07 -1.0407552412037332e-10 -0.0010003098271704296 -1.1152722233811466e-07 -1.8753531368727441e-11 -0.0012503415157257708 -6.6081770849157473e-08 -4.0498719986760988e-08 -0.0010003087200216583 -9.657752956610083e-08 -5.5792134093520349e-08 -0.0012503406584139141 -1.1152722233811466e-07 -1.8753531368727441e-11 -0.0012503415157257708 -5.0413716873457192e-08 5.4701188370531967e-09 -0.0012503412682324357 -5.0587421278843372e-08 5.2435074041261628e-09 -0.0010003090507762966 -6.6081770849157473e-08 -4.0498719986760988e-08 -0.0010003087200216583 -1.1152722233811466e-07 -1.8753531368727441e-11 -0.0012503415157257708 -5.0413716873457192e-08 5.4701188370531967e-09 -0.0012503412682324357 -6.6081770849157473e-08 -4.0498719986760988e-08 -0.0010003087200216583 -6.5894813043287531e-08 -4.0343332649420081e-08 -0.0012503408563625529 -5.0413716873457192e-08 5.4701188370531967e-09 -0.0012503412682324357 -5.0587421278843372e-08 5.2435074041261628e-09 -0.0010003090507762966 -1.5289603755281543e-08 -5.5522733633626184e-08 -0.001000308343392468 -6.6081770849157473e-08 -4.0498719986760988e-08 -0.0010003087200216583 -5.0413716873457192e-08 5.4701188370531967e-09 -0.0012503412682324357 -5.0587421278843372e-08 5.2435074041261628e-09 -0.0010003090507762966 4.8346962049821418e-09 1.398387931832147e-09 -0.0010003090992639727 -1.5289603755281563e-08 -5.5522733633626184e-08 -0.001000308343392468 -5.0413716873457192e-08 5.4701188370531967e-09 -0.0012503412682324357 -5.0587421278843372e-08 5.2435074041261628e-09 -0.0010003090507762966 4.8346962049821443e-09 1.3983879318321476e-09 -0.0010003090992639725 -2.0015711053770498e-08 3.5780823702299509e-08 -0.0010003094382389499 -5.0413716873457192e-08 5.4701188370531967e-09 -0.0012503412682324357 -5.0587421278843372e-08 5.2435074041261628e-09 -0.0010003090507762966 -4.9447114614541378e-08 5.2943463953991548e-08 -0.001000309283499169 -2.0015711053770498e-08 3.5780823702299509e-08 -0.0010003094382389499 -2.4311754030182309e-08 7.1344841135731207e-08 -0.0010003098476221298 -4.9447114614541378e-08 5.2943463953991548e-08 -0.001000309283499169 -1.9839862051029295e-08 3.5895669598028451e-08 -0.0012503416891061056 -2.0015711053770498e-08 3.5780823702299509e-08 -0.0010003094382389499 -5.0413716873457192e-08 5.4701188370531967e-09 -0.0012503412682324357 -4.9447114614541378e-08 5.2943463953991548e-08 -0.001000309283499169 -1.9839862051029295e-08 3.5895669598028451e-08 -0.0012503416891061056 -2.0015711053770498e-08 3.5780823702299509e-08 -0.0010003094382389499 -2.4218588853756044e-08 7.1442273345728723e-08 -0.0012503419513356343 -4.9447114614541385e-08 5.2943463953991548e-08 -0.001000309283499169 -4.9312177031690539e-08 5.304900257078298e-08 -0.0012503415330848864 -1.9839862051029295e-08 3.5895669598028451e-08 -0.0012503416891061056 -9.6600388636638641e-08 5.5738126587483808e-08 -0.0012503416526975326 -5.0413716873457192e-08 5.4701188370531967e-09 -0.0012503412682324357 -5.0587421278843372e-08 5.2435074041261628e-09 -0.0010003090507762966 -4.9447114614541378e-08 5.2943463953991548e-08 -0.001000309283499169 -5.0413716873457192e-08 5.4701188370531967e-09 -0.0012503412682324357 -4.9447114614541378e-08 5.2943463953991548e-08 -0.001000309283499169 -4.9312177031690539e-08 5.304900257078298e-08 -0.0012503415330848864 -1.9839862051029295e-08 3.5895669598028451e-08 -0.0012503416891061056 -9.6600388636638641e-08 5.5738126587483808e-08 -0.0012503416526975326 -5.0413716873457192e-08 5.4701188370531967e-09 -0.0012503412682324357 -4.9447114614541378e-08 5.2943463953991548e-08 -0.001000309283499169 -4.9312177031690539e-08 5.304900257078298e-08 -0.0012503415330848864 9.2498346794196987e-09 5.7065854791745184e-08 -0.0012503425828431537 -2.4311754030182309e-08 7.1344841135731207e-08 -0.0010003098476221298 -1.9839862051029295e-08 3.5895669598028451e-08 -0.0012503416891061056 -2.0015711053770498e-08 3.5780823702299509e-08 -0.0010003094382389499 9.2498346794196987e-09 5.7065854791745184e-08 -0.0012503425828431537 -1.9839862051029295e-08 3.5895669598028451e-08 -0.0012503416891061056 5.0744035279017691e-09 1.5911412485628563e-09 -0.0012503414581541822 -2.0015711053770498e-08 3.5780823702299509e-08 -0.0010003094382389499 -5.0413716873457192e-08 5.4701188370531967e-09 -0.0012503412682324357 -1.9839862051029295e-08 3.5895669598028451e-08 -0.0012503416891061056 5.0744035279017691e-09 1.5911412485628563e-09 -0.0012503414581541822 -2.0015711053770498e-08 3.5780823702299509e-08 -0.0010003094382389499 9.2498346794196987e-09 5.7065854791745184e-08 -0.0012503425828431537 9.225939689506529e-09 5.6956805714288378e-08 -0.0010003108269554843 5.0744035279017691e-09 1.5911412485628563e-09 -0.0012503414581541822 -2.0015711053770498e-08 3.5780823702299509e-08 -0.0010003094382389499 -5.0413716873457192e-08 5.4701188370531967e-09 -0.0012503412682324357 5.0744035279017691e-09 1.5911412485628563e-09 -0.0012503414581541822 4.8346962049821261e-09 1.3983879318321555e-09 -0.0010003090992639723 -1.4921131825375764e-08 -5.5358332286620304e-08 -0.0012503407008390768 -5.0413716873457192e-08 5.4701188370531967e-09 -0.0012503412682324357 5.0744035279017691e-09 1.5911412485628563e-09 -0.0012503414581541822 4.8346962049821261e-09 1.3983879318321284e-09 -0.0010003090992639725 -2.0015711053770498e-08 3.5780823702299509e-08 -0.0010003094382389499 5.0744035279017691e-09 1.5911412485628563e-09 -0.0012503414581541822 4.8346962049821269e-09 1.3983879318321555e-09 -0.0010003090992639725 2.1349674317980716e-08 -3.6552686224922825e-08 -0.0010003086994025004 -1.4921131825375764e-08 -5.5358332286620304e-08 -0.0012503407008390768 -5.0413716873457192e-08 5.4701188370531967e-09 -0.0012503412682324357 4.8346962049821261e-09 1.3983879318321578e-09 -0.0010003090992639725 -1.5289603755281596e-08 -5.5522733633626177e-08 -0.001000308343392468 -1.4921131825375764e-08 -5.5358332286620304e-08 -0.0012503407008390768 5.0744035279017691e-09 1.5911412485628563e-09 -0.0012503414581541822 5.3729578100695598e-08 -2.0307142133947663e-08 -0.0012503421181923355 2.1349674317980719e-08 -3.6552686224922832e-08 -0.0010003086994025004 2.1638622597325842e-08 -3.6329536571521736e-08 -0.001250341184636364 5.0744035279017691e-09 1.5911412485628563e-09 -0.0012503414581541822 5.3729578100695598e-08 -2.0307142133947663e-08 -0.0012503421181923355 4.8346962049821269e-09 1.3983879318321555e-09 -0.0010003090992639725 2.1349674317980722e-08 -3.6552686224922825e-08 -0.0010003086994025004 5.0744035279017691e-09 1.5911412485628563e-09 -0.0012503414581541822 5.3729578100695598e-08 -2.0307142133947663e-08 -0.0012503421181923355 5.5597146763139997e-08 3.1824236939344825e-08 -0.0010003121858146481 4.8346962049821269e-09 1.3983879318321555e-09 -0.0010003090992639725 5.0744035279017691e-09 1.5911412485628563e-09 -0.0012503414581541822 5.3729578100695598e-08 -2.0307142133947663e-08 -0.0012503421181923355 5.5743474366420395e-08 3.2033117042703981e-08 -0.0012503435536293378 5.5597146763139997e-08 3.1824236939344825e-08 -0.0010003121858146481 5.5736461487861393e-08 9.6604554417924555e-08 -0.0012503443488547205 9.2498346794197037e-09 5.7065854791745177e-08 -0.0012503425828431537 5.5743474366420395e-08 3.2033117042703981e-08 -0.0012503435536293378 5.5597146763139997e-08 3.1824236939344825e-08 -0.0010003121858146481 9.2498346794196987e-09 5.7065854791745184e-08 -0.0012503425828431537 9.225939689506529e-09 5.6956805714288378e-08 -0.0010003108269554843 5.0744035279017691e-09 1.5911412485628563e-09 -0.0012503414581541822 5.5597146763139977e-08 3.1824236939344825e-08 -0.0010003121858146479 9.2498346794196987e-09 5.7065854791745184e-08 -0.0012503425828431537 5.0744035279017691e-09 1.5911412485628563e-09 -0.0012503414581541822 5.5743474366420395e-08 3.2033117042703981e-08 -0.0012503435536293378 5.5597146763139997e-08 3.1824236939344825e-08 -0.0010003121858146481 9.225939689506529e-09 5.6956805714288378e-08 -0.0010003108269554843 5.0744035279017691e-09 1.5911412485628563e-09 -0.0012503414581541822 5.5597146763139997e-08 3.1824236939344818e-08 -0.0010003121858146481 4.8346962049821269e-09 1.3983879318321555e-09 -0.0010003090992639725 5.3729578100695598e-08 -2.0307142133947663e-08 -0.0012503421181923355 5.5597146763140017e-08 3.1824236939344825e-08 -0.0010003121858146481 5.3548642318484458e-08 -2.0498595187885487e-08 -0.0010003100243020683 4.8346962049821435e-09 1.3983879318321524e-09 -0.0010003090992639725 5.3729578100695598e-08 -2.0307142133947663e-08 -0.0012503421181923355 5.3548642318484458e-08 -2.0498595187885487e-08 -0.0010003100243020683 4.8346962049821476e-09 1.3983879318321642e-09 -0.0010003090992639725 2.1349674317980732e-08 -3.6552686224922838e-08 -0.0010003086994025004 9.2498346794196987e-09 5.7065854791745184e-08 -0.0012503425828431537 -2.4311754030182309e-08 7.1344841135731207e-08 -0.0010003098476221298 9.2259396895065323e-09 5.6956805714288378e-08 -0.0010003108269554845 -2.0015711053770498e-08 3.5780823702299509e-08 -0.0010003094382389499 9.225939689506529e-09 5.6956805714288378e-08 -0.0010003108269554843 5.0744035279017608e-09 1.591141248562857e-09 -0.001250341458154182 4.8346962049821269e-09 1.3983879318321555e-09 -0.0010003090992639725 -2.0015711053770498e-08 3.5780823702299509e-08 -0.0010003094382389499 9.225939689506529e-09 5.6956805714288378e-08 -0.0010003108269554843 1.0863505169607146e-08 5.7025658312755475e-08 -0.00075027893609821831 4.8346962049821269e-09 1.3983879318321555e-09 -0.0010003090992639725 -1.9288400763656135e-08 3.6138372476059378e-08 -0.00075027603314516687 1.0863505169607146e-08 5.7025658312755475e-08 -0.00075027893609821831 4.8346962049821186e-09 1.3983879318321561e-09 -0.0010003090992639725 4.9011464059138077e-09 1.8453467621994177e-09 -0.00075027577486464446 -1.9288400763656135e-08 3.6138372476059378e-08 -0.00075027603314516687 9.225939689506529e-09 5.6956805714288378e-08 -0.0010003108269554843 -2.3147509768748963e-08 7.1589185161288483e-08 -0.0007502768596568106 1.0863505169607149e-08 5.7025658312755475e-08 -0.00075027893609821842 -1.9288400763656135e-08 3.6138372476059378e-08 -0.00075027603314516687 -5.0587421278843372e-08 5.2435074041261628e-09 -0.0010003090507762966 4.8346962049821269e-09 1.3983879318321555e-09 -0.0010003090992639725 -2.0015711053770498e-08 3.5780823702299509e-08 -0.0010003094382389499 -1.9288400763656135e-08 3.6138372476059378e-08 -0.00075027603314516687 9.225939689506529e-09 5.6956805714288378e-08 -0.0010003108269554843 -2.3147509768748963e-08 7.1589185161288483e-08 -0.0007502768596568106 -2.0015711053770498e-08 3.5780823702299509e-08 -0.0010003094382389499 -1.9288400763656135e-08 3.6138372476059378e-08 -0.00075027603314516687 9.225939689506529e-09 5.6956805714288378e-08 -0.0010003108269554843 4.8346962049821269e-09 1.3983879318321555e-09 -0.0010003090992639725 -2.0015711053770498e-08 3.5780823702299509e-08 -0.0010003094382389499 -1.9288400763656135e-08 3.6138372476059378e-08 -0.00075027603314516687 4.8346962049821269e-09 1.3983879318321555e-09 -0.0010003090992639725 4.9011464059138077e-09 1.8453467621994177e-09 -0.00075027577486464446 2.0972709966661728e-08 -3.6314800531626459e-08 -0.00075027485815414897 -1.5289603755281577e-08 -5.552273363362617e-08 -0.001000308343392468 -5.0587421278843372e-08 5.2435074041261628e-09 -0.0010003090507762966 4.9011464059138069e-09 1.84534676219942e-09 -0.00075027577486464446 -1.6517860231310945e-08 -5.5258302737469965e-08 -0.00075027528327603979 -1.5289603755281577e-08 -5.552273363362617e-08 -0.001000308343392468 -5.0587421278843372e-08 5.2435074041261628e-09 -0.0010003090507762966 4.8346962049821269e-09 1.3983879318321555e-09 -0.0010003090992639725 4.9011464059138069e-09 1.8453467621994177e-09 -0.00075027577486464435 -1.5289603755281577e-08 -5.552273363362617e-08 -0.001000308343392468 -5.0587421278843372e-08 5.2435074041261628e-09 -0.0010003090507762966 4.8346962049821269e-09 1.3983879318321555e-09 -0.0010003090992639725 4.9011464059138061e-09 1.8453467621993906e-09 -0.00075027577486464446 -1.9288400763656135e-08 3.6138372476059378e-08 -0.00075027603314516687 5.3548642318484458e-08 -2.0498595187885487e-08 -0.0010003100243020683 4.8346962049821269e-09 1.3983879318321555e-09 -0.0010003090992639725 4.9011464059137912e-09 1.845346762199389e-09 -0.00075027577486464457 2.0972709966661735e-08 -3.6314800531626459e-08 -0.00075027485815414908 5.3548642318484458e-08 -2.0498595187885487e-08 -0.0010003100243020683 5.3660213007688462e-08 -1.9717044563996876e-08 -0.00075027714288926231 4.9011464059138284e-09 1.8453467621994266e-09 -0.00075027577486464446 2.0972709966661745e-08 -3.6314800531626472e-08 -0.00075027485815414908 5.3548642318484458e-08 -2.0498595187885487e-08 -0.0010003100243020683 4.8346962049821269e-09 1.3983879318321555e-09 -0.0010003090992639725 2.0972709966661735e-08 -3.6314800531626459e-08 -0.00075027485815414908 2.1349674317980722e-08 -3.6552686224922825e-08 -0.0010003086994025004 5.3548642318484458e-08 -2.0498595187885487e-08 -0.0010003100243020683 4.8346962049821269e-09 1.3983879318321555e-09 -0.0010003090992639725 5.6590588107896335e-08 3.2005912000150839e-08 -0.00075028212851734511 4.9011464059138176e-09 1.8453467621994343e-09 -0.00075027577486464457 5.3548642318484458e-08 -2.0498595187885487e-08 -0.0010003100243020683 5.6590588107896355e-08 3.2005912000150839e-08 -0.00075028212851734521 5.3660213007688462e-08 -1.9717044563996876e-08 -0.00075027714288926231 4.9011464059138251e-09 1.8453467621994146e-09 -0.00075027577486464446 5.5597146763139997e-08 3.1824236939344825e-08 -0.0010003121858146481 5.3548642318484458e-08 -2.0498595187885487e-08 -0.0010003100243020683 4.8346962049821269e-09 1.3983879318321555e-09 -0.0010003090992639725 5.6590588107896335e-08 3.2005912000150839e-08 -0.00075028212851734511 9.225939689506529e-09 5.6956805714288378e-08 -0.0010003108269554843 5.5759013623365729e-08 9.6692467893919281e-08 -0.001000313434773095 5.5597146763139997e-08 3.1824236939344825e-08 -0.0010003121858146481 5.6590588107896335e-08 3.2005912000150839e-08 -0.00075028212851734511 9.225939689506529e-09 5.6956805714288378e-08 -0.0010003108269554843 1.0863505169607146e-08 5.7025658312755475e-08 -0.00075027893609821831 4.8346962049821269e-09 1.3983879318321555e-09 -0.0010003090992639725 5.6590588107896315e-08 3.2005912000150839e-08 -0.00075028212851734511 1.0863505169607146e-08 5.7025658312755475e-08 -0.00075027893609821831 4.8346962049821269e-09 1.3983879318321555e-09 -0.0010003090992639725 5.6590588107896335e-08 3.2005912000150832e-08 -0.000750282128517345 4.9011464059138077e-09 1.8453467621994177e-09 -0.00075027577486464446 9.225939689506529e-09 5.6956805714288378e-08 -0.0010003108269554843 5.5597146763139997e-08 3.1824236939344831e-08 -0.0010003121858146481 4.8346962049821269e-09 1.3983879318321555e-09 -0.0010003090992639725 5.6590588107896335e-08 3.2005912000150839e-08 -0.00075028212851734511 5.724676900785744e-08 3.4703900529485813e-08 -0.0005002557259795019 1.2954418918770951e-08 5.6984947565504081e-08 -0.00050024587829834179 1.0863505169607146e-08 5.7025658312755475e-08 -0.00075027893609821831 4.9011464059138077e-09 1.8453467621994177e-09 -0.00075027577486464446 5.724676900785744e-08 3.4703900529485813e-08 -0.0005002557259795019 1.0863505169607166e-08 5.7025658312755468e-08 -0.00075027893609821831 5.7208157090135323e-08 9.5797191623076085e-08 -0.00075028561194401028 5.6590588107896335e-08 3.2005912000150839e-08 -0.00075028212851734511 5.724676900785744e-08 3.4703900529485813e-08 -0.0005002557259795019 1.0863505169607157e-08 5.7025658312755455e-08 -0.00075027893609821831 5.6590588107896335e-08 3.2005912000150839e-08 -0.00075028212851734511 4.9011464059138077e-09 1.8453467621994177e-09 -0.00075027577486464446 2.1894845554943911e-08 -3.3949311708798505e-08 -0.00050023619295787259 5.2838649358938693e-09 3.3952949656216745e-09 -0.00050024016759117043 5.3660213007688442e-08 -1.9717044563996889e-08 -0.00075027714288926242 4.9011464059138077e-09 1.8453467621994177e-09 -0.00075027577486464446 2.1894845554943911e-08 -3.3949311708798505e-08 -0.00050023619295787259 5.3660213007688476e-08 -1.9717044563996846e-08 -0.00075027714288926231 4.9011464059138036e-09 1.8453467621994127e-09 -0.00075027577486464446 2.0972709966661735e-08 -3.6314800531626459e-08 -0.00075027485815414908 5.2838649358938693e-09 3.3952949656216745e-09 -0.00050024016759117043 5.724676900785744e-08 3.4703900529485813e-08 -0.0005002557259795019 5.3660213007688442e-08 -1.9717044563996856e-08 -0.00075027714288926231 4.9011464059138077e-09 1.8453467621994177e-09 -0.00075027577486464446 5.724676900785744e-08 3.4703900529485813e-08 -0.0005002557259795019 5.6590588107896335e-08 3.2005912000150839e-08 -0.00075028212851734511 5.3660213007688482e-08 -1.9717044563996876e-08 -0.00075027714288926242 4.9011464059137986e-09 1.8453467621994365e-09 -0.00075027577486464457 -1.984167421183431e-08 3.6184649431000149e-08 -0.00050023855144423529 5.2838649358938693e-09 3.3952949656216745e-09 -0.00050024016759117043 4.9011464059138077e-09 1.8453467621994177e-09 -0.00075027577486464446 -5.0696960373753349e-08 5.2372885267698627e-09 -0.00075027633708765014 5.2838649358938693e-09 3.3952949656216745e-09 -0.00050024016759117043 4.9011464059138077e-09 1.8453467621994177e-09 -0.00075027577486464446 -5.0696960373753362e-08 5.2372885267698519e-09 -0.00075027633708765014 -1.6517860231310941e-08 -5.5258302737469951e-08 -0.0007502752832760399 -1.7767771593188337e-08 -5.5704108924301895e-08 -0.00050024072486093483 5.2838649358938693e-09 3.3952949656216745e-09 -0.00050024016759117043 -5.0696960373753382e-08 5.2372885267698768e-09 -0.00075027633708765024 -1.6517860231310928e-08 -5.5258302737469958e-08 -0.0007502752832760399 2.1894845554943911e-08 -3.3949311708798505e-08 -0.00050023619295787259 5.2838649358938693e-09 3.3952949656216745e-09 -0.00050024016759117043 4.901146405913787e-09 1.8453467621994072e-09 -0.00075027577486464446 -1.6517860231310905e-08 -5.5258302737469945e-08 -0.0007502752832760399 -1.984167421183431e-08 3.6184649431000149e-08 -0.00050023855144423529 -2.5388025849861895e-08 6.9262899321620892e-08 -0.00050024057870222275 1.0863505169607146e-08 5.7025658312755475e-08 -0.00075027893609821831 -1.9288400763656135e-08 3.6138372476059378e-08 -0.00075027603314516687 -1.984167421183431e-08 3.6184649431000149e-08 -0.00050023855144423529 4.9011464059138077e-09 1.8453467621994177e-09 -0.00075027577486464446 -1.9288400763656135e-08 3.6138372476059378e-08 -0.00075027603314516687 -5.0696960373753349e-08 5.2372885267698627e-09 -0.00075027633708765014 -1.984167421183431e-08 3.6184649431000149e-08 -0.00050023855144423529 1.2954418918770951e-08 5.6984947565504081e-08 -0.00050024587829834179 1.0863505169607146e-08 5.7025658312755475e-08 -0.00075027893609821831 4.9011464059138077e-09 1.8453467621994177e-09 -0.00075027577486464446 -1.984167421183431e-08 3.6184649431000149e-08 -0.00050023855144423529 1.0863505169607146e-08 5.7025658312755475e-08 -0.00075027893609821831 4.9011464059138077e-09 1.8453467621994177e-09 -0.00075027577486464446 -1.9288400763656135e-08 3.6138372476059378e-08 -0.00075027603314516687 -5.1292106952046617e-08 5.0051992100312015e-08 -0.00050023974058978945 -4.8833269693274657e-08 5.3221767397821769e-08 -0.00075027606906377328 -9.5745814794412087e-08 5.7468738857236557e-08 -0.00075027817874581118 -5.0696960373753349e-08 5.2372885267698627e-09 -0.00075027633708765014 -5.1292106952046617e-08 5.0051992100312015e-08 -0.00050023974058978945 -2.3147509768748963e-08 7.1589185161288483e-08 -0.0007502768596568106 -1.9288400763656135e-08 3.6138372476059378e-08 -0.00075027603314516687 -4.8833269693274657e-08 5.3221767397821769e-08 -0.00075027606906377328 -5.0937521584810313e-08 3.0301023285299102e-09 -0.00050024263110856864 -5.1292106952046617e-08 5.0051992100312015e-08 -0.00050023974058978945 -9.5745814794412087e-08 5.7468738857236557e-08 -0.00075027817874581118 -5.0696960373753349e-08 5.2372885267698627e-09 -0.00075027633708765014 -5.1292106952046617e-08 5.0051992100312015e-08 -0.00050023974058978945 -1.984167421183431e-08 3.6184649431000149e-08 -0.00050023855144423529 -1.9288400763656135e-08 3.6138372476059378e-08 -0.00075027603314516687 -5.0696960373753349e-08 5.2372885267698627e-09 -0.00075027633708765014 -5.1292106952046617e-08 5.0051992100312015e-08 -0.00050023974058978945 -1.9288400763656148e-08 3.6138372476059359e-08 -0.00075027603314516697 -4.8833269693274657e-08 5.3221767397821769e-08 -0.00075027606906377328 -5.0696960373753349e-08 5.2372885267698627e-09 -0.00075027633708765014 -5.0937521584810313e-08 3.0301023285299102e-09 -0.00050024263110856864 -9.5745814794412087e-08 5.7468738857236557e-08 -0.00075027817874581118 -1.1167816606067629e-07 1.937116427275397e-09 -0.00075027944562958235 -5.0696960373753349e-08 5.2372885267698627e-09 -0.00075027633708765014 -5.0937521584810313e-08 3.0301023285299102e-09 -0.00050024263110856864 -1.0132644689712483e-07 4.316407603506044e-08 -0.0005002481293266914 -9.5745814794412087e-08 5.7468738857236557e-08 -0.00075027817874581118 -1.1167816606067629e-07 1.937116427275397e-09 -0.00075027944562958235 -9.6696797392838794e-08 5.5736872092483362e-08 -0.001000309681705253 -1.1160382396190408e-07 -1.0407552412037389e-10 -0.0010003098271704296 -5.0587421278843379e-08 5.243507404126157e-09 -0.0010003090507762964 -5.0696960373753349e-08 5.2372885267698627e-09 -0.00075027633708765014 -9.6696797392838794e-08 5.5736872092483362e-08 -0.001000309681705253 -4.8833269693274684e-08 5.3221767397821769e-08 -0.00075027606906377317 -9.5745814794412087e-08 5.7468738857236557e-08 -0.00075027817874581118 -5.0696960373753349e-08 5.2372885267698627e-09 -0.00075027633708765014 -1.1160382396190408e-07 -1.0407552412037332e-10 -0.0010003098271704296 -9.57458147944121e-08 5.746873885723657e-08 -0.00075027817874581118 -1.1167816606067629e-07 1.937116427275397e-09 -0.00075027944562958235 -5.0696960373753349e-08 5.2372885267698627e-09 -0.00075027633708765014 -9.6696797392838794e-08 5.5736872092483362e-08 -0.001000309681705253 -1.1160382396190408e-07 -1.0407552412037412e-10 -0.0010003098271704296 -9.5745814794412087e-08 5.7468738857236557e-08 -0.00075027817874581118 -5.0696960373753349e-08 5.2372885267698627e-09 -0.00075027633708765014 -2.4311754030182309e-08 7.1344841135731207e-08 -0.0010003098476221298 -4.9447114614541378e-08 5.2943463953991548e-08 -0.001000309283499169 -2.0015711053770498e-08 3.5780823702299509e-08 -0.0010003094382389499 -4.8833269693274657e-08 5.3221767397821769e-08 -0.00075027606906377328 -9.6696797392838794e-08 5.5736872092483362e-08 -0.001000309681705253 -5.0587421278843372e-08 5.2435074041261628e-09 -0.0010003090507762966 -4.9447114614541378e-08 5.2943463953991548e-08 -0.001000309283499169 -4.8833269693274657e-08 5.3221767397821769e-08 -0.00075027606906377328 -2.3147509768748963e-08 7.1589185161288483e-08 -0.0007502768596568106 -2.0015711053770498e-08 3.5780823702299509e-08 -0.0010003094382389499 -1.9288400763656135e-08 3.6138372476059378e-08 -0.00075027603314516687 -4.8833269693274657e-08 5.3221767397821769e-08 -0.00075027606906377328 -5.0587421278843372e-08 5.2435074041261628e-09 -0.0010003090507762966 -4.9447114614541378e-08 5.2943463953991548e-08 -0.001000309283499169 -2.0015711053770498e-08 3.5780823702299509e-08 -0.0010003094382389499 -4.8833269693274657e-08 5.3221767397821769e-08 -0.00075027606906377328 -5.0587421278843372e-08 5.2435074041261628e-09 -0.0010003090507762966 -1.9288400763656151e-08 3.6138372476059405e-08 -0.00075027603314516687 -4.8833269693274657e-08 5.3221767397821769e-08 -0.00075027606906377328 -5.0696960373753349e-08 5.2372885267698627e-09 -0.00075027633708765014 -5.0587421278843372e-08 5.2435074041261628e-09 -0.0010003090507762966 -2.0015711053770498e-08 3.5780823702299509e-08 -0.0010003094382389499 -1.9288400763656135e-08 3.6138372476059378e-08 -0.00075027603314516687 -4.8833269693274657e-08 5.3221767397821769e-08 -0.00075027606906377328 -9.6696797392838794e-08 5.5736872092483362e-08 -0.001000309681705253 -5.0587421278843372e-08 5.2435074041261628e-09 -0.0010003090507762966 -4.8833269693274657e-08 5.3221767397821769e-08 -0.00075027606906377328 -5.0696960373753349e-08 5.2372885267698627e-09 -0.00075027633708765014 -5.0587421278843372e-08 5.2435074041261628e-09 -0.0010003090507762966 4.9011464059138358e-09 1.8453467621994119e-09 -0.00075027577486464446 -5.0696960373753349e-08 5.2372885267698627e-09 -0.00075027633708765014 -1.6517860231310902e-08 -5.5258302737469971e-08 -0.0007502752832760399 -5.0587421278843372e-08 5.2435074041261628e-09 -0.0010003090507762966 4.9011464059138317e-09 1.8453467621994026e-09 -0.00075027577486464446 -1.9288400763656135e-08 3.6138372476059378e-08 -0.00075027603314516687 -5.0696960373753349e-08 5.2372885267698627e-09 -0.00075027633708765014 -5.0587421278843372e-08 5.2435074041261628e-09 -0.0010003090507762966 -5.0696960373753349e-08 5.2372885267698627e-09 -0.00075027633708765014 -6.6853837380744409e-08 -4.0019456829076764e-08 -0.00075027668809743875 -1.6517860231310898e-08 -5.5258302737469978e-08 -0.00075027528327604 -1.1160382396190408e-07 -1.0407552412037332e-10 -0.0010003098271704296 -1.1167816606067629e-07 1.937116427275397e-09 -0.00075027944562958235 -6.6853837380744422e-08 -4.0019456829076764e-08 -0.00075027668809743875 -9.6580250494088058e-08 -5.5895439498081733e-08 -0.0010003085091025926 -1.1160382396190408e-07 -1.0407552412037332e-10 -0.0010003098271704296 -5.0587421278843372e-08 5.2435074041261628e-09 -0.0010003090507762966 -6.6853837380744422e-08 -4.0019456829076764e-08 -0.00075027668809743875 -6.6081770849157473e-08 -4.0498719986760988e-08 -0.0010003087200216583 -1.1160382396190408e-07 -1.0407552412037332e-10 -0.0010003098271704296 -1.1167816606067629e-07 1.937116427275397e-09 -0.00075027944562958235 -5.0696960373753335e-08 5.2372885267698834e-09 -0.00075027633708765014 -6.6853837380744435e-08 -4.0019456829076784e-08 -0.00075027668809743875 -1.1160382396190408e-07 -1.0407552412037332e-10 -0.0010003098271704296 -5.0587421278843372e-08 5.2435074041261628e-09 -0.0010003090507762966 -5.0696960373753349e-08 5.2372885267698627e-09 -0.00075027633708765014 -6.6853837380744422e-08 -4.0019456829076764e-08 -0.00075027668809743875 -6.5686352995869027e-08 -4.349518830159702e-08 -0.00050024544384602717 -1.0916643656631173e-07 -1.3238743784511231e-08 -0.00050025382444079513 -1.1167816606067629e-07 1.937116427275397e-09 -0.00075027944562958235 -9.7769776566245366e-08 -5.407881221031395e-08 -0.00075027635761765882 -6.5686352995869027e-08 -4.349518830159702e-08 -0.00050024544384602717 -5.0937521584810313e-08 3.0301023285299102e-09 -0.00050024263110856864 -1.1167816606067629e-07 1.937116427275397e-09 -0.00075027944562958235 -5.0696960373753349e-08 5.2372885267698627e-09 -0.00075027633708765014 -6.5686352995869027e-08 -4.349518830159702e-08 -0.00050024544384602717 -1.1167816606067629e-07 1.937116427275397e-09 -0.00075027944562958235 -5.0696960373753342e-08 5.2372885267698726e-09 -0.00075027633708765024 -6.6853837380744422e-08 -4.0019456829076764e-08 -0.00075027668809743875 -1.7767771593188337e-08 -5.5704108924301895e-08 -0.00050024072486093483 -6.5686352995869027e-08 -4.349518830159702e-08 -0.00050024544384602717 -5.0696960373753342e-08 5.2372885267698933e-09 -0.00075027633708765024 -1.6517860231310928e-08 -5.5258302737469958e-08 -0.0007502752832760399 -6.5686352995869027e-08 -4.349518830159702e-08 -0.00050024544384602717 -5.0696960373753388e-08 5.2372885267698519e-09 -0.00075027633708765014 -6.6853837380744422e-08 -4.0019456829076764e-08 -0.00075027668809743875 -1.6517860231310888e-08 -5.5258302737469978e-08 -0.0007502752832760399 -1.7767771593188337e-08 -5.5704108924301895e-08 -0.00050024072486093483 -6.5686352995869027e-08 -4.349518830159702e-08 -0.00050024544384602717 -5.7169568470787003e-08 -9.5809128041064603e-08 -0.00075027794126433583 -1.6517860231310928e-08 -5.5258302737469958e-08 -0.0007502752832760399 -6.5686352995869027e-08 -4.349518830159702e-08 -0.00050024544384602717 -6.6853837380744422e-08 -4.0019456829076764e-08 -0.00075027668809743875 -5.7169568470787016e-08 -9.5809128041064616e-08 -0.00075027794126433583 -1.6517860231310888e-08 -5.5258302737469932e-08 -0.0007502752832760399 -6.5686352995869027e-08 -4.349518830159702e-08 -0.00050024544384602717 -6.6853837380744422e-08 -4.0019456829076764e-08 -0.00075027668809743875 -9.7769776566245353e-08 -5.4078812210313963e-08 -0.00075027635761765882 -5.716956847078703e-08 -9.5809128041064603e-08 -0.00075027794126433583 -6.5686352995869027e-08 -4.349518830159702e-08 -0.00050024544384602717 -1.1167816606067629e-07 1.937116427275397e-09 -0.00075027944562958235 -6.6853837380744422e-08 -4.0019456829076764e-08 -0.00075027668809743875 -9.7769776566245366e-08 -5.407881221031395e-08 -0.00075027635761765882 -8.7987181054795224e-08 -6.6310360000070448e-08 -0.00050024670073543266 -6.5686352995869027e-08 -4.3495188301597013e-08 -0.00050024544384602717 -9.7769776566245366e-08 -5.407881221031395e-08 -0.00075027635761765882 -5.7169568470787003e-08 -9.5809128041064603e-08 -0.00075027794126433583 -6.6853837380744422e-08 -4.0019456829076764e-08 -0.00075027668809743875 -9.7769776566245366e-08 -5.407881221031395e-08 -0.00075027635761765882 -5.5764131920438637e-08 -9.66930664205865e-08 -0.0010003088704971992 -9.6580250494088045e-08 -5.589543949808174e-08 -0.0010003085091025926 -1.1167816606067629e-07 1.937116427275397e-09 -0.00075027944562958235 -6.6853837380744422e-08 -4.0019456829076764e-08 -0.00075027668809743875 -9.7769776566245366e-08 -5.407881221031395e-08 -0.00075027635761765882 -9.6580250494088058e-08 -5.5895439498081733e-08 -0.0010003085091025926 -1.1160382396190408e-07 -1.0407552412037332e-10 -0.0010003098271704296 -6.6853837380744448e-08 -4.0019456829076764e-08 -0.00075027668809743864 -6.6081770849157486e-08 -4.0498719986760995e-08 -0.0010003087200216583 -9.6580250494088058e-08 -5.5895439498081733e-08 -0.0010003085091025926 -6.6853837380744422e-08 -4.0019456829076764e-08 -0.00075027668809743875 -5.5764131920438656e-08 -9.66930664205865e-08 -0.0010003088704971992 -6.6081770849157473e-08 -4.0498719986760988e-08 -0.0010003087200216583 -9.6580250494088058e-08 -5.5895439498081746e-08 -0.0010003085091025926 -6.6853837380744422e-08 -4.0019456829076764e-08 -0.00075027668809743875 -1.5289603755281547e-08 -5.5522733633626157e-08 -0.001000308343392468 -5.5764131920438643e-08 -9.66930664205865e-08 -0.0010003088704971989 -6.6081770849157473e-08 -4.0498719986760988e-08 -0.0010003087200216583 -5.0587421278843372e-08 5.2435074041261628e-09 -0.0010003090507762966 -6.6853837380744409e-08 -4.0019456829076764e-08 -0.00075027668809743875 -1.5289603755281577e-08 -5.552273363362617e-08 -0.001000308343392468 -6.6081770849157473e-08 -4.0498719986760988e-08 -0.0010003087200216583 -6.6853837380744422e-08 -4.0019456829076764e-08 -0.00075027668809743875 -1.6517860231310928e-08 -5.5258302737469958e-08 -0.0007502752832760399 -1.5289603755281577e-08 -5.552273363362617e-08 -0.001000308343392468 -5.576413192043863e-08 -9.6693066420586513e-08 -0.0010003088704971992 -5.0587421278843372e-08 5.2435074041261628e-09 -0.0010003090507762966 -6.6853837380744422e-08 -4.0019456829076764e-08 -0.00075027668809743864 -1.6517860231310892e-08 -5.5258302737469938e-08 -0.00075027528327603979 -1.5289603755281577e-08 -5.552273363362617e-08 -0.001000308343392468 -6.6853837380744422e-08 -4.0019456829076764e-08 -0.00075027668809743875 -5.7169568470787003e-08 -9.5809128041064603e-08 -0.00075027794126433583 -1.6517860231310928e-08 -5.5258302737469958e-08 -0.0007502752832760399 -5.576413192043863e-08 -9.6693066420586513e-08 -0.0010003088704971992 -6.6853837380744422e-08 -4.0019456829076764e-08 -0.00075027668809743875 -9.7769776566245366e-08 -5.407881221031395e-08 -0.00075027635761765882 -5.7169568470787003e-08 -9.5809128041064603e-08 -0.00075027794126433583 -5.576413192043863e-08 -9.6693066420586513e-08 -0.0010003088704971992 -5.7169568470787003e-08 -9.5809128041064603e-08 -0.00075027794126433583 -1.6517860231310925e-08 -5.5258302737469958e-08 -0.0007502752832760399 8.8384109647168724e-11 -1.1160834157648682e-07 -0.0010003079305438449 -5.576413192043863e-08 -9.6693066420586513e-08 -0.0010003088704971992 -1.7767771593188337e-08 -5.5704108924301895e-08 -0.00050024072486093483 -4.4958685719926523e-08 -1.0091890764999083e-07 -0.0005002514200376962 -5.7169568470786983e-08 -9.5809128041064616e-08 -0.00075027794126433583 -1.9358016799814951e-09 -1.1165216154227682e-07 -0.00075027477368505417 2.1582090839418194e-08 -7.3848457570648681e-08 -0.00050023705050862978 -1.7767771593188337e-08 -5.5704108924301895e-08 -0.00050024072486093483 -1.935801679981512e-09 -1.1165216154227679e-07 -0.00075027477368505417 -1.6517860231310928e-08 -5.5258302737469958e-08 -0.0007502752832760399 -1.7767771593188337e-08 -5.5704108924301895e-08 -0.00050024072486093483 -5.7169568470786996e-08 -9.5809128041064616e-08 -0.00075027794126433583 -1.9358016799815215e-09 -1.1165216154227681e-07 -0.00075027477368505417 -1.6517860231310928e-08 -5.5258302737469958e-08 -0.0007502752832760399 2.1582090839418194e-08 -7.3848457570648681e-08 -0.00050023705050862978 -1.935801679981512e-09 -1.1165216154227679e-07 -0.00075027477368505417 -1.6517860231310928e-08 -5.5258302737469958e-08 -0.0007502752832760399 1.9435434997174925e-08 -7.5934527239549298e-08 -0.00075027448214383559 2.1582090839418194e-08 -7.3848457570648681e-08 -0.00050023705050862978 2.1894845554943911e-08 -3.3949311708798505e-08 -0.00050023619295787259 -1.6517860231310928e-08 -5.5258302737469958e-08 -0.0007502752832760399 1.9435434997174925e-08 -7.5934527239549298e-08 -0.00075027448214383559 2.1894845554943911e-08 -3.3949311708798505e-08 -0.00050023619295787259 4.9011464059137879e-09 1.8453467621994078e-09 -0.00075027577486464446 -1.6517860231310931e-08 -5.5258302737469932e-08 -0.0007502752832760399 2.0972709966661735e-08 -3.6314800531626459e-08 -0.00075027485815414908 2.1894845554943911e-08 -3.3949311708798505e-08 -0.00050023619295787259 -1.6517860231310918e-08 -5.5258302737469984e-08 -0.0007502752832760399 2.0972709966661735e-08 -3.6314800531626459e-08 -0.00075027485815414908 1.9435434997174925e-08 -7.5934527239549298e-08 -0.00075027448214383559 5.1807451634865326e-08 -5.3010039954965034e-08 -0.00050023741979403401 5.3660213007688429e-08 -1.9717044563996873e-08 -0.00075027714288926231 4.9139135632290078e-08 -5.6868644755029158e-08 -0.00075027506619268285 2.0972709966661758e-08 -3.6314800531626446e-08 -0.00075027485815414908 2.1894845554943911e-08 -3.3949311708798505e-08 -0.00050023619295787259 5.1807451634865326e-08 -5.3010039954965034e-08 -0.00050023741979403401 5.3660213007688462e-08 -1.9717044563996876e-08 -0.00075027714288926231 2.0972709966661735e-08 -3.6314800531626459e-08 -0.00075027485815414908 5.1807451634865326e-08 -5.3010039954965034e-08 -0.00050023741979403401 4.9139135632290078e-08 -5.6868644755029158e-08 -0.00075027506619268285 2.0972709966661735e-08 -3.6314800531626459e-08 -0.00075027485815414908 1.9435434997174925e-08 -7.5934527239549298e-08 -0.00075027448214383559 2.1894845554943911e-08 -3.3949311708798505e-08 -0.00050023619295787259 5.1807451634865326e-08 -5.3010039954965034e-08 -0.00050023741979403401 2.0972709966661735e-08 -3.6314800531626459e-08 -0.00075027485815414908 1.9435434997174925e-08 -7.5934527239549298e-08 -0.00075027448214383559 2.1582090839418194e-08 -7.3848457570648681e-08 -0.00050023705050862978 1.3426481430261384e-08 -1.0928212528302629e-07 -0.00050024180898278431 5.4071381424872131e-08 -9.7714249371913136e-08 -0.00075027446938382835 -1.935801679981512e-09 -1.1165216154227679e-07 -0.00075027477368505417 2.1582090839418194e-08 -7.3848457570648681e-08 -0.00050023705050862978 5.4071381424872131e-08 -9.7714249371913136e-08 -0.00075027446938382835 -1.935801679981512e-09 -1.1165216154227679e-07 -0.00075027477368505417 1.9435434997174925e-08 -7.5934527239549298e-08 -0.00075027448214383559 5.1807451634865326e-08 -5.3010039954965034e-08 -0.00050023741979403401 5.4071381424872157e-08 -9.7714249371913123e-08 -0.00075027446938382835 4.9139135632290085e-08 -5.6868644755029165e-08 -0.00075027506619268285 1.9435434997174925e-08 -7.5934527239549298e-08 -0.00075027448214383559 2.1582090839418194e-08 -7.3848457570648681e-08 -0.00050023705050862978 5.1807451634865326e-08 -5.3010039954965034e-08 -0.00050023741979403401 5.4071381424872131e-08 -9.7714249371913136e-08 -0.00075027446938382835 1.9435434997174925e-08 -7.5934527239549298e-08 -0.00075027448214383559 5.5901280242345591e-08 -9.6596000292080452e-08 -0.0010003082747488121 1.9435434997174925e-08 -7.5934527239549298e-08 -0.00075027448214383559 8.8384109647153486e-11 -1.1160834157648679e-07 -0.0010003079305438451 2.0284720685422022e-08 -7.6014200534226174e-08 -0.0010003081806353106 5.4071381424872131e-08 -9.7714249371913136e-08 -0.00075027446938382835 5.5901280242345591e-08 -9.6596000292080452e-08 -0.0010003082747488121 4.9139135632290078e-08 -5.6868644755029158e-08 -0.00075027506619268285 1.9435434997174925e-08 -7.5934527239549298e-08 -0.00075027448214383559 5.5901280242345591e-08 -9.6596000292080452e-08 -0.0010003082747488121 4.9139135632290078e-08 -5.6868644755029158e-08 -0.00075027506619268285 1.9435434997174925e-08 -7.5934527239549298e-08 -0.00075027448214383559 2.0284720685422022e-08 -7.6014200534226174e-08 -0.0010003081806353106 5.5901280242345591e-08 -9.6596000292080452e-08 -0.0010003082747488121 4.9139135632290078e-08 -5.6868644755029158e-08 -0.00075027506619268285 4.9519903553658144e-08 -5.7031958949171929e-08 -0.0010003088072656964 2.0284720685422022e-08 -7.6014200534226174e-08 -0.0010003081806353106 5.4071381424872131e-08 -9.7714249371913136e-08 -0.00075027446938382835 5.5901280242345591e-08 -9.6596000292080452e-08 -0.0010003082747488121 -1.9358016799815149e-09 -1.1165216154227679e-07 -0.00075027477368505417 1.9435434997174925e-08 -7.5934527239549298e-08 -0.00075027448214383559 5.5901280242345591e-08 -9.6596000292080452e-08 -0.0010003082747488121 -1.9358016799815248e-09 -1.1165216154227679e-07 -0.00075027477368505417 1.9435434997174925e-08 -7.5934527239549298e-08 -0.00075027448214383559 8.8384109647153486e-11 -1.1160834157648679e-07 -0.0010003079305438451 4.9139135632290078e-08 -5.6868644755029158e-08 -0.00075027506619268285 2.0972709966661735e-08 -3.6314800531626459e-08 -0.00075027485815414908 2.1349674317980722e-08 -3.6552686224922825e-08 -0.0010003086994025004 2.0284720685422022e-08 -7.6014200534226174e-08 -0.0010003081806353106 5.3548642318484458e-08 -2.0498595187885487e-08 -0.0010003100243020683 4.9139135632290078e-08 -5.6868644755029158e-08 -0.00075027506619268285 2.0972709966661735e-08 -3.6314800531626459e-08 -0.00075027485815414908 2.1349674317980722e-08 -3.6552686224922825e-08 -0.0010003086994025004 5.3548642318484458e-08 -2.0498595187885487e-08 -0.0010003100243020683 5.3660213007688462e-08 -1.9717044563996876e-08 -0.00075027714288926231 4.9139135632290078e-08 -5.6868644755029158e-08 -0.00075027506619268285 2.0972709966661735e-08 -3.6314800531626459e-08 -0.00075027485815414908 5.3548642318484458e-08 -2.0498595187885487e-08 -0.0010003100243020683 4.9139135632290078e-08 -5.6868644755029158e-08 -0.00075027506619268285 4.9519903553658144e-08 -5.7031958949171929e-08 -0.0010003088072656964 2.1349674317980722e-08 -3.6552686224922825e-08 -0.0010003086994025004 4.9139135632290078e-08 -5.6868644755029158e-08 -0.00075027506619268285 4.9519903553658144e-08 -5.7031958949171929e-08 -0.0010003088072656964 2.1349674317980722e-08 -3.6552686224922825e-08 -0.0010003086994025004 2.0284720685422022e-08 -7.6014200534226174e-08 -0.0010003081806353106 4.9139135632290078e-08 -5.6868644755029158e-08 -0.00075027506619268285 2.0972709966661735e-08 -3.6314800531626459e-08 -0.00075027485815414908 1.9435434997174925e-08 -7.5934527239549298e-08 -0.00075027448214383559 2.0284720685422022e-08 -7.6014200534226174e-08 -0.0010003081806353106 4.8346962049821269e-09 1.3983879318321555e-09 -0.0010003090992639725 2.0972709966661742e-08 -3.6314800531626459e-08 -0.00075027485815414908 -1.5289603755281577e-08 -5.552273363362617e-08 -0.001000308343392468 2.1349674317980722e-08 -3.6552686224922825e-08 -0.0010003086994025004 4.9011464059138077e-09 1.8453467621994177e-09 -0.00075027577486464446 -1.6517860231310928e-08 -5.5258302737469958e-08 -0.0007502752832760399 2.0972709966661735e-08 -3.6314800531626459e-08 -0.00075027485815414908 -1.5289603755281577e-08 -5.552273363362617e-08 -0.001000308343392468 2.0972709966661735e-08 -3.6314800531626459e-08 -0.00075027485815414908 -1.5289603755281563e-08 -5.5522733633626197e-08 -0.0010003083433924678 2.1349674317980722e-08 -3.6552686224922825e-08 -0.0010003086994025004 2.0284720685422022e-08 -7.6014200534226174e-08 -0.0010003081806353106 -1.6517860231310928e-08 -5.5258302737469958e-08 -0.0007502752832760399 2.0972709966661735e-08 -3.6314800531626459e-08 -0.00075027485815414908 1.9435434997174925e-08 -7.5934527239549298e-08 -0.00075027448214383559 -1.5289603755281577e-08 -5.552273363362617e-08 -0.001000308343392468 2.0972709966661735e-08 -3.6314800531626459e-08 -0.00075027485815414908 1.9435434997174925e-08 -7.5934527239549298e-08 -0.00075027448214383559 -1.5289603755281577e-08 -5.552273363362617e-08 -0.001000308343392468 2.0284720685422022e-08 -7.6014200534226174e-08 -0.0010003081806353106 1.9435434997174925e-08 -7.5934527239549298e-08 -0.00075027448214383559 8.8384109647153486e-11 -1.1160834157648679e-07 -0.0010003079305438451 -1.5289603755281577e-08 -5.552273363362617e-08 -0.001000308343392468 2.0284720685422022e-08 -7.6014200534226174e-08 -0.0010003081806353106 -1.935801679981512e-09 -1.1165216154227679e-07 -0.00075027477368505417 -1.6517860231310928e-08 -5.5258302737469958e-08 -0.0007502752832760399 1.9435434997174925e-08 -7.5934527239549298e-08 -0.00075027448214383559 8.8384109647153486e-11 -1.1160834157648679e-07 -0.0010003079305438451 -1.6517860231310928e-08 -5.5258302737469958e-08 -0.0007502752832760399 1.9435434997174925e-08 -7.5934527239549298e-08 -0.00075027448214383559 8.8384109647139773e-11 -1.1160834157648682e-07 -0.0010003079305438451 -1.5289603755281577e-08 -5.552273363362617e-08 -0.001000308343392468 -5.7169568470787003e-08 -9.5809128041064603e-08 -0.00075027794126433583 -1.9358016799815087e-09 -1.1165216154227678e-07 -0.00075027477368505417 -1.6517860231310928e-08 -5.5258302737469958e-08 -0.0007502752832760399 8.8384109647154029e-11 -1.1160834157648679e-07 -0.0010003079305438451 -1.6517860231310928e-08 -5.5258302737469958e-08 -0.0007502752832760399 8.8384109647135482e-11 -1.1160834157648683e-07 -0.0010003079305438451 -1.5289603755281577e-08 -5.552273363362617e-08 -0.001000308343392468 -5.576413192043861e-08 -9.6693066420586513e-08 -0.0010003088704971992 8.8384109647153486e-11 -1.1160834157648679e-07 -0.0010003079305438451 -1.5289603755281577e-08 -5.552273363362617e-08 -0.001000308343392468 2.0284720685422022e-08 -7.6014200534226174e-08 -0.0010003081806353106 4.6936882103689188e-11 -1.1152669516606871e-07 -0.0012503403611479169 8.8384109647153486e-11 -1.1160834157648679e-07 -0.0010003079305438451 -1.5289603755281577e-08 -5.552273363362617e-08 -0.001000308343392468 4.6936882103689188e-11 -1.1152669516606871e-07 -0.0012503403611479169 -5.576413192043863e-08 -9.6693066420586513e-08 -0.0010003088704971992 -1.5289603755281577e-08 -5.552273363362617e-08 -0.001000308343392468 2.1349674317980722e-08 -3.6552686224922825e-08 -0.0010003086994025004 2.0284720685422022e-08 -7.6014200534226174e-08 -0.0010003081806353106 -1.4921131825375764e-08 -5.5358332286620304e-08 -0.0012503407008390768 4.8346962049821269e-09 1.3983879318321555e-09 -0.0010003090992639725 -1.5289603755281577e-08 -5.552273363362617e-08 -0.001000308343392468 2.1349674317980722e-08 -3.6552686224922825e-08 -0.0010003086994025004 -1.4921131825375764e-08 -5.5358332286620304e-08 -0.0012503407008390768 5.3729578100695598e-08 -2.0307142133947663e-08 -0.0012503421181923355 5.3548642318484458e-08 -2.0498595187885487e-08 -0.0010003100243020683 4.9519903553658144e-08 -5.7031958949171929e-08 -0.0010003088072656964 2.1349674317980722e-08 -3.6552686224922825e-08 -0.0010003086994025004 4.9519903553658144e-08 -5.7031958949171929e-08 -0.0010003088072656964 2.1349674317980722e-08 -3.6552686224922825e-08 -0.0010003086994025004 2.0284720685422022e-08 -7.6014200534226174e-08 -0.0010003081806353106 2.0552200690115103e-08 -7.5820624169903944e-08 -0.0012503406778586032 5.5901280242345591e-08 -9.6596000292080452e-08 -0.0010003082747488121 5.5809813000018348e-08 -9.6562321400535187e-08 -0.0012503408498653562 4.9519903553658144e-08 -5.7031958949171929e-08 -0.0010003088072656964 2.0284720685422022e-08 -7.6014200534226174e-08 -0.0010003081806353106 5.5901280242345591e-08 -9.6596000292080452e-08 -0.0010003082747488121 5.5809813000018348e-08 -9.6562321400535187e-08 -0.0012503408498653562 8.8384109647150229e-11 -1.1160834157648679e-07 -0.0010003079305438449 2.0284720685422022e-08 -7.6014200534226174e-08 -0.0010003081806353106 5.5809813000018348e-08 -9.6562321400535187e-08 -0.0012503408498653562 4.9519903553658144e-08 -5.7031958949171929e-08 -0.0010003088072656964 2.0552200690115103e-08 -7.5820624169903944e-08 -0.0012503406778586032 4.9749962880143392e-08 -5.6816570661973024e-08 -0.0012503412354939113 5.5809813000018348e-08 -9.6562321400535187e-08 -0.0012503408498653562 4.9519903553658144e-08 -5.7031958949171929e-08 -0.0010003088072656964 2.0284720685422022e-08 -7.6014200534226174e-08 -0.0010003081806353106 2.0552200690115103e-08 -7.5820624169903944e-08 -0.0012503406778586032 5.5809813000018348e-08 -9.6562321400535187e-08 -0.0012503408498653562 2.0284720685422022e-08 -7.6014200534226174e-08 -0.0010003081806353106 2.0552200690115103e-08 -7.5820624169903944e-08 -0.0012503406778586032 4.6936882103689188e-11 -1.1152669516606871e-07 -0.0012503403611479169 5.5809813000018348e-08 -9.6562321400535187e-08 -0.0012503408498653562 8.8384109647141117e-11 -1.1160834157648679e-07 -0.0010003079305438451 2.0284720685422022e-08 -7.6014200534226174e-08 -0.0010003081806353106 4.6936882103689188e-11 -1.1152669516606871e-07 -0.0012503403611479169 4.9519903553658144e-08 -5.7031958949171929e-08 -0.0010003088072656964 2.0552200690115103e-08 -7.5820624169903944e-08 -0.0012503406778586032 4.9749962880143392e-08 -5.6816570661973024e-08 -0.0012503412354939113 2.1638622597325842e-08 -3.6329536571521736e-08 -0.001250341184636364 4.9519903553658144e-08 -5.7031958949171929e-08 -0.0010003088072656964 2.1349674317980722e-08 -3.6552686224922825e-08 -0.0010003086994025004 2.0552200690115103e-08 -7.5820624169903944e-08 -0.0012503406778586032 2.1638622597325842e-08 -3.6329536571521736e-08 -0.001250341184636364 5.3729578100695598e-08 -2.0307142133947663e-08 -0.0012503421181923355 4.9519903553658144e-08 -5.7031958949171929e-08 -0.0010003088072656964 4.9749962880143392e-08 -5.6816570661973024e-08 -0.0012503412354939113 2.1638622597325842e-08 -3.6329536571521736e-08 -0.001250341184636364 5.3729578100695598e-08 -2.0307142133947663e-08 -0.0012503421181923355 4.9519903553658144e-08 -5.7031958949171929e-08 -0.0010003088072656964 2.1349674317980722e-08 -3.6552686224922825e-08 -0.0010003086994025004 2.1638622597325842e-08 -3.6329536571521736e-08 -0.001250341184636364 2.1349674317980722e-08 -3.6552686224922825e-08 -0.0010003086994025004 2.0284720685422022e-08 -7.6014200534226174e-08 -0.0010003081806353106 2.0552200690115103e-08 -7.5820624169903944e-08 -0.0012503406778586032 -1.4921131825375764e-08 -5.5358332286620304e-08 -0.0012503407008390768 2.1349674317980722e-08 -3.6552686224922825e-08 -0.0010003086994025004 2.0552200690115103e-08 -7.5820624169903944e-08 -0.0012503406778586032 2.1638622597325842e-08 -3.6329536571521736e-08 -0.001250341184636364 -1.4921131825375764e-08 -5.5358332286620304e-08 -0.0012503407008390768 5.0744035279017691e-09 1.5911412485628563e-09 -0.0012503414581541822 2.1349674317980729e-08 -3.6552686224922825e-08 -0.0010003086994025004 2.1638622597325836e-08 -3.632953657152173e-08 -0.001250341184636364 -1.4921131825375764e-08 -5.5358332286620304e-08 -0.0012503407008390768 -1.5289603755281577e-08 -5.552273363362617e-08 -0.001000308343392468 -1.4921131825375764e-08 -5.5358332286620304e-08 -0.0012503407008390768 4.6936882103680968e-11 -1.1152669516606873e-07 -0.0012503403611479171 -5.5727520599251266e-08 -9.6607147328258887e-08 -0.0012503407329670557 -1.5289603755281577e-08 -5.552273363362617e-08 -0.001000308343392468 2.0284720685422022e-08 -7.6014200534226174e-08 -0.0010003081806353106 -1.4921131825375764e-08 -5.5358332286620304e-08 -0.0012503407008390768 4.6936882103680238e-11 -1.1152669516606873e-07 -0.0012503403611479171 2.0284720685422022e-08 -7.6014200534226174e-08 -0.0010003081806353106 2.0552200690115103e-08 -7.5820624169903944e-08 -0.0012503406778586032 -1.4921131825375764e-08 -5.5358332286620304e-08 -0.0012503407008390768 4.6936882103689188e-11 -1.1152669516606871e-07 -0.0012503403611479169 -1.5289603755281577e-08 -5.552273363362617e-08 -0.001000308343392468 4.6936882103680432e-11 -1.1152669516606869e-07 -0.0012503403611479171 -5.5727520599251266e-08 -9.6607147328258887e-08 -0.0012503407329670555 -5.576413192043863e-08 -9.6693066420586513e-08 -0.0010003088704971992 -1.5289603755281577e-08 -5.552273363362617e-08 -0.001000308343392468 -5.572752059925128e-08 -9.6607147328258874e-08 -0.0012503407329670557 -5.5764131920438637e-08 -9.6693066420586513e-08 -0.0010003088704971992 -6.6081770849157473e-08 -4.0498719986760988e-08 -0.0010003087200216583 -5.572752059925128e-08 -9.6607147328258874e-08 -0.0012503407329670557 -5.576413192043863e-08 -9.6693066420586513e-08 -0.0010003088704971992 -6.6081770849157486e-08 -4.0498719986760988e-08 -0.0010003087200216583 -9.6580250494088058e-08 -5.5895439498081733e-08 -0.0010003085091025926 -1.5289603755281577e-08 -5.552273363362617e-08 -0.001000308343392468 -1.4921131825375764e-08 -5.5358332286620304e-08 -0.0012503407008390768 -5.5727520599251286e-08 -9.6607147328258874e-08 -0.0012503407329670557 -6.6081770849157473e-08 -4.0498719986760988e-08 -0.0010003087200216583 -1.4921131825375764e-08 -5.5358332286620304e-08 -0.0012503407008390768 -5.5727520599251286e-08 -9.6607147328258874e-08 -0.0012503407329670557 -6.6081770849157473e-08 -4.0498719986760975e-08 -0.0010003087200216581 -6.5894813043287531e-08 -4.0343332649420081e-08 -0.0012503408563625529 -5.0413716873457192e-08 5.4701188370531967e-09 -0.0012503412682324357 -1.528960375528154e-08 -5.5522733633626164e-08 -0.001000308343392468 -1.4921131825375764e-08 -5.5358332286620304e-08 -0.0012503407008390768 -6.6081770849157473e-08 -4.0498719986760988e-08 -0.0010003087200216583 -5.0413716873457192e-08 5.4701188370531967e-09 -0.0012503412682324357 -1.4921131825375764e-08 -5.5358332286620304e-08 -0.0012503407008390768 -6.6081770849157473e-08 -4.0498719986760988e-08 -0.0010003087200216583 -6.5894813043287531e-08 -4.0343332649420081e-08 -0.0012503408563625529 -1.1152722233811466e-07 -1.8753531368727441e-11 -0.0012503415157257708 -6.60817708491575e-08 -4.0498719986760988e-08 -0.0010003087200216583 -6.5894813043287545e-08 -4.0343332649420087e-08 -0.0012503408563625529 -9.657752956610083e-08 -5.5792134093520349e-08 -0.0012503406584139141 -5.572752059925128e-08 -9.6607147328258874e-08 -0.0012503407329670557 -6.6081770849157473e-08 -4.0498719986760988e-08 -0.0010003087200216583 -6.5894813043287531e-08 -4.0343332649420081e-08 -0.0012503408563625527 -9.657752956610083e-08 -5.5792134093520349e-08 -0.0012503406584139141 -5.572752059925128e-08 -9.6607147328258874e-08 -0.0012503407329670557 -6.6081770849157486e-08 -4.0498719986761002e-08 -0.0010003087200216583 -9.657752956610083e-08 -5.5792134093520349e-08 -0.0012503406584139141 -9.6580250494088058e-08 -5.5895439498081733e-08 -0.0010003085091025926 -1.1160382396190408e-07 -1.0407552412037332e-10 -0.0010003098271704296 -6.6081770849157473e-08 -4.0498719986760988e-08 -0.0010003087200216583 -9.657752956610083e-08 -5.5792134093520349e-08 -0.0012503406584139141 -9.6580250494088058e-08 -5.5895439498081733e-08 -0.0010003085091025926 
</DataArray>
</PointData>
<CellData Scalars="" Vectors="" Tensors="effective_stress,">
<DataArray type="Float64" Name="effective_stress" NumberOfComponents="9" format="ascii">
-3329.1260620747826 -0.15913144773844534 -1.2980692489547891 -0.15913144773844534 -3329.6552357211458 -0.79589360593445235 -1.2980692489547891 -0.79589360593445235 -9999.0516423047266 -3329.2606030948277 -0.077295701906423431 -1.5429480574937315 -0.077295701906423431 -3329.8322195185215 -0.30004557732763715 -1.5429480574937315 -0.30004557732763715 -9999.129523509082 -3327.5279100193889 1.5865404321616163 -2.7500187121224826 1.5865404321616163 -3327.1117905312381 -1.1688711067240547 -2.7500187121224826 -1.1688711067240547 -10000.769021088172 -3327.9975336031498 1.6883312740291667 -2.1791743480960815 1.6883312740291667 -3330.4369198837662 -2.3247573764818439 -2.1791743480960815 -2.3247573764818439 -10001.717709322244 -3334.0570833494444 -0.35685190295100999 -1.0815219920968957 -0.35685190295100999 -3330.5677991533198 -1.1839918802734246 -1.0815219920968957 -1.1839918802734246 -9999.1329772339086 -3332.7168846023474 1.4997583635086242 -0.72021738244507105 1.4997583635086242 -3331.2665034498773 0.031339781979113468 -0.72021738244507105 0.031339781979113468 -9998.9726036212742 -3330.3546284833569 0.047803686457470573 -1.1544181756460148 0.047803686457470573 -3330.4630205047606 -0.36240087495934858 -1.1544181756460148 -0.36240087495934858 -9999.560730102774 -3330.0723961017752 0.22846719269782767 -1.1127030930929322 0.22846719269782767 -3329.9294762675677 -0.22208254171664521 -1.1127030930929322 -0.22208254171664521 -9999.3567859480809 -3329.6536304340834 -0.4851926434030347 -0.60071126484490378 -0.4851926434030347 -3328.0645461687473 -0.51469889847021477 -0.60071126484490378 -0.51469889847021477 -9997.726976583599 -3333.0481589567953 0.96187547825824771 -1.2826774485007704 0.96187547825824771 -3330.4582901308895 0.16726728579577432 -1.2826774485007704 0.16726728579577432 -9999.1740447048123 -3326.880448119522 2.0303741863618012 -3.5401932466938879 2.0303741863618012 -3328.062367417077 -0.24180847134025463 -3.5401932466938879 -0.24180847134025463 -9997.0331363170408 -3331.1862226802791 0.19322423896095392 0.0058069536606519812 0.19322423896095392 -3329.9882558833119 -1.3278492332685268 0.0058069536606519812 -1.3278492332685268 -9999.5193451120449 -3332.88862557229 0.6927570157771018 2.3645822635597029 0.6927570157771018 -3330.078729986265 -0.69581728922742536 2.3645822635597029 -0.69581728922742536 -9999.9675643607861 -3331.5193394589787 1.1948777189572894 3.0332274657739617 1.1948777189572894 -3328.6694411484373 0.1771292121075021 3.0332274657739617 0.1771292121075021 -9998.0239517600712 -3332.5910300101955 -0.4894743130372804 3.4766469111853775 -0.4894743130372804 -3332.8796494780345 -1.7514557763539464 3.4766469111853775 -1.7514557763539464 -9999.3444264802747 -3333.5278373031188 0.035270951924279814 2.7400889604283565 0.035270951924279814 -3334.8531491751046 -0.33060157443895655 2.7400889604283565 -0.33060157443895655 -10000.072003227773 -3332.0260036844397 -0.94355136729428968 0.79430821101141191 -0.94355136729428968 -3335.1667402073322 -0.78831352741519822 0.79430821101141191 -0.78831352741519822 -10003.043626521361 -3333.6244761436219 1.9424101095861135 -0.49788936683489737 1.9424101095861135 -3334.8255593348754 -0.12108095919938933 -0.49788936683489737 -0.12108095919938933 -10004.032339855527 -3335.412927143906 0.55486188099674871 -1.1829699077818829 0.55486188099674871 -3334.7583294005622 -2.1336065939232665 -1.1829699077818829 -2.1336065939232665 -10001.490132981546 -3334.7263853094109 1.7138976915427049 -0.64083718329902695 1.7138976915427049 -3332.3182881621287 -0.31911376001244207 -0.64083718329902695 -0.31911376001244207 -10003.680999353786 -3336.2966438056606 0.47300812962435623 -0.40597964054499092 0.47300812962435623 -3336.6733322327564 -0.76132051667420342 -0.40597964054499092 -0.76132051667420342 -10004.487934558025 -3331.9685716750164 -1.7928224608355561 -0.67883813871803356 -1.7928224608355561 -3330.3807103633244 -0.39877562046804504 -0.67883813871803356 -0.39877562046804504 -10000.904166227259 -3327.2426529316467 -1.784576098964711 -1.2308526243141387 -1.784576098964711 -3325.787863164408 1.3800080108662769 -1.2308526243141387 1.3800080108662769 -9997.4833544951616 -3330.5374239992484 -0.96654896632849474 0.019021348342868283 -0.96654896632849474 -3327.6411758187637 0.80995247828152017 0.019021348342868283 0.80995247828152017 -9999.8614956721776 -3332.9300913530055 -1.4612140671733143 -0.18054803477525638 -1.4612140671733143 -3331.5110157431209 -1.1086367807902207 -0.18054803477525638 -1.1086367807902207 -10002.355717322451 -3330.193548820148 0.11872951011360877 0.010365566970904183 0.11872951011360877 -3329.3936432073228 -0.77796471980536808 0.010365566970904183 -0.77796471980536808 -10001.142238555287 -3330.3489532758654 0.048885989159302534 0.43994240885012914 0.048885989159302534 -3329.4046219250663 -0.91990356341102597 0.43994240885012914 -0.91990356341102597 -10001.269914174471 -3330.4945807100535 0.21853812057901728 0.295637389976946 0.21853812057901728 -3330.2897105602738 -1.2215900887958924 0.295637389976946 -1.2215900887958924 -10001.52759319182 -3330.4918179458264 0.18362341152611739 0.47472461405959621 0.18362341152611739 -3330.6598948972069 -0.97349154869243648 0.47472461405959621 -0.97349154869243648 -10001.619448584997 -3330.5172580379394 0.083267135797745917 0.62409319708513067 0.083267135797745917 -3330.819332738366 -0.34756050243248637 0.62409319708513067 -0.34756050243248637 -10002.253978679975 -3330.4902951030404 0.058583722784157556 0.73556629395307027 0.058583722784157556 -3330.9675284757259 -0.56259723908351589 0.73556629395307027 -0.56259723908351589 -10002.284286880593 -3329.7936241110415 0.34531357803022655 0.60280371562748769 0.34531357803022655 -3329.7860983250357 -1.1200090443635418 0.60280371562748769 -1.1200090443635418 -10001.140371157438 -3329.3761795673663 0.076440295306499095 -0.042001649238500249 0.076440295306499095 -3328.913936213818 -0.64687595183386293 -0.042001649238500249 -0.64687595183386293 -9997.549285553514 -3329.0828575988216 0.34531357803022633 1.4774266125241411 0.34531357803022633 -3329.0753318128159 0.46215094470608165 1.4774266125241411 0.46215094470608165 -9999.0080716207794 -3330.6555454820486 -0.23186585711624508 0.47744587860142929 -0.23186585711624508 -3330.5854805925351 0.18726553260057699 0.47744587860142929 0.18726553260057699 -10000.376184818853 -3330.9582756674254 -0.71680762057769054 0.87509708928064356 -0.71680762057769054 -3330.8728524692156 0.10797866038592474 0.87509708928064356 0.10797866038592474 -10000.015731781941 -3330.3512303302646 -0.16474023253922487 0.46923311231876141 -0.16474023253922487 -3330.3060537816 -0.00077226527355378494 0.46923311231876141 -0.00077226527355378494 -9999.7222707757464 -3329.9728866312275 0.076440295306499095 1.3299321796816912 0.076440295306499095 -3329.5106432776793 0.42262993024814932 1.3299321796816912 0.42262993024814932 -9999.3394067450954 -3329.5455426077924 0.058583722784157889 0.94489999090092169 0.058583722784157889 -3330.0227759804784 -0.17923297182460374 0.94489999090092169 -0.17923297182460374 -9999.4500293948477 -3329.462715449356 0.45681488530306347 0.51109292248293059 0.45681488530306347 -3329.9959906843028 0.24554392231283373 0.51109292248293059 0.24554392231283373 -9999.9306048336221 -3330.2928256333612 0.097781289253843023 0.25680090196965466 0.097781289253843023 -3330.3880520243129 0.081137331346326391 0.25680090196965466 0.081137331346326391 -10000.3711018961 -3329.5725055426915 0.083267135797745917 0.83342689403343684 0.083267135797745917 -3329.8745802431185 0.035803764826425777 0.83342689403343684 0.035803764826425777 -9999.4197211942337 -3330.2202917738837 0.050594322427743865 0.22924151290135342 0.050594322427743865 -3330.3755696275221 0.13430066182905875 0.22924151290135342 0.13430066182905875 -10000.349847832031 -3330.2853950514918 0.030269841159827893 0.094307048126211157 0.030269841159827893 -3330.3166875717397 0.13154254212895466 0.094307048126211157 0.13154254212895466 -10000.114868071525 -3329.9160737264424 0.21853812057901706 -0.33847315599723515 0.21853812057901706 -3329.7112035766627 0.013881030165975972 -0.33847315599723515 0.013881030165975972 -9999.7920722409908 -3330.385953813141 0.072871206786799814 -0.076137428693982656 0.072871206786799814 -3329.8185403212819 0.20141756274279032 -0.076137428693982656 0.20141756274279032 -10000.252006015289 -3330.9079086560891 -0.22621673732254 -0.11893301623058505 -0.22621673732254 -3330.5878629025042 0.14213068259778083 -0.11893301623058505 0.14213068259778083 -10000.574825371328 -3329.985581116212 0.18362341152611805 0.17585419297029148 0.18362341152611805 -3330.1536580675925 0.25308303271322075 0.17585419297029148 0.25308303271322075 -10000.100738096158 -3330.2669019584073 0.037186950986832779 0.1809882676552661 0.037186950986832779 -3330.3271626631185 0.25162639584726776 0.1809882676552661 0.25162639584726776 -10000.112863571096 -3329.569962267009 0.11872951011360877 0.64004409496828885 0.11872951011360877 -3328.7700566541839 1.1981871765169672 0.64004409496828885 1.1981871765169672 -9999.2714788958747 -3330.3884674510564 -0.21458418678551361 0.38893291767089977 -0.21458418678551361 -3330.6154133235559 0.23836851441137696 0.38893291767089977 0.23836851441137696 -10000.31689849386 -3330.848884359008 0.87880656510836519 0.7612264651543228 0.87880656510836519 -3329.9993687719389 0.87564929252948787 0.7612264651543228 0.87564929252948787 -9999.680587550607 -3329.7949091288683 0.12810687524761599 0.29311974428037502 0.12810687524761599 -3330.9245694076985 0.072415228609315818 0.29311974428037502 0.072415228609315818 -10000.245797934349 -3329.6909347923988 0.048885989159302978 0.41179813537883092 0.048885989159302978 -3328.7466034415997 0.80285357441243832 0.41179813537883092 0.80285357441243832 -9999.2958587240755 -3330.0670254409329 -0.052458654555942008 0.18663422359350079 -0.052458654555942008 -3330.5164100299899 0.2429278270847135 0.18663422359350079 0.2429278270847135 -10000.110206283445 -3330.1809891992079 -0.21458418678551339 -0.13162271567671269 -0.21458418678551339 -3330.4079350717075 -0.029695032989366155 -0.13162271567671269 -0.029695032989366155 -9999.6944637383094 -3329.9001795428803 -0.052458654555942008 -0.18338080538342183 -0.052458654555942008 -3330.3495641319378 -0.11934267485048622 -0.18338080538342183 -0.11934267485048622 -9999.6096685892844 -3330.1135847948672 0.037186950986832779 -0.052988624973295373 0.037186950986832779 -3330.1738454995784 -0.0077450562477565654 -0.052988624973295373 -0.0077450562477565654 -9999.6529120804698 -3330.1021485563442 0.030269841159828337 -0.12546943298366386 0.030269841159828337 -3330.1334410765921 -0.15389574501205061 -0.12546943298366386 -0.15389574501205061 -9999.5651285860768 -3329.9340509826116 0.050594322427744087 0.11933487317764957 0.050594322427744087 -3330.0893288362495 0.02315640515467976 0.11933487317764957 0.02315640515467976 -9999.4911254582184 -3330.0065848420891 0.097781289253843343 0.14689426224686031 0.097781289253843343 -3330.1018112330412 -0.030006925329871592 0.14689426224686031 -0.030006925329871592 -9999.5123795222826 -3330.3009131280842 -0.16474023253922487 -0.034151536005083472 -0.16474023253922487 -3330.2557365794191 0.031478741353566875 -0.034151536005083472 0.031478741353566875 -9999.5713191692048 -3330.402036858899 -0.2318658571162453 -0.083279981970918016 -0.2318658571162453 -3330.3319719693854 0.018314813833057997 -0.083279981970918016 0.018314813833057997 -9999.6156589493985 -3330.4118982831151 -0.12683844444202697 -0.045561539007394458 -0.12683844444202697 -3330.1245325595382 0.18463829410575272 -0.045561539007394458 0.18463829410575272 -9999.3514819319826 -3330.5012717875452 -0.0012977912542172509 -0.17244246397058305 -0.0012977912542172509 -3330.0903516671442 0.16164668957753747 -0.17244246397058305 0.16164668957753747 -9999.3652800849923 -3329.8079298995112 0.36598371978161914 1.0007834538491807 0.36598371978161914 -3330.4078890345668 0.19060416047432227 1.0007834538491807 0.19060416047432227 -9998.9901231581043 -3329.9043363293104 0.22846719269782789 1.0826061860407208 0.22846719269782789 -3329.7614164951033 0.10878142821093206 1.0826061860407208 0.10878142821093206 -9998.8526066306877 -3329.0925433223624 -0.077295701906423542 0.65236122164105836 -0.077295701906423542 -3329.6641597460562 0.030818392599030631 0.65236122164105836 0.030818392599030631 -9998.6253441916888 -3330.2807351702081 0.059678011313607199 0.33871787601583492 0.059678011313607199 -3330.1795139613992 -0.24542678999023337 0.33871787601583492 -0.24542678999023337 -9999.3568921012957 -3330.4216805219448 -0.12683844444202697 0.36592255861251033 -0.12683844444202697 -3330.1343147983685 -0.15391754477877839 0.36592255861251033 -0.15391754477877839 -9999.3808286484746 -3330.490510715455 -0.28542822497811304 0.5437838275292961 -0.28542822497811304 -3329.6840214252916 -0.075322980548662599 0.5437838275292961 -0.075322980548662599 -9999.6015827829669 -3330.8386609603708 -0.3157244652071336 0.58981157221342073 -0.3157244652071336 -3330.9653943888738 0.079501989745040191 0.58981157221342073 0.079501989745040191 -10000.008963585093 -3330.5110540263745 -0.0012977912542172509 0.23904163365114073 -0.0012977912542172509 -3330.1001339059731 -0.17690914930972212 0.23904163365114073 -0.17690914930972212 -9999.3946268014824 -3329.4700297810555 0.0042464091518382152 0.58487246157119444 0.0042464091518382152 -3331.1346644081418 -0.54184146391799004 0.58487246157119444 -0.54184146391799004 -9999.4126071828341 -3330.6281310838085 0.069829702107288366 0.33066508790625448 0.069829702107288366 -3330.2554056215731 -0.36243483623002248 0.33066508790625448 -0.36243483623002248 -9999.4627139947406 -3329.0881083866984 -0.15913144773844534 0.75924451084460998 -0.15913144773844534 -3329.6172820330617 -0.89492239155015341 0.75924451084460998 -0.89492239155015341 -9998.9377812404764 -3330.6601575861305 0.069829702107288366 -0.048441846521654952 0.069829702107288366 -3330.2874321238951 0.071077911732572829 -0.048441846521654952 0.071077911732572829 -9999.5587935017102 -3330.1377855991223 0.12669829388290249 0.042661465377022978 0.12669829388290249 -3330.149974354601 0.02466933272080496 0.042661465377022978 0.02466933272080496 -9999.5288059578161 -3330.3667496306034 0.05967801131360731 0.093253031221138372 0.05967801131360731 -3330.2655284217944 0.054427803417638643 0.093253031221138372 0.054427803417638643 -9999.6149354824847 -3330.1544736007909 0.082186749737423959 0.048828001037691138 0.082186749737423959 -3330.1726446922448 0.1039297441357121 0.048828001037691138 0.1039297441357121 -9999.5386455426415 -3330.2598546727777 0.17187824409989019 0.13070326960769307 0.17187824409989019 -3330.2613047262521 0.20267296639030974 0.13070326960769307 0.20267296639030974 -9999.3176628093279 -3330.281637416309 0.17187824409989022 0.41286532380763674 0.17187824409989022 -3330.2830874697825 -0.27009728053189974 0.41286532380763674 -0.27009728053189974 -9999.3830110399194 -3329.4612800246928 -0.37586067408420554 0.7296005633970708 -0.37586067408420554 -3329.7101029921701 -0.74177636141939729 0.7296005633970708 -0.74177636141939729 -9998.6415519982183 -3330.6866194903291 0.4870918894693711 0.19653683738317795 0.4870918894693711 -3331.0174951515887 0.067879231063670886 0.19653683738317795 0.067879231063670886 -10000.019832833115 -3330.7827396671223 -1.0328135842648498 0.63066070019340259 -1.0328135842648498 -3330.9889092091666 -0.85291795400530646 0.63066070019340259 -0.85291795400530646 -9999.291618463074 -3330.4496230101126 0.04780368645747067 0.34690794162770544 0.04780368645747067 -3330.5580150315168 0.017847449592409248 0.34690794162770544 0.017847449592409248 -9999.8457136830402 -3329.9176789061125 0.25923785182130799 0.216722404000393 0.25923785182130799 -3330.0021630775232 0.42159945987305036 0.216722404000393 0.42159945987305036 -9999.5737646685429 -3330.0202600230837 0.2070185986415212 0.17756019928810929 0.2070185986415212 -3330.2818629037079 -0.081764605180524086 0.17756019928810929 -0.081764605180524086 -9999.6693349043326 -3330.2784838260022 0.048632120449948468 -0.20018708150928433 0.048632120449948468 -3330.5042672890086 -0.26603077051731816 -0.20018708150928433 -0.26603077051731816 -10000.063925163733 -3329.6322323220616 0.14050801414991207 0.58716094467854418 0.14050801414991207 -3329.8126903099578 0.051160920989786973 0.58716094467854418 0.051160920989786973 -9999.4550348306384 -3329.9934061684621 0.093437746065118121 0.11351217783840184 0.093437746065118121 -3330.1414638989686 -0.29075541233305557 0.11351217783840184 -0.29075541233305557 -10000.321347149858 -3330.2402229849245 0.071675294164539993 -0.13923159893420234 0.071675294164539993 -3330.3739466171769 -0.16384565935555884 -0.13923159893420234 -0.16384565935555884 -10000.021779785508 -3330.342664765778 -0.097114617087581179 0.13742961914340412 -0.097114617087581179 -3329.9318589950162 -0.25066047263680957 0.13742961914340412 -0.25066047263680957 -10000.356260573199 -3330.2253801155712 0.15833428362667024 -0.044237759208044736 0.15833428362667024 -3330.3742172742914 -0.16598760354463593 -0.044237759208044736 -0.16598760354463593 -10000.018136732448 -3328.8525716189065 0.61801872180414053 0.37856042454131966 0.61801872180414053 -3329.581872762295 0.055864496235699335 0.37856042454131966 0.055864496235699335 -9999.2024152679351 -3330.8742531376915 -0.64383539944764934 0.17286421488870474 -0.64383539944764934 -3329.8663003551878 -0.85569149315347204 0.17286421488870474 -0.85569149315347204 -9999.271664067297 -3329.3616507963143 -0.21598280447733026 0.73169540631761265 -0.21598280447733026 -3329.2971398127793 -0.76700131030565899 0.73169540631761265 -0.76700131030565899 -9998.5134038962751 -3330.3907105538624 0.0616444202669683 0.21018295350313565 0.0616444202669683 -3330.4017240248872 -0.096439810839910933 0.21018295350313565 -0.096439810839910933 -9999.7919128173216 -3329.7616343452387 -0.36699432235903084 0.40168703882409318 -0.36699432235903084 -3329.6898792462985 -0.64871189292712472 0.40168703882409318 -0.64871189292712472 -9998.9494040919617 -3330.2281380686381 0.0616444202669683 0.1267283876077272 0.0616444202669683 -3330.239151539663 0.25053631421269529 0.1267283876077272 0.25053631421269529 -9999.3041953616485 -3330.0120774165089 0.15833428362667024 0.23702259638594114 0.15833428362667024 -3330.1609145752291 0.24108767797042674 0.23702259638594114 0.24108767797042674 -9999.3782286352616 -3330.1642782177651 0.048632120449948468 0.014041825355889159 0.048632120449948468 -3330.3900616807714 -0.050301352697715629 0.014041825355889159 -0.050301352697715629 -9999.7213083390161 -3330.0756744186847 0.071675294164539993 0.07082781143799366 0.071675294164539993 -3330.2093980509371 0.081929933839944624 0.07082781143799366 0.081929933839944624 -9999.5281340867914 -3330.0256526369531 0.066213564506242939 -0.17336185224667133 0.066213564506242939 -3330.2693600607063 -0.10003861411041726 -0.17336185224667133 -0.10003861411041726 -9999.5939956235488 -3329.8648649730867 0.016886737117964845 -0.20204992073195172 0.016886737117964845 -3330.2642368800807 -0.070846213944605552 -0.20204992073195172 -0.070846213944605552 -9999.4675354591709 -3330.2178994966698 0.046302396692583736 -0.14979029969435942 0.046302396692583736 -3330.3286619485662 -0.28331575314223301 -0.14979029969435942 -0.28331575314223301 -9999.6428715391521 -3330.1635817028173 0.070658614315960988 -0.10778878643395728 0.070658614315960988 -3330.1661567096753 -0.18945384345079219 -0.10778878643395728 -0.18945384345079219 -9999.5886657809679 -3330.3135527974528 0.095826928268569755 -0.23421930481435993 0.095826928268569755 -3330.3695991257164 -0.095790508596110158 -0.23421930481435993 -0.095790508596110158 -9999.6910304299272 -3330.9726154063383 -0.11972152420971738 -0.98969006007519056 -0.11972152420971738 -3330.5708475060201 -0.010008695851695393 -0.98969006007519056 -0.010008695851695393 -9999.997793318129 -3330.3677087825808 -0.1143345699281072 -0.42733071758630103 -0.1143345699281072 -3330.0579281851205 0.070202902781360876 -0.42733071758630103 0.070202902781360876 -9998.9254752667584 -3330.0330822277324 0.095826928268569755 -0.39716566819970467 0.095826928268569755 -3330.089128555996 0.12595282713664346 -0.39716566819970467 0.12595282713664346 -9998.849618720762 -3330.3991567575076 0.27008131052170048 -0.69682053088808971 0.27008131052170048 -3330.3803973900212 -0.067455093788339582 -0.69682053088808971 -0.067455093788339582 -9999.9595902437832 -3329.9465987808162 0.22188964778689224 -0.16303339991009125 0.22188964778689224 -3329.9849238095685 -0.33895132235466008 -0.16303339991009125 -0.33895132235466008 -9999.8681335628062 -3329.7635345129329 0.3998415654691172 -0.25720832051320031 0.3998415654691172 -3329.6908258783715 -0.4744824894814883 -0.25720832051320031 -0.4744824894814883 -9999.6282918047254 -3329.9430334354643 0.046302396692583736 -0.30341791043429112 0.046302396692583736 -3330.0537958873606 -0.028357296157992096 -0.30341791043429112 -0.028357296157992096 -9998.8182733555368 -3330.1628653612238 0.11948373403637796 -0.28912711071802732 0.11948373403637796 -3330.5832415476284 -0.62073632431656733 -0.28912711071802732 -0.62073632431656733 -10000.071779642425 -3330.215554037633 0.18240332975124285 -0.33878564679230294 0.18240332975124285 -3330.9108946021793 -0.65678553138968709 -0.33878564679230294 -0.65678553138968709 -10000.046313866853 -3330.4414422243508 0.070658614315960822 0.033205004494448076 0.070658614315960822 -3330.4440172312088 -0.018484406986317481 0.033205004494448076 -0.018484406986317481 -10000.422247345572 -3329.9660331766117 0.46823538274343662 0.088040945880607069 0.46823538274343662 -3329.5904116639513 0.55058451130116737 0.088040945880607069 0.55058451130116737 -9999.6538129170403 -3329.1580518265409 0.20154163811601505 0.44308510175596894 0.20154163811601505 -3330.0723036401118 -0.0068040041210224445 0.44308510175596894 -0.0068040041210224445 -9999.3655386144437 -3330.856677401774 0.032168793580957256 0.53135010486676038 0.032168793580957256 -3330.3164429399008 -0.12314526907402978 0.53135010486676038 -0.12314526907402978 -10000.057981792317 -3330.26091989413 0.12669829388290249 0.048531433703828952 0.12669829388290249 -3330.2731086496087 0.042756394781463314 0.048531433703828952 0.042756394781463314 -9999.8982088428347 -3330.4867790662388 0.082186749737423959 -0.12515564031127724 0.082186749737423959 -3330.5049501576927 0.011924785545488703 -0.12515564031127724 0.011924785545488703 -10000.535561938983 -3330.3326075104997 0.066213564506242939 -0.33903509704759927 0.066213564506242939 -3330.5763149342529 -0.14194844734538492 -0.33903509704759927 -0.14194844734538492 -10000.51486024419 -3329.9071043408039 0.20798211331784788 -0.76445444638557092 0.20798211331784788 -3330.2069363427918 -0.062733962733091175 -0.76445444638557092 -0.062733962733091175 -9999.7932118777971 -3328.9344933969901 -0.1975368970305309 -1.1525576566300515 -0.1975368970305309 -3329.8858069545427 0.0013601456870446782 -1.1525576566300515 0.0013601456870446782 -9999.3170026779244 -3330.656772256672 0.1733567828856708 -0.2008935812400523 0.1733567828856708 -3330.3283477367218 -0.32849173122122011 -0.2008935812400523 -0.32849173122122011 -10000.533909631349 -3329.4435901335455 0.004893065468715152 -0.92890327290206187 0.004893065468715152 -3329.8100782151141 -0.30065784614816948 -0.92890327290206187 -0.30065784614816948 -9999.4253446772072 -3330.8876343443694 0.25923785182130821 0.15556761159314192 0.25923785182130821 -3330.9721185157805 0.99271084744395921 0.15556761159314192 0.99271084744395921 -10002.483630983319 -3330.8087007653562 0.20798211331784811 -0.78472185062855715 0.20798211331784811 -3331.1085327673441 0.31622989123934531 -0.78472185062855715 0.31622989123934531 -10002.498001151456 -3329.6592189302896 0.20701859864152117 0.13843900205074533 0.20701859864152117 -3329.9208218109138 0.027246630718082088 0.13843900205074533 0.027246630718082088 -9998.5862116259523 -3329.3728264935776 0.11948373403637796 0.88569437790215488 0.11948373403637796 -3329.7932026799822 -0.33129843055121455 0.88569437790215488 -0.33129843055121455 -9997.7016630394828 -3330.7604300090929 0.22188964778689213 -0.0944681842238424 0.22188964778689213 -3330.7987550378452 -0.93241385256078502 -0.0944681842238424 -0.93241385256078502 -10002.309627247636 -3329.6799769945701 0.25392606328146461 0.4367836490382615 0.25392606328146461 -3329.5675715605116 0.22313932206383669 0.4367836490382615 0.22313932206383669 -9997.7220428848632 -3329.6573383731838 0.27008131052170037 0.48957880081070471 0.27008131052170037 -3329.6385790056979 0.32071336147328111 0.48957880081070471 0.32071336147328111 -9997.7341350908118 -3333.0466636688438 0.98552891738120552 -0.85337448977759722 0.98552891738120552 -3331.2025557082352 0.83503089727284385 -0.85337448977759722 0.83503089727284385 -10000.147981371274 -3334.8940560900082 -0.16848365889565267 -1.246966241494964 -0.16848365889565267 -3334.6043323010294 0.076757096710195594 -1.246966241494964 0.076757096710195594 -10001.06579853841 -3334.9268404611312 -0.20352258369874199 0.47286267306224383 -0.20352258369874199 -3334.8277699603677 -1.7113363697872737 0.47286267306224383 -1.7113363697872737 -10001.385971450803 -3330.1475545408357 -0.012449614841149328 -1.4527966220487212 -0.012449614841149328 -3332.1644637072081 -3.3811603298555664 -1.4527966220487212 -3.3811603298555664 -9999.2692060026639 -3332.2734272202606 -1.6324936721088907 -0.47444809469284532 -1.6324936721088907 -3332.5461732439098 -1.1948186008796324 -0.47444809469284532 -1.1948186008796324 -9999.8961015566947 -3334.409654035464 -0.017029813293125994 -0.41090844577236263 -0.017029813293125994 -3332.873298685412 -3.6863234239364573 -0.41090844577236263 -3.6863234239364573 -10000.768057025647 -3331.9156890395875 -1.1843094101900884 -0.0096724333325255429 -1.1843094101900884 -3332.0655586760249 -0.55351912947480741 -0.0096724333325255429 -0.55351912947480741 -9998.9720685371194 -3330.4928911420175 0.23072098127838045 0.38976900208763254 0.23072098127838045 -3332.4779801315717 3.2576697241061083 0.38976900208763254 3.2576697241061083 -9999.4339192590487 -3330.0449819111141 1.0439649980741397 3.5591156806962596 1.0439649980741397 -3330.8055734430714 -1.1481344934800386 3.5591156806962596 -1.1481344934800386 -9998.9038402791975 -3333.3332393747264 -0.87581697119296364 -3.1458307862828025 -0.87581697119296364 -3330.9497946916536 0.99505396461043016 -3.1458307862828025 0.99505396461043016 -10000.1564350436 -3334.397597567528 0.073112025677182113 -2.46287027402356 0.073112025677182113 -3335.618831429319 0.072799014908040971 -2.46287027402356 0.072799014908040971 -10001.589783776217 -3332.1567223326451 1.2252728300984694 -0.47294658644787835 1.2252728300984694 -3335.3273942095102 -0.10478461168452613 -0.47294658644787835 -0.10478461168452613 -10003.889721903819 -3332.9825118510917 -0.61810353660711936 -3.7853235802142757 -0.61810353660711936 -3333.8916132464133 0.25394508845413899 -3.7853235802142757 0.25394508845413899 -10000.409732715028 -3334.2346585479227 1.9291247650954824 0.99069077123976967 1.9291247650954824 -3334.3046419654652 0.15758769185049459 0.99069077123976967 0.15758769185049459 -10004.153517896628 -3334.6794401797911 0.64052412226219602 1.6720848684388714 0.64052412226219602 -3333.7701496831241 2.5640372385921535 1.6720848684388714 2.5640372385921535 -9999.5127064224343 -3331.0244677678438 -1.7792990039744443 2.0666878201354848 -1.7792990039744443 -3332.4079522674137 2.5551396352990992 2.0666878201354848 2.5551396352990992 -9998.2584139655228 -3336.7628641859214 0.48959720325688288 0.93498384125344014 0.48959720325688288 -3337.0401077071197 0.064201197438519042 0.93498384125344014 0.064201197438519042 -10005.469435741541 -3330.2781696158522 0.1405080141499121 -0.11684077998188513 0.1405080141499121 -3330.4586276037485 1.2266030503615184 -0.11684077998188513 1.2266030503615184 -10001.392846712017 -3330.6104830304521 -0.36699432235903084 -0.036642184453739901 -0.36699432235903084 -3330.5387279315114 1.2247947129308585 -0.036642184453739901 1.2247947129308585 -10001.495950147606 -3330.3618132781071 0.093437746065118121 -0.36974854898426202 0.093437746065118121 -3330.5098710086131 0.80263120408835675 -0.36974854898426202 0.80263120408835675 -10001.426568478795 -3334.8829572968962 -0.3243306156995861 -1.5266146382927828 -0.3243306156995861 -3334.6283008199898 -0.38382362180440488 -1.5266146382927828 -0.38382362180440488 -9999.7781234859285 -3333.0194070168659 -0.16603774547911393 0.18803869430056164 -0.16603774547911393 -3332.2039353741752 4.0480834055304324 0.18803869430056164 4.0480834055304324 -9998.7061445544678 -3333.3874801329489 0.26717559802434376 -0.091072756925787424 0.26717559802434376 -3333.6009300512392 0.46057663141375915 -0.091072756925787424 0.46057663141375915 -9999.147411502754 -3325.3940593000293 2.4771183499179927 0.11717247729848168 2.4771183499179927 -3326.3575365201182 0.71217890619209356 0.11717247729848168 0.71217890619209356 -9996.0380086975601 -3329.867186200056 -1.1756150416927791 -0.27228735668541049 -1.1756150416927791 -3332.6846084398103 -0.80116596137622764 -0.27228735668541049 -0.80116596137622764 -9998.0382576166739 -3330.824270440869 -0.6142726147826757 -0.73903592468567192 -0.6142726147826757 -3333.6382007218158 -0.24962114387021805 -0.73903592468567192 -0.24962114387021805 -9999.2157275331938 -3329.6643246693898 -0.37586067408420554 -0.96752449834548315 -0.37586067408420554 -3329.9131476368671 -0.42458452166738425 -0.96752449834548315 -0.42458452166738425 -9999.2506859323094 -3328.7822918813972 -0.21598280447733056 -0.3681167764817701 -0.21598280447733056 -3328.7177808978618 0.35275932477406968 -0.3681167764817701 0.35275932477406968 -9996.775327151523 -3329.9861213097893 -0.23231260868378259 -0.81561714855672474 -0.23231260868378259 -3330.8174077450358 0.67252792952408047 -0.81561714855672474 0.67252792952408047 -9998.3009920062304 -3327.9883104916107 0.58048822421906443 -0.1513233579573563 0.58048822421906443 -3329.16727694785 1.1838161494836423 -0.1513233579573563 1.1838161494836423 -9996.9596292201404 -3329.712813120691 -0.65376361565207275 2.2512586257327176 -0.65376361565207275 -3332.1111771246947 3.357049789116878 2.2512586257327176 3.357049789116878 -9998.1267299216215 -3328.7550574174911 -1.355665368897617 2.0796653882678822 -1.355665368897617 -3328.8463155761306 0.65097354875413416 2.0796653882678822 0.65097354875413416 -9997.071075608681 -3334.898515532017 -0.72729819051982525 0.72166153540274269 -0.72729819051982525 -3332.3701752701259 1.1285647984472611 0.72166153540274269 1.1285647984472611 -10003.550031306662 -3326.9257754492214 -1.0301438258084832 1.2753220203630917 -1.0301438258084832 -3328.8394828604892 0.58225910051282881 1.2753220203630917 0.58225910051282881 -9999.1447579861797 -3332.0817280909978 -1.7537641505202251 1.2795481036198852 -1.7537641505202251 -3330.7395655351233 0.58285026201576695 1.2795481036198852 0.58285026201576695 -10000.908766815282 -3333.4736741943975 -1.3682708020822534 0.43757484228060606 -1.3682708020822534 -3331.9196378747088 1.5135259923217483 0.43757484228060606 1.5135259923217483 -10003.081186623403 -3330.6680715285115 -0.87833764858835184 -0.13015294725516346 -0.87833764858835184 -3328.3239409223665 -1.1402516700124039 -0.13015294725516346 -1.1402516700124039 -9999.9514465214706 -3330.3769999437945 -0.0050423924858105096 -0.43267442747128371 -0.0050423924858105096 -3329.5336607152672 0.88790102451253006 -0.43267442747128371 0.88790102451253006 -10001.186312571881 -3330.2668708595779 -0.21166628466251597 -0.054651632814397999 -0.21166628466251597 -3329.5764608200507 0.94078037161671091 -0.054651632814397999 0.94078037161671091 -10001.169480327022 -3329.4180221743645 -0.21166628466251597 0.38367759046343508 -0.21166628466251597 -3328.7276121348377 -0.93272623424309131 0.38367759046343508 -0.93272623424309131 -9998.6229342713796 -3329.5410310423977 0.068182372729952534 -0.79756910252422131 0.068182372729952534 -3328.8941893559349 -1.2576583752352235 -0.79756910252422131 -1.2576583752352235 -9999.2347077922477 -3329.4310314010377 -0.063488677756114775 -0.19046174868890375 -0.063488677756114775 -3330.3056767537278 -0.18956136353961028 -0.19046174868890375 -0.18956136353961028 -9999.9382811543255 -3331.3550064706969 0.0082439586450699931 -0.33535226991079981 0.0082439586450699931 -3329.4044024584259 -0.7660268366046239 -0.33535226991079981 -0.7660268366046239 -9999.8157549249445 -3330.3306070664548 0.0064045327964906001 -0.047653529377384984 0.0064045327964906001 -3330.6153119074243 -0.21985531203972641 -0.047653529377384984 -0.21985531203972641 -10000.104717128452 -3330.0237922815427 -0.053369180720646892 -0.21680179184477311 -0.053369180720646892 -3330.5408553108459 -0.24351645049137005 -0.21680179184477311 -0.24351645049137005 -10000.009399283077 -3329.743902058015 -0.0050423924858100655 -0.40311079075490852 -0.0050423924858100655 -3328.9005628294876 -0.7755051706994891 -0.40311079075490852 -0.7755051706994891 -9999.2870189145397 -3329.6559637581777 0.075858901293294867 -0.26439762439895276 0.075858901293294867 -3330.7322776220726 -0.089372077405641903 -0.26439762439895276 -0.089372077405641903 -10000.101164460695 -3330.2088558589485 -0.17979840085155374 0.054231460145729216 -0.17979840085155374 -3330.4467939336992 -0.018480526077837567 0.054231460145729216 -0.018480526077837567 -9999.664516573077 -3329.8767389775157 -0.053369180720646892 0.15369824035042257 -0.053369180720646892 -3330.393802006819 0.10309943659331111 0.15369824035042257 0.10309943659331111 -9999.5682393709976 -3330.1173043673925 0.0064045327964906001 0.23360682621660089 0.0064045327964906001 -3330.402009208362 0.18721996947533626 0.23360682621660089 0.18721996947533626 -9999.4648090312658 -3330.7985379010502 0.85134538607678778 -0.8174272954074695 0.85134538607678778 -3330.129001367352 -1.0046404834711211 -0.8174272954074695 -1.0046404834711211 -9999.4592314728452 -3330.2991170721334 -0.20127586869159891 -0.067125366616892279 -0.20127586869159891 -3330.2744154198663 -0.082559368009242462 -0.067125366616892279 -0.082559368009242462 -9999.4545965774814 -3330.4415530122869 -0.1143345699281072 -0.094883781492171693 -0.1143345699281072 -3330.1317724148266 -0.19904982460344911 -0.094883781492171693 -0.19904982460344911 -9999.1470079558821 -3330.1487732363103 -0.24639385661057833 0.018948622513562441 -0.24639385661057833 -3330.2459768016497 -0.06940566047842367 0.018948622513562441 -0.06940566047842367 -9999.4099009639722 -3330.0924026209859 0.016886737117964845 -0.50532701675911085 0.016886737117964845 -3330.4917745279799 -0.22735283465408429 -0.50532701675911085 -0.22735283465408429 -10000.150148402872 -3330.3921854642203 -0.66221766227381673 -0.84908911822094524 -0.66221766227381673 -3330.5755130987591 -0.11856830181045552 -0.84908911822094524 -0.11856830181045552 -9999.8538522307881 -3328.9323804395008 0.21556832159518402 -1.4885314515431673 0.21556832159518402 -3329.0313458893052 -0.59360638966722945 -1.4885314515431673 -0.59360638966722945 -9998.7182782379477 -3330.4102558552368 -0.17979840085155374 -0.44057259050759967 -0.17979840085155374 -3330.6481939299874 -0.3047137800258497 -0.44057259050759967 -0.3047137800258497 -10000.268716561939 -3330.4259295007705 -0.24639385661057833 -0.51835462758754147 -0.24639385661057833 -3330.5231330661099 -0.25707427603038013 -0.51835462758754147 -0.25707427603038013 -10000.241369757354 -3329.9583590201555 0.25392606328146461 -1.5154445122107063 0.25392606328146461 -3329.8459535860975 -0.015628476905710897 -1.5154445122107063 -0.015628476905710897 -9998.5571889616185 -3330.4194027263579 -0.20127586869159891 -0.59519268594794994 -0.20127586869159891 -3330.3947010740908 -0.079768201487240731 -0.59519268594794994 -0.079768201487240731 -9999.8154535401536 -3329.8740092059379 0.02511622064419286 -1.5098276608187007 0.02511622064419286 -3329.4037430552962 -0.59686084680470231 -1.5098276608187007 -0.59686084680470231 -9999.0467847210548 -3329.7790577007863 0.29648233395392964 -1.1671526013544735 0.29648233395392964 -3330.4639786087382 -0.42911803344031796 -1.1671526013544735 -0.42911803344031796 -9998.6668698874346 -3330.9154483908592 -0.10026995995095156 -0.85837600345485043 -0.10026995995095156 -3329.9910318097886 0.23268106836439983 -0.85837600345485043 0.23268106836439983 -9999.8385476402018 -3329.8173411544431 0.02511622064419286 -0.13374475012460607 0.02511622064419286 -3329.3470750038014 0.54714593639528175 -0.13374475012460607 0.54714593639528175 -9998.8767805665666 -3330.3838134077832 0.068182372729952756 -0.25284473913779948 0.068182372729952756 -3329.7369717213205 0.66961421832274937 -0.25284473913779948 0.66961421832274937 -10001.763054888403 -3330.2919625399786 0.004893065468715152 -0.68673214290902251 0.004893065468715152 -3330.6584506215472 0.95952338801180304 -0.68673214290902251 0.95952338801180304 -10001.970461896506 -3329.9345852196548 0.21556832159518313 -0.69508222760487115 0.21556832159518313 -3330.0335506694582 0.94047334452261566 -0.69508222760487115 0.94047334452261566 -10001.724892578404 -3332.5345805725824 0.8679736814040554 -2.407240677159419 0.8679736814040554 -3329.8497996619035 0.19971344487762321 -2.407240677159419 0.19971344487762321 -9999.6817715856268 -3333.046332015434 0.5010786901849078 -2.1727140830600615 0.5010786901849078 -3330.2992290359939 0.26095699249196391 -2.1727140830600615 0.26095699249196391 -9999.8801215451276 -3327.3805525929138 -1.7354443238841342 1.1458088779882425 -1.7354443238841342 -3326.3949825457721 -1.7715532603356734 1.1458088779882425 -1.7715532603356734 -9997.4876150669425 -3329.3664526208213 -0.51958514362082309 0.21895193776895883 -0.51958514362082309 -3327.5846578508285 -0.48257079258617708 0.21895193776895883 -0.48257079258617708 -9997.0346113975775 -3332.452633521259 1.3823594457321786 -0.66675578530682511 1.3823594457321786 -3332.1026935639616 1.1799326583792906 -0.66675578530682511 1.1799326583792906 -10000.22450829831 -3332.4309982826817 1.0494668279417396 -0.4231163287691726 1.0494668279417396 -3330.7337903434068 0.27968786034117565 -0.4231163287691726 0.27968786034117565 -9998.5880309361874 -3331.1356678607449 0.20381845403562293 -0.51938570968353481 0.20381845403562293 -3329.8244038433459 0.51361633937173645 -0.51938570968353481 0.51361633937173645 -9999.2837492082926 -3328.8074868886756 0.6636855424412329 2.0620303015311947 0.6636855424412329 -3328.1718107185825 0.56441123108288593 2.0620303015311947 0.56441123108288593 -9999.6049588188052 -3328.6132080432249 1.1486259180683387 2.6460128356448509 1.1486259180683387 -3329.4647504512554 0.24379351166577273 2.6460128356448509 0.24379351166577273 -9997.3163234032854 -3329.4276912008468 -0.010577761304784938 -0.66919879307033625 -0.010577761304784938 -3330.9087796440826 0.50356353024653799 -0.66919879307033625 0.50356353024653799 -9998.9249455116587 -3329.1509348749455 -0.12133013508737428 -0.7573117206857205 -0.12133013508737428 -3329.5652065655627 -0.024495058044628593 -0.7573117206857205 -0.024495058044628593 -9998.2851461701794 -3330.4114643126268 -0.027867203381467087 0.098214349322006456 -0.027867203381467087 -3330.1244433249258 -0.20130816280459385 0.098214349322006456 -0.20130816280459385 -9999.1376535084892 -3326.78674729162 -1.1872806667799856 -1.2864985875412458 -1.1872806667799856 -3328.5117163570676 -0.49624043252288175 -1.2864985875412458 -0.49624043252288175 -9999.1414616298462 -3330.4751314850505 -0.20745817840340219 0.093548706048750319 -0.20745817840340219 -3329.5543618616998 -0.97546287652187402 0.093548706048750319 -0.97546287652187402 -10001.338893710927 -3330.6603088930569 -0.41266412426305554 0.10098528990874911 -0.41266412426305554 -3330.1657822458365 -1.2011345031086194 0.10098528990874911 -1.2011345031086194 -10001.538043158962 -3328.8976690107124 -1.4864019468247287 -1.4799938422469787 -1.4864019468247287 -3328.8937958125125 -0.51752358034604085 -1.4799938422469787 -0.51752358034604085 -9998.3079238085957 -3331.7586275591602 -1.7058288858842172 -0.97734164099529153 -1.7058288858842172 -3332.9403700172907 -2.1552156422173994 -0.97734164099529153 -2.1552156422173994 -10000.122068239541 -3330.2139964955891 -0.79848603434374854 -1.4039125440652436 -0.79848603434374854 -3332.6723064046369 -2.8262974257868283 -1.4039125440652436 -2.8262974257868283 -9999.5816333278453 -3328.2536864397252 0.39477563884806421 -0.29052835911033981 0.39477563884806421 -3329.4026855225188 -1.4360020059061753 -0.29052835911033981 -1.4360020059061753 -9998.27415059335 -3329.3343755450846 -0.40631043360020347 -0.17737197421096829 -0.40631043360020347 -3330.4372601944033 -1.5443970150258277 -0.17737197421096829 -1.5443970150258277 -9997.5636198841512 -3330.2119934049406 -0.057116724118194601 -0.017628252982364145 -0.057116724118194601 -3332.9192728412768 -1.9858820065629839 -0.017628252982364145 -1.9858820065629839 -9998.4035275108326 -3330.2829828339713 -0.40488788435219525 0.47070668175183528 -0.40488788435219525 -3333.2666125391243 -1.7112654237372311 0.47070668175183528 -1.7112654237372311 -9999.8347176887037 -3329.4253077443532 1.0291129533105421 1.6112270873897732 1.0291129533105421 -3330.793363676341 1.3354323753515929 1.6112270873897732 1.3354323753515929 -10000.414802272164 -3327.472926691365 1.5119211939632373 0.68980171690009229 1.5119211939632373 -3327.5146019134922 -0.71442720554205152 0.68980171690009229 -0.71442720554205152 -9996.3675931004927 -3328.8725528493601 -0.12133013508737428 1.1949164405623378 -0.12133013508737428 -3329.2868245399777 0.21427274092491899 1.1949164405623378 0.21427274092491899 -9997.4500000934277 -3328.8088581703591 -0.15811157048221056 1.0405430257869739 -0.15811157048221056 -3329.1798678302189 0.47830184091935735 1.0405430257869739 0.47830184091935735 -9997.4073372462371 -3329.4960939219172 -0.33706972094697829 0.13070131127506102 -0.33706972094697829 -3329.2253914843409 -0.77158987997881923 0.13070131127506102 -0.77158987997881923 -9998.6276901969941 -3329.2116059889076 -0.39330328712136803 0.59540116616608429 -0.39330328712136803 -3329.6946041448414 -0.32174590747398213 0.59540116616608429 -0.32174590747398213 -9997.6367082795296 -3330.4659432912335 0.021348095076799301 -0.22052733725740836 0.021348095076799301 -3330.4839355745357 -0.025683598445539246 -0.22052733725740836 -0.025683598445539246 -10000.122722631651 -3329.3744053692599 -0.33706972094697862 -0.99052377073485331 -0.33706972094697862 -3329.1037029316835 0.48520922224361129 -0.99052377073485331 0.48520922224361129 -9998.2626245390238 -3330.9510342731078 0.42081674711200323 -0.0017966437444556504 0.42081674711200323 -3330.8716573070792 -0.63019135393795978 -0.0017966437444556504 -0.63019135393795978 -10000.340925810258 -3330.1897800368297 0.15195038187450566 -0.38944932080812578 0.15195038187450566 -3330.1450811884661 -0.025526306659429565 -0.38944932080812578 -0.025526306659429565 -9998.902781331155 -3329.5047826759851 -0.39330328712136803 -0.8440507310360772 -0.39330328712136803 -3329.9877808319188 0.080400518691945422 -0.8440507310360772 0.080400518691945422 -9998.5162383407624 -3330.3376200829202 -0.027867203381467087 -0.23423258677394188 -0.027867203381467087 -3330.0505990952192 0.067944564580216138 -0.23423258677394188 0.067944564580216138 -9998.9161208193655 -3330.2641244573942 -0.84166987052564379 -0.4609687714928441 -0.84166987052564379 -3330.6500489573823 0.76890880556675256 -0.4609687714928441 0.76890880556675256 -9998.8716408174805 -3329.1811269920936 -0.15811157048221056 -0.76678862846347329 -0.15811157048221056 -3329.5521366519533 0.67047411161138371 -0.76678862846347329 0.67047411161138371 -9998.5241437114382 -3330.4140350715766 0.015904739312318367 -0.28711700783878769 0.015904739312318367 -3330.1139563687971 0.15839424542718916 -0.28711700783878769 0.15839424542718916 -9998.9510638849242 -3330.5126205970955 0.015904739312318367 0.012225999887050421 0.015904739312318367 -3330.212541894316 -0.20600126717909006 0.012225999887050421 -0.20600126717909006 -9999.2468204614852 -3330.1425556029972 0.021348095076799301 -0.20862014019166963 0.021348095076799301 -3330.1605478862994 -0.37487053209224541 -0.20862014019166963 -0.37487053209224541 -9999.1525595669373 -3330.292867104743 0.15195038187450566 -0.18883755240403843 0.15195038187450566 -3330.2481682563794 -0.42954382712943584 -0.18883755240403843 -0.42954382712943584 -9999.2120425348949 -3330.0263374110409 0.13452911806152823 -0.25445735610264819 0.13452911806152823 -3330.1042548842843 -0.28713116089750201 -0.25445735610264819 -0.28713116089750201 -9999.4132814131335 -3330.0941543323761 -0.016322060241661634 -0.25704082738189982 -0.016322060241661634 -3330.3481948284443 -0.20873277574719395 -0.25704082738189982 -0.20873277574719395 -9999.4912206295085 -3329.8483596593246 -0.41266412426305576 -0.33180765842826077 -0.41266412426305576 -3329.3538330121041 0.74188281237559295 -0.33180765842826077 0.74188281237559295 -9999.1021954577664 -3330.2598230416033 0.13452911806152823 0.027395240766054485 0.13452911806152823 -3330.3377405148472 0.13857416525786448 0.027395240766054485 0.13857416525786448 -10000.113738304826 -3330.7595865369904 -0.81005342855149287 -0.31615475163744122 -0.81005342855149287 -3329.7830973022524 0.76142877405800391 -0.31615475163744122 0.76142877405800391 -9999.4373182497202 -3329.3270969386167 0.56547746886035521 -0.20045793083954777 0.56547746886035521 -3329.6182645716153 -0.00062270374439776788 -0.20045793083954777 -0.00062270374439776788 -9999.6215932927698 -3330.3276399629381 -0.016322060241661634 0.02481176948498387 -0.016322060241661634 -3330.5816804590063 0.21697255040817254 0.02481176948498387 0.21697255040817254 -10000.191677521199 -3329.6631822513177 -0.20745817840340197 -0.33924424228644057 -0.20745817840340197 -3328.7424126279675 0.96755443896336146 -0.33924424228644057 0.96755443896336146 -9998.903046009731 -3331.4820878773562 0.012007163965996215 0.28285478027282807 0.012007163965996215 -3329.3182508589484 0.7821718928989867 0.28285478027282807 0.7821718928989867 -9999.8865588496519 -3329.8015390231012 -0.085957449768543581 -0.25106460961069388 -0.085957449768543581 -3330.3334110493688 -0.13019871998176313 -0.25106460961069388 -0.13019871998176313 -9999.5809701886974 -3330.2655124476605 -0.0032380641631455376 7.7153190431999974e-05 -0.0032380641631455376 -3330.1492516845447 -0.0025509048882668139 7.7153190431999974e-05 -0.0025509048882668139 -9999.5638698658404 -3330.1510986550202 0.022846004573258583 -0.042335991698564612 0.022846004573258583 -3330.1274279151912 -0.057258182336227037 -0.042335991698564612 -0.057258182336227037 -9999.4990120694165 -3330.1932022577803 -0.023347741523881194 -0.048675287978767301 -0.023347741523881194 -3330.1181856242092 -0.021139600983588025 -0.048675287978767301 -0.021139600983588025 -9999.4707573302403 -3330.2376992369464 -0.046495914011512707 -0.035046683089603903 -0.046495914011512707 -3330.1650998852401 -0.0041214079651581415 -0.035046683089603903 -0.0041214079651581415 -9999.4936101402891 -3330.1920855286971 -0.012800124448228534 -0.049370443808584241 -0.012800124448228534 -3330.1120360008445 -4.4303802496870048e-05 -0.049370443808584241 -4.4303802496870048e-05 -9999.4689407421283 -3330.2702067001201 -0.012800124448228312 -0.097909780615736963 -0.012800124448228312 -3330.1901571722665 -0.075005633254477289 -0.097909780615736963 -0.075005633254477289 -9999.7033042563926 -3330.2713234292032 -0.023347741523881638 -0.097214624791376991 -0.023347741523881638 -3330.1963067956312 -0.096100930430111475 -0.097214624791376991 -0.096100930430111475 -9999.7051208445046 -3330.013912545739 0.12214278638799904 -0.2215166182613757 0.12214278638799904 -3330.2218573846985 -0.24599768912048603 -0.2215166182613757 -0.24599768912048603 -9999.4395758219107 -3330.3209558132394 -0.056062438923580094 -0.12078786429265165 -0.056062438923580094 -3330.1799383197294 -0.15438772136076295 -0.12078786429265165 -0.15438772136076295 -9999.6314547110851 -3330.2950804976026 -0.023134585043520117 -0.036121233941230457 -0.023134585043520117 -3330.3482192989459 -0.28705620014289934 -0.036121233941230457 -0.28705620014289934 -9999.6670561269821 -3330.2532308512018 -0.035122826057784218 -0.095534929876521346 -0.035122826057784218 -3330.2076337127819 -0.1228540966417313 -0.095534929876521346 -0.1228540966417313 -9999.6214473188411 -3330.1628060288604 -0.024175120115140586 -0.085086948283787933 -0.024175120115140586 -3330.1644766471454 -0.11814397373564134 -0.085086948283787933 -0.11814397373564134 -9999.2952385971075 -3330.2288359519889 0.18622973024031303 -0.082973089590268501 0.18622973024031303 -3329.9719431723797 -0.2392749874798028 -0.082973089590268501 -0.2392749874798028 -9999.126978475706 -3330.1733088018264 -0.030661496154338219 -0.0482481572580582 -0.030661496154338219 -3330.1558493956472 -0.051934087652625749 -0.0482481572580582 -0.051934087652625749 -9999.2957074774749 -3330.15969441581 -0.03827270563388091 -0.029825671455910197 -0.03827270563388091 -3330.1788443578134 -0.083442572151398053 -0.029825671455910197 -0.083442572151398053 -9999.2980526215142 -3330.2415182966906 -0.053413340886915739 -0.040180395908464561 -0.053413340886915739 -3330.2088883989345 0.010329371465559234 -0.040180395908464561 0.010329371465559234 -9999.4009105177429 -3330.2032170638249 -0.030661496154338108 -0.054822800761030521 -0.030661496154338108 -3330.185757657644 0.0075142497753404314 -0.054822800761030521 0.0075142497753404314 -9999.3854322634616 -3330.1927623951506 -0.024175120115140641 -0.077056932125742605 -0.024175120115140641 -3330.1944330134356 -0.055948353558051167 -0.077056932125742605 -0.055948353558051167 -9999.38510769598 -3330.2479124115198 0.018394677682802646 -0.012224763004269334 0.018394677682802646 -3330.2541735450122 -0.094750155909423484 -0.012224763004269334 -0.094750155909423484 -9999.5549019159989 -3330.1660619175964 -0.035122826057784273 -0.081832326000949251 -0.035122826057784273 -3330.1204647791747 -0.042750559563955903 -0.081832326000949251 -0.042750559563955903 -9999.3599405180285 -3330.1834901313705 -0.00049591234056051148 -0.041548827759470441 -0.00049591234056051148 -3330.1800978128249 -0.03820510348668904 -0.041548827759470441 -0.03820510348668904 -9999.4261402294833 -3330.198325122934 -0.00049591234056051148 -0.029358297482758644 -0.00049591234056051148 -3330.1949328043884 -0.036282599394326098 -0.029358297482758644 -0.036282599394326098 -9999.4706452041719 -3330.1858932763407 -0.0082559171904455497 -0.030507453055179212 -0.0082559171904455497 -3330.1731860043346 -0.033106669004155265 -0.030507453055179212 -0.033106669004155265 -9999.4621005425142 -3330.2087131581502 -0.0082559171904455497 -0.030939707925426774 -0.0082559171904455497 -3330.1960058861441 -0.043027513938795892 -0.030939707925426774 -0.043027513938795892 -9999.5305601879409 -3330.2123818831478 -0.008891759068210936 -0.013550157502322691 -0.008891759068210936 -3330.1932511433588 -0.0099833310378016904 -0.013550157502322691 -0.0099833310378016904 -9999.4742805031638 -3330.1973302819079 -0.008891759068210936 -0.026588378736050799 -0.008891759068210936 -3330.1781995421188 -0.011316880556478282 -0.026588378736050799 -0.011316880556478282 -9999.4291256994438 -3330.1931372004692 -0.011241961893523222 -0.021844791695912136 -0.011241961893523222 -3330.1841777093232 -0.019429968031545286 -0.021844791695912136 -0.019429968031545286 -9999.4295719708862 -3330.2210383113652 -0.017413643207675633 -0.0063825685792835429 -0.017413643207675633 -3330.2158472667743 -0.0080104448388738092 -0.0063825685792835429 -0.0080104448388738092 -9999.4881485508595 -3330.2110004146289 -0.0081584303844893791 -0.014567811944289133 -0.0081584303844893791 -3330.1948611048374 -0.0096998496501328191 -0.014567811944289133 -0.0096998496501328191 -9999.4737961022111 -3330.2274113816602 -0.013849245959199341 -0.0078905290647526272 -0.013849245959199341 -3330.2053559462729 -0.0054313385089699295 -0.0078905290647526272 -0.0054313385089699295 -9999.4871189883052 -3330.2114875209918 -0.01055706183464683 -0.016942448430199875 -0.01055706183464683 -3330.1899998513109 -0.018849111225790693 -0.016942448430199875 -0.018849111225790693 -9999.5035015186513 -3330.2119960782329 -0.0046152676178795593 -0.016546001088499906 -0.0046152676178795593 -3330.2001385788753 -0.020987707233871333 -0.016546001088499906 -0.020987707233871333 -9999.4819608206017 -3330.2226224388669 -0.0039119560295307609 -0.011568422363779973 -0.0039119560295307609 -3330.2109335629011 -0.033701349770126399 -0.011568422363779973 -0.033701349770126399 -9999.5115186760158 -3330.2018316660233 -0.0039533216379308289 -0.015297273272153689 -0.0039533216379308289 -3330.1732993512869 -0.0088354694998997729 -0.015297273272153689 -0.0088354694998997729 -9999.5080570281571 -3330.2037150686447 -0.0038148046761843357 -0.015029570233309641 -0.0038148046761843357 -3330.1789293383645 -0.016959223816229496 -0.015029570233309641 -0.016959223816229496 -9999.5099353755795 -3330.196033505139 -0.0022639230542864652 -0.021765000179584604 -0.0022639230542864652 -3330.1719474235779 -0.024871086119674146 -0.021765000179584604 -0.024871086119674146 -9999.4951249077567 -3330.1982534345116 -0.0088805428929429886 -0.02134610248322133 -0.0088805428929429886 -3330.1871485504307 -0.020851165270869387 -0.02134610248322133 -0.020851165270869387 -9999.4976615304913 -3330.2046259157742 -0.0065190580829808109 -0.020503436535364017 -0.0065190580829808109 -3330.1952997874323 -0.018379570770775899 -0.020503436535364017 -0.018379570770775899 -9999.5580171929214 -3330.1807726854804 0.00042154616742129392 -0.02627997268064064 0.00042154616742129392 -3330.1672740469676 -0.027012144775653724 -0.02627997268064064 -0.027012144775653724 -9999.4883227173632 -3330.2034625786255 0.00042154616742151596 -0.020137234972935403 0.00042154616742151596 -3330.1899639401126 -0.029492375299014384 -0.020137234972935403 -0.029492375299014384 -9999.5563923968039 -3330.1819360226255 -0.0065190580829816991 -0.026646174246707233 -0.0065190580829816991 -3330.1726098942854 -0.015899340247415239 -0.026646174246707233 -0.015899340247415239 -9999.4899475134807 -3330.1884614830269 -0.0066909585382814996 -0.01670820318031474 -0.0066909585382814996 -3330.1796360086519 -0.014134352422843222 -0.01670820318031474 -0.014134352422843222 -9999.5111949243874 -3330.3978525292687 -0.051167001680534563 0.050146662550105248 -0.051167001680534563 -3329.8739529524701 -0.27085802019428229 0.050146662550105248 -0.27085802019428229 -9999.1334812090681 -3330.1786316323632 -0.038272705633880633 -0.040398505683697294 -0.038272705633880633 -3330.1977815743685 -0.035532374815375078 -0.040398505683697294 -0.035532374815375078 -9999.3548642711685 -3330.1942835525515 -0.035430149015346468 -0.043035701992266695 -0.035430149015346468 -3330.2421403779299 -0.012645549657463562 -0.043035701992266695 -0.012645549657463562 -9999.3972945657151 -3330.2045609914348 -0.011241961893523222 -0.0088996022386709228 -0.011241961893523222 -3330.195601500287 -0.018179813567257952 -0.0088996022386709228 -0.018179813567257952 -9999.4638433437867 -3330.2081062679736 -0.011287757883318039 -0.011000702765159076 -0.011287757883318039 -3330.1994318410107 -0.014343733637360856 -0.011000702765159076 -0.014343733637360856 -9999.4747567737868 -3330.2070713789071 -0.016456144469317924 -0.027965697914623888 -0.016456144469317924 -3330.211843271667 -0.004447329520189669 -0.027965697914623888 -0.004447329520189669 -9999.4965915849534 -3330.2226496677085 -0.010405584303332771 -0.028522863924081321 -0.010405584303332771 -3330.2163538364239 -0.0037858661908103386 -0.028522863924081321 -0.0037858661908103386 -9999.5016137983475 -3330.1918735013405 -0.014773284329746117 -0.032410595034889411 -0.014773284329746117 -3330.1903864382421 -0.021350838487705914 -0.032410595034889411 -0.021350838487705914 -9999.4593677057492 -3330.1810868714856 -0.012043775059726647 -0.012360325265035499 -0.012043775059726647 -3330.192487863078 -0.014931646512195584 -0.012360325265035499 -0.014931646512195584 -9999.4880006633903 -3330.1865175246112 -0.012998713183464794 -0.017747640755260363 -0.012998713183464794 -3330.2071908044327 -0.0031818554234632757 -0.017747640755260363 -0.0031818554234632757 -9999.5018841990823 -3330.1887803244281 -0.011464631167100059 -0.013899566267355112 -0.011464631167100059 -3330.2099463601771 -0.0055387024131050566 -0.013899566267355112 -0.0055387024131050566 -9999.5031387879717 -3330.1759262435698 -0.013028507705619141 -0.028722031423967564 -0.013028507705619141 -3330.2007053878733 -0.0045629113601535209 -0.028722031423967564 -0.0045629113601535209 -9999.4860208301761 -3330.1701793367483 -0.0003471979755697574 -0.019750293253309792 -0.0003471979755697574 -3330.2036218287703 -0.0077507452879217453 -0.019750293253309792 -0.0077507452879217453 -9999.4969074081964 -3330.1747225017589 -0.012341435482059016 -0.027512214880516694 -0.012341435482059016 -3330.1922362149107 -0.0056515025025873911 -0.027512214880516694 -0.0056515025025873911 -9999.4863466589159 -3330.201028343994 -0.015977078448103699 -0.042428185399330687 -0.015977078448103699 -3330.2019476774967 -0.0079309404104606074 -0.042428185399330687 -0.0079309404104606074 -9999.4953509851257 -3330.2077183066795 -0.0083227117811363049 -0.035342114229933941 -0.0083227117811363049 -3330.196744602883 -0.01787056077591842 -0.035342114229933941 -0.01787056077591842 -9999.4649184482478 -3330.2448205760993 0.0019029789870452229 -0.078241951208838145 0.0019029789870452229 -3330.2219566497661 0.007749526643237914 -0.078241951208838145 0.007749526643237914 -9999.5130562153317 -3330.2078669865004 -0.0077626615963765633 -0.10569094518541533 -0.0077626615963765633 -3330.2084747111276 -0.034768760946462862 -0.10569094518541533 -0.034768760946462862 -9999.3648463938953 -3330.1664107830893 -0.023554285734125269 -0.081136670623891405 -0.023554285734125269 -3330.19832150621 -0.063919412408722565 -0.081136670623891405 -0.063919412408722565 -9999.3519440418095 -3330.2204398145368 -0.025923509706848646 -0.13019958419135946 -0.025923509706848646 -3330.2097100395786 -0.028308129889410338 -0.13019958419135946 -0.028308129889410338 -9999.4798586375146 -3330.2017303156445 -0.015977078448103477 -0.065161739752511494 -0.015977078448103477 -3330.2026496491453 -0.0077792027536816022 -0.065161739752511494 -0.0077792027536816022 -9999.497456900066 -3330.1727795688112 0.0019328414629012358 -0.048109488339832751 0.0019328414629012358 -3330.2112337870421 -0.017363819828460691 -0.048109488339832751 -0.017363819828460691 -9999.5289355162713 -3330.1900525807814 -0.012341435482059127 -0.043934819643254741 -0.012341435482059127 -3330.2075662939351 -0.0078396505377895664 -0.043934819643254741 -0.0078396505377895664 -9999.5323368959798 -3330.1156730562961 -0.0077104299048834646 -0.093384144453011686 -0.0077104299048834646 -3330.1694993126257 -0.022682045493638725 -0.093384144453011686 -0.022682045493638725 -9999.4436142662198 -3330.1351680953285 -0.015322325675134474 -0.081947844093519961 -0.015322325675134474 -3330.1815859117705 -0.01034443191565515 -0.081947844093519961 -0.01034443191565515 -9999.4755504106397 -3330.1948768413386 -0.011491279564429746 -0.03893695879378356 -0.011491279564429746 -3330.2089228347049 -0.010900712210059282 -0.03893695879378356 -0.010900712210059282 -9999.5338820963188 -3330.1838239812032 -0.0077104299048834646 -0.035751369661738863 -0.0077104299048834646 -3330.2376502375337 0.0090172079271724215 -0.035751369661738863 0.0090172079271724215 -9999.6480670409437 -3330.2357806416885 -0.0092741198979433559 -0.020015737407447887 -0.0092741198979433559 -3330.2322496745937 -0.00062046349194133654 -0.020015737407447887 -0.00062046349194133654 -9999.6597060653294 -3329.7552723536692 0.077460586637218554 -0.18664016508046188 0.077460586637218554 -3330.0392353991156 -0.035690101640284411 -0.18664016508046188 -0.035690101640284411 -9999.3838869340798 -3330.1647498534912 0.0087362279521349118 -0.038739739133234252 0.0087362279521349118 -3330.2473617366486 0.0021994844573782757 -0.038739739133234252 0.0021994844573782757 -9999.6457263837947 -3330.1821764396745 -0.24708273716308415 0.0031171556329354644 -0.24708273716308415 -3329.865553223899 -0.31539580557182489 0.0031171556329354644 -0.31539580557182489 -9999.015609014994 -3330.2456153432931 -0.025923509706848424 -0.13031920714092848 -0.025923509706848424 -3330.2348855683349 -0.027083211034550914 -0.13031920714092848 -0.027083211034550914 -9999.5553852237899 -3330.3657109476326 0.043999644242006863 -0.19180111163223046 0.043999644242006863 -3330.4086567680733 0.045907647008789354 -0.19180111163223046 0.045907647008789354 -9999.6288519248119 -3329.8633994640686 -0.35866587244656101 0.20548628644246492 -0.35866587244656101 -3330.0500317692558 -0.18365519827784738 0.20548628644246492 -0.18365519827784738 -9999.2895712628124 -3330.1952593141214 0.014156431563027594 -0.03828322007029783 0.014156431563027594 -3330.2065163287371 -0.056429949327139184 -0.03828322007029783 -0.056429949327139184 -9999.4727650847017 -3330.1986300922063 0.0095600915431193201 0.006521259902001475 0.0095600915431193201 -3330.1979549742709 0.039504589305579429 0.006521259902001475 0.039504589305579429 -9999.6434287327465 -3330.1794443348053 0.047176756910324413 0.016267421473457944 0.047176756910324413 -3330.2397080019891 0.0088016782610793598 0.016267421473457944 0.0088016782610793598 -9999.6474865704586 -3330.166267343553 0.030456234701269347 0.002716021135711344 0.030456234701269347 -3330.1350034187717 0.027164957424247405 0.002716021135711344 0.027164957424247405 -9999.6180161768425 -3329.8107178257133 -0.062588480354087261 0.2275753821759281 -0.062588480354087261 -3330.3764124243071 0.11343366796972987 0.2275753821759281 0.11343366796972987 -9999.5473866874199 -3330.236431121466 -0.0051451931157868724 0.073294562571390998 -0.0051451931157868724 -3330.2154149519765 0.048845107128272502 0.073294562571390998 0.048845107128272502 -9999.6572439844895 -3330.1356850329284 0.0066723854580008624 -0.034608777201356133 0.0066723854580008624 -3330.1978219555422 -0.015743406950605277 -0.034608777201356133 -0.015743406950605277 -9999.5163089244197 -3330.1572663876213 0.0095600915431193201 -0.05049856801815622 0.0095600915431193201 -3330.156591269686 -0.017603991349460557 -0.05049856801815622 -0.017603991349460557 -9999.5193376189891 -3330.1950505290515 -0.0092741198979435779 -0.074124616292465362 -0.0092741198979435779 -3330.1915195619567 -0.046482518047923804 -0.074124616292465362 -0.046482518047923804 -9999.5375157274138 -3330.1767389304841 -0.0026852456093742205 -0.026939594292343827 -0.0026852456093742205 -3330.2036845357561 -0.0056590868916828185 -0.026939594292343827 -0.0056590868916828185 -9999.5355870464191 -3330.1434258426088 0.0093366904435858711 -0.038540298419320607 0.0093366904435858711 -3330.192650254392 -0.010415867374831578 -0.038540298419320607 -0.010415867374831578 -9999.5169512015527 -3330.2432615484304 0.0043894957570843607 -0.016767014389188262 0.0043894957570843607 -3330.1856921772905 -0.012885486119557754 -0.016767014389188262 -0.012885486119557754 -9999.5481116360934 -3330.1934887102652 -0.0022002425236933298 -0.00050610645484994166 -0.0022002425236933298 -3330.2087924422995 -0.0019614644224930089 -0.00050610645484994166 -0.0019614644224930089 -9999.541051467997 -3330.1720909275737 -0.0051451931157873165 0.027830297809487092 -0.0051451931157873165 -3330.1510747580833 -0.016510120373368409 0.027830297809487092 -0.016510120373368409 -9999.4642234028106 -3330.176909468717 -0.0022002425236937739 0.0089639425750647206 -0.0022002425236937739 -3330.1922132007476 0.0017659747572906781 0.0089639425750647206 0.0017659747572906781 -9999.4913137433541 -3330.1654622759761 -0.0026852456093742205 -0.017357142944092629 -0.0026852456093742205 -3330.1924078812481 -0.0023279717934201472 -0.017357142944092629 -0.0023279717934201472 -9999.5017570829004 -3330.1866197878517 -0.011491279564429746 -0.02201584957583691 -0.011491279564429746 -3330.200665781218 -0.0080223893546644831 -0.02201584957583691 -0.0080223893546644831 -9999.5091109358618 -3330.181000030685 -0.0008906052235365669 0.0039806221175240353 -0.0008906052235365669 -3330.2026519991923 -3.8694433897035196e-05 0.0039806221175240353 -3.8694433897035196e-05 -9999.5042325313843 -3330.1742673528315 0.0040192562789870268 -0.0128806481952779 0.0040192562789870268 -3330.203527609272 -0.0069262212127796374 -0.0128806481952779 -0.0069262212127796374 -9999.4979058573444 -3330.1818068549401 -0.0027475722701851835 0.0014508653039229102 -0.0027475722701851835 -3330.1975933225131 0.00030296795739559457 0.0014508653039229102 0.00030296795739559457 -9999.5071395879568 -3330.1647312598234 -0.00075411923322210583 -0.013902204475016333 -0.00075411923322210583 -3330.1960082173482 -0.005541927141166525 -0.013902204475016333 -0.005541927141166525 -9999.4936419861115 -3330.1692211005993 -0.0018675832003628434 -0.010600001671264181 -0.0018675832003628434 -3330.1992987384201 -0.0020782906685781199 -0.010600001671264181 -0.0020782906685781199 -9999.5004494836685 -3330.1823579197899 0.0051393256236497847 0.0062158769651432522 0.0051393256236497847 -3330.1951331875116 -0.00021501554510905407 0.0062158769651432522 -0.00021501554510905407 -9999.5016213147974 -3330.1816451601371 0.002068586248633153 0.0088834966736612841 0.002068586248633153 -3330.1902886126882 -0.0042107120093533013 0.0088834966736612841 -0.0042107120093533013 -9999.4920165191943 -3330.174126386315 0.0045060926967972481 0.0085667935636593029 0.0045060926967972481 -3330.187216883729 -0.0044971829156565946 0.0085667935636593029 -0.0044971829156565946 -9999.4893688934972 -3330.177652520033 0.0029712959623850455 0.012473584294639295 0.0029712959623850455 -3330.18368001196 0.00039645381957598147 0.012473584294639295 0.00039645381957598147 -9999.4799516443745 -3330.1792197125978 0.0093903595435595871 0.013287672255046346 0.0093903595435595871 -3330.184115139542 -0.0094063466858642641 0.013287672255046346 -0.0094063466858642641 -9999.4804522244158 -3330.1933355320834 0.0049304700303476334 0.013420635303191375 0.0049304700303476334 -3330.1845515575023 -0.0092569860134972259 0.013420635303191375 -0.0092569860134972259 -9999.484090283775 -3330.1825857115455 0.011034685770057714 0.0066022342837186443 0.011034685770057714 -3330.191829936286 -0.0048673183991922997 0.0066022342837186443 -0.0048673183991922997 -9999.5008524499353 -3330.1800066119413 0.010649508290300522 0.0069143095229264873 0.010649508290300522 -3330.1864326463819 -0.0074469427490839735 0.0069143095229264873 -0.0074469427490839735 -9999.4961545110709 -3330.1967458406398 0.0087159741465315799 0.0065677406237227842 0.0087159741465315799 -3330.1929670610916 -0.0048558415983279701 0.0065677406237227842 -0.0048558415983279701 -9999.5046767634049 -3330.1769090521375 0.017119194550111141 0.00064847640169318765 0.017119194550111141 -3330.1783515849311 -0.0083376126785879023 0.00064847640169318765 -0.0083376126785879023 -9999.4960636972392 -3330.1822821339319 0.011144203132192637 0.0007652917952327698 0.011144203132192637 -3330.1909481677485 -0.0068361479134182446 0.0007652917952327698 -0.0068361479134182446 -9999.5005561133949 -3330.1742047049211 0.0088113395409312734 -0.0049054461451305542 0.0088113395409312734 -3330.1896941423274 -0.0011654099955649144 -0.0049054461451305542 -0.0011654099955649144 -9999.498223249786 -3330.1800186369237 0.0056167944669303083 -0.0092939526002737693 0.0056167944669303083 -3330.2056904324545 -0.010060397602501325 -0.0092939526002737693 -0.010060397602501325 -9999.5047895058597 -3330.1766406440747 0.0076213204845164695 -0.005244417527137557 0.0076213204845164695 -3330.1962997469291 -0.0032718008296797052 -0.005244417527137557 -0.0032718008296797052 -9999.5015973362679 -3330.1803650594302 0.003587833592381906 -0.0075270319248375017 0.003587833592381906 -3330.2069421362685 -0.0062424213028862141 -0.0075270319248375017 -0.0062424213028862141 -9999.5051463228374 -3330.1731084762541 0.0087496226049448289 0.0049202510017494205 0.0087496226049448289 -3330.1893255166942 -0.0013869621980120428 0.0049202510017494205 -0.0013869621980120428 -9999.4978570362073 -3330.1744546355203 0.0070169939118629454 -0.0058144064751104452 0.0070169939118629454 -3330.1960342774819 -0.0033713945417730429 -0.0058144064751104452 -0.0033713945417730429 -9999.5009417521651 -3330.1780894322292 0.0056017806784010027 0.0037556113056780305 0.0056017806784010027 -3330.1971591241436 -0.0035871816253347788 0.0037556113056780305 -0.0035871816253347788 -9999.5021316630082 -3330.1759441342965 0.0012488633385442371 -0.016155647939740447 0.0012488633385442371 -3330.2057894575391 -0.010883967515837867 -0.016155647939740447 -0.010883967515837867 -9999.5037956364758 -3330.1827139777306 0.0044600125506036731 -0.012845839777583024 0.0044600125506036731 -3330.2095507758022 -0.015353460126789287 -0.012845839777583024 -0.015353460126789287 -9999.5064284269029 -3330.1822894987272 0.0094674565787809285 -0.001398454318405129 0.0094674565787809285 -3330.198035436697 -0.0071177640165842604 -0.001398454318405129 -0.0071177640165842604 -9999.5034434723711 -3330.1612316915689 0.0043028337934107874 -0.03104587969937711 0.0043028337934107874 -3330.1980254550781 -0.014301738925496466 -0.03104587969937711 -0.014301738925496466 -9999.4816772089689 -3330.1755202423283 0.014283204779382143 -0.00070005114685045555 0.014283204779382143 -3330.1774949551891 -0.0080460834506084211 -0.00070005114685045555 -0.0080460834506084211 -9999.5002168063656 -3330.1811943206849 0.011377552759920057 -0.00077660256874878542 0.011377552759920057 -3330.1929550850982 -0.0090300228221167345 -0.00077660256874878542 -0.0090300228221167345 -9999.5055003584348 -3330.1822029218347 0.010356059366658732 2.7105048502562568e-05 0.010356059366658732 -3330.1752465909012 -0.0082959421015402768 2.7105048502562568e-05 -0.0082959421015402768 -9999.5013253851721 -3330.169239352208 0.015086011454200188 0.0010412661758891772 0.015086011454200188 -3330.176141884911 -0.0084097245080556604 0.0010412661758891772 -0.0084097245080556604 -9999.4982601962402 -3330.1924647486194 0.0069174119776913567 -0.014836215199466096 0.0069174119776913567 -3330.1831155510972 -0.011818249658972491 -0.014836215199466096 -0.011818249658972491 -9999.5100695370493 -3330.1879304327758 0.008773223340897307 -0.017162342310257372 0.008773223340897307 -3330.1780873645457 -0.015954591683112085 -0.017162342310257372 -0.015954591683112085 -9999.503467456314 -3330.1983058648457 0.0037424996624712808 -0.026873208809774951 0.0037424996624712808 -3330.2057357893409 -0.037655725878721569 -0.026873208809774951 -0.037655725878721569 -9999.5129734205329 -3330.1869199221801 0.0023002210863751482 -0.020694762311904924 0.0023002210863751482 -3330.1924110624095 -0.020851186174695613 -0.020694762311904924 -0.020851186174695613 -9999.4737599024666 -3330.2145763575445 -0.010936025860059595 -0.02236824608007737 -0.010936025860059595 -3330.2138960973371 -0.0078234877400973346 -0.02236824608007737 -0.0078234877400973346 -9999.486045270045 -3330.2017620074967 0.0025082862035786802 -0.034097511161235161 0.0025082862035786802 -3330.2110251403265 -0.014088722243513985 -0.034097511161235161 -0.014088722243513985 -9999.4950597092684 -3330.1899425844731 0.0041917399903911301 -0.025308314950962085 0.0041917399903911301 -3330.2039784988538 -0.013257213868200779 -0.025308314950962085 -0.013257213868200779 -9999.4774074271554 -3330.203129053778 0.0065227182940944175 -0.03623640478872403 0.0065227182940944175 -3330.2134089918109 -0.022243774068556377 -0.03623640478872403 -0.022243774068556377 -9999.5160975183826 -3330.1929385451967 0.002737569913537248 -0.030447173696302343 0.002737569913537248 -3330.201651223726 -0.033080116820201511 -0.030447173696302343 -0.033080116820201511 -9999.5017771178027 -3330.1803570679876 0.0094009582901097288 -0.02399822370352922 0.0094009582901097288 -3330.1731720718526 -0.018668475076992763 -0.02399822370352922 -0.018668475076992763 -9999.4915119605357 -3330.1563518668136 0.0019328414629012358 -0.032267631653667195 0.0019328414629012358 -3330.1948060850464 -0.012651911791181192 -0.032267631653667195 -0.012651911791181192 -9999.4796524102785 -3330.1759302646751 0.006891019725695946 -0.020655130927480059 0.006891019725695946 -3330.2045293932679 -0.023331412354309577 -0.020655130927480059 -0.023331412354309577 -9999.507077921473 -3330.0798006321093 -0.0046186636237690593 -0.095164739756000927 -0.0046186636237690593 -3330.1665699031237 -0.023365628163446672 -0.095164739756000927 -0.023365628163446672 -9999.4579545426714 -3330.1640033301319 0.026527006789491381 -0.056354983858909691 0.026527006789491381 -3330.2243447863548 -0.052526894291077042 -0.056354983858909691 -0.052526894291077042 -9999.5412336733898 -3330.106215222535 0.0087362279521351338 -0.090447493281317293 0.0087362279521351338 -3330.1888271056923 -0.029735694715782302 -0.090447493281317293 -0.029735694715782302 -9999.4701224909259 -3330.1981173025179 0.011144203132192748 -0.011248237474319467 0.011144203132192748 -3330.2067833363344 -0.01462495066516567 -0.011248237474319467 -0.01462495066516567 -9999.5480616191526 -3330.2031300164945 0.01384275912866928 -0.035219214234530227 0.01384275912866928 -3330.2319623931871 -0.028412946427124552 -0.035219214234530227 -0.028412946427124552 -9999.5556095618558 -3330.1898796456553 0.006891019725695946 -0.033548699098901125 0.006891019725695946 -3330.2184787742463 -0.030668773563320428 -0.033548699098901125 -0.030668773563320428 -9999.5489260644135 -3330.2253040410087 0.0092374418349872034 0.011458860131824622 0.0092374418349872034 -3330.193130176167 -0.022133375670819078 0.011458860131824622 -0.022133375670819078 -9999.5487551985607 -3330.1205251877072 0.033112884035409351 0.019186360193998553 0.033112884035409351 -3330.1621969953212 -0.012251315578396316 0.019186360193998553 -0.012251315578396316 -9999.5060177600244 -3330.1916682946539 0.017119194550111128 -0.0025535850145388395 0.017119194550111128 -3330.1931108274493 -0.017318549522315152 -0.0025535850145388395 -0.017318549522315152 -9999.5403414247958 -3330.195270140357 0.029007856382265634 -0.0022652613874925009 0.029007856382265634 -3330.2116304537867 -0.013612635812023655 -0.0022652613874925009 -0.013612635812023655 -9999.5458717928086 -3330.1730110719145 0.025258262464980807 -0.034126657281376538 0.025258262464980807 -3330.1651968809801 -0.042443714719411219 -0.034126657281376538 -0.042443714719411219 -9999.5286986324936 -3330.1606084128089 0.033359042765244373 -0.044845511232779245 0.033359042765244373 -3330.1480458330389 -0.051412614255241351 -0.044845511232779245 -0.051412614255241351 -9999.5065439883292 -3330.2036551757792 0.0094009582901097843 -0.021384509454946965 0.0094009582901097843 -3330.1964701796423 -0.024392991712375078 -0.021384509454946965 -0.024392991712375078 -9999.5614062839013 -3330.1929554079434 0.01626731358245476 -0.058217413892634795 0.01626731358245476 -3330.2244361935973 -0.096279975507059135 -0.058217413892634795 -0.096279975507059135 -9999.5484945446551 -3330.1914227215821 0.01900840985995244 -0.063483492864179425 0.01900840985995244 -3330.2354519152686 -0.093063412368792342 -0.063483492864179425 -0.093063412368792342 -9999.5360990860827 -3330.165783972343 0.0027375699135372758 -0.046105535388051067 0.0027375699135372758 -3330.1744966508704 -0.03805515835119877 -0.046105535388051067 -0.03805515835119877 -9999.4203133992378 -3330.1962945157156 -0.0083227117811363049 -0.048287303687175154 -0.0083227117811363049 -3330.1853208119192 -0.019120715242024744 -0.048287303687175154 -0.019120715242024744 -9999.4306470753472 -3330.2326702634437 0.0094325570635369616 -0.095080841181697906 0.0094325570635369616 -3330.2194830701719 -0.023371484634935769 -0.095080841181697906 -0.023371484634935769 -9999.5094002422738 -3330.2183870782465 0.030442835268891508 -0.086058305420010583 0.030442835268891508 -3330.2429668669047 -0.05045347782652243 -0.086058305420010583 -0.05045347782652243 -9999.5594851305614 -3330.1724411483574 0.0065227182940944175 -0.052678387024570839 0.0065227182940944175 -3330.1827210863885 -0.027236152434852556 -0.052678387024570839 -0.027236152434852556 -9999.4240338021227 -3330.2977351225945 0.082796311399981656 -0.23578611410994199 0.082796311399981656 -3330.2764479547959 -0.035383801561692962 -0.23578611410994199 -0.035383801561692962 -9999.5788057652317 -3330.1889297699463 -0.0077626615963763412 -0.095118110961266211 -0.0077626615963763412 -3330.1895374945725 -0.082678958282485837 -0.095118110961266211 -0.082678958282485837 -9999.3080347442374 -3330.1260955917814 0.030442835268891504 -0.093921381408108573 0.030442835268891504 -3330.1506753804397 -0.080467207144465647 -0.093921381408108573 -0.080467207144465647 -9999.2826106711618 -3330.2424215158999 0.006652460221815315 -0.088870046558440663 0.006652460221815315 -3330.263770073424 -0.15196150858901092 -0.088870046558440663 -0.15196150858901092 -9999.6467903464654 -3330.2377255257488 0.033359042765244484 -0.055653043220445397 0.033359042765244484 -3330.2251629459797 -0.072531790243374417 -0.055653043220445397 -0.072531790243374417 -9999.7378953271509 -3330.2024056038126 0.032185101494157681 -0.13604555308302224 0.032185101494157681 -3330.2120975902944 -0.25738587999148876 -0.13604555308302224 -0.25738587999148876 -9999.6238682476614 -3330.1050377220772 0.01900840985995253 -0.07074496234417893 0.01900840985995253 -3330.149066915762 -0.11861591777596914 -0.07074496234417893 -0.11861591777596914 -9999.2769440875672 -3330.2581305166041 0.010170493990545662 0.0079596210143790813 0.010170493990545662 -3330.3475293450983 0.030411134119276539 0.0079596210143790813 0.030411134119276539 -9999.6716574145612 -3330.2087931826418 0.043426509849630056 0.003161101390787735 0.043426509849630056 -3330.2181656692019 -0.031265739302398288 0.003161101390787735 -0.031265739302398288 -9999.6269821620954 -3330.0919464497038 0.093505222543741162 0.042698102057329379 0.093505222543741162 -3330.1168607519467 0.0057959907016993384 0.042698102057329379 0.0057959907016993384 -9999.5374823039128 -3330.1363318130616 0.043308403920506722 0.10414498372119851 0.043308403920506722 -3330.2018155753358 -0.065964882273874537 0.10414498372119851 -0.065964882273874537 -9999.6047792962345 -3330.1492949015847 0.010330705265594986 -0.040900467047322309 0.010330705265594986 -3330.3975781133213 -0.056895760742463608 -0.040900467047322309 -0.056895760742463608 -9999.7194416181082 -3330.2360768064991 0.038936268818434386 0.016455600429253536 0.038936268818434386 -3330.2472983633861 -0.00074640368620748632 0.016455600429253536 -0.00074640368620748632 -9999.7035671568556 -3329.9010452869634 0.017653392022175366 -0.22790355031793297 0.017653392022175366 -3330.1337932321167 -0.035934037585320766 -0.22790355031793297 -0.035934037585320766 -9999.4439696256522 -3330.2194340181795 0.026527006789491159 -0.048092001870827517 0.026527006789491159 -3330.2797754744024 -0.047184469283592989 -0.048092001870827517 -0.047184469283592989 -9999.7075257375291 -3330.2429191371093 -0.0090960576780162398 0.073137191136083857 -0.0090960576780162398 -3330.2330615702303 0.046363312920220778 0.073137191136083857 0.046363312920220778 -9999.6632776429651 -3330.2049438035574 0.018579020559919224 0.020740929587191204 0.018579020559919224 -3330.2575075618697 0.020235749371295242 0.020740929587191204 0.020235749371295242 -9999.6598953074863 -3330.3596710582169 -0.068954843332944937 0.096431015450434643 -0.068954843332944937 -3330.2954778951971 0.081352626572424924 0.096431015450434643 0.081352626572424924 -9999.6206532077376 -3330.1572561760922 0.052651380981371954 0.03345930194882385 0.052651380981371954 -3330.3809794403833 -0.017750105125742266 0.03345930194882385 -0.017750105125742266 -9999.7172822685025 -3330.1896964217667 0.02759254453611415 0.036815098597799079 0.02759254453611415 -3330.2175511322212 0.047182312291624839 0.036815098597799079 0.047182312291624839 -9999.6460943546263 -3330.2071460928737 -0.010409983332825959 0.048129961007361999 -0.010409983332825959 -3330.2029904748788 0.03766234792465184 0.048129961007361999 0.03766234792465184 -9999.5594001113204 -3329.9666455343731 0.14964413508604857 0.17419815445464337 0.14964413508604857 -3330.2200257875775 0.18426040151098277 0.17419815445464337 0.18426040151098277 -9999.3816484678136 -3330.1913209641043 0.0029712959623850455 0.012912750575196696 0.0029712959623850455 -3330.1973484560312 -0.00065825438605315867 0.012912750575196696 -0.00065825438605315867 -9999.5209569765757 -3330.1785789432179 -0.0090960576780160177 0.027672926372360962 -0.0090960576780160177 -3330.168721376338 -0.018991914575963165 0.027672926372360962 -0.018991914575963165 -9999.4702570612826 -3330.1628202497504 -0.010409983332825959 0.045913706178907887 -0.010409983332825959 -3330.1586646317573 -0.018982694070928119 0.045913706178907887 -0.018982694070928119 -9999.4264225819497 -3330.2159296042555 -0.018844994385490629 0.01693964045807661 -0.018844994385490629 -3330.1761541512733 -0.028700610550458805 0.01693964045807661 -0.028700610550458805 -9999.4814529202813 -3330.192866213456 0.0056167944669303083 -0.019823204922431614 0.0056167944669303083 -3330.2185380089904 -0.015302388794225408 -0.019823204922431614 -0.015302388794225408 -9999.5433322354656 -3330.1907056278633 0.0045060926967972481 -0.00090325546625535935 0.0045060926967972481 -3330.203796125279 -0.0082246220990782604 -0.00090325546625535935 -0.0082246220990782604 -9999.5391066181401 -3330.1659654008799 0.018579020559919224 -0.02174103772995295 0.018579020559919224 -3330.2185291591923 -0.026795238244631037 -0.02174103772995295 -0.026795238244631037 -9999.5429600994576 -3330.1874977616753 0.0088113395409312734 -0.015406103837449336 0.0088113395409312734 -3330.2029871990853 -0.0078976083507313888 -0.015406103837449336 -0.0078976083507313888 -9999.5381024200469 -3330.1414992839364 0.027592544536113907 0.0054911230781726772 0.027592544536113907 -3330.1693539943899 0.0050015600227197865 0.0054911230781726772 0.0050015600227197865 -9999.5015029411261 -3330.1850462128568 0.0081569924202979927 -0.013273252834551386 0.0081569924202979927 -3330.2079055830091 -0.012599935318576172 -0.013273252834551386 -0.012599935318576172 -9999.5450744084046 -3330.135089078507 0.023433844053684122 0.01883717527744011 0.023433844053684122 -3330.1669700572893 0.0047006299937493168 0.01883717527744011 0.0047006299937493168 -9999.49930440549 -3330.1702120516093 0.043426509849630118 0.0097245363883757818 0.043426509849630118 -3330.1795845381675 -0.010516844889934873 0.0097245363883757818 -0.010516844889934873 -9999.5112387689842 -3330.1725033093644 0.038936268818434303 0.010539142385823652 0.038936268818434303 -3330.1837248662523 -4.6459255827357993e-05 0.010539142385823652 -4.6459255827357993e-05 -9999.512846665446 -3330.2221519229133 0.016925406813128707 0.025695976510178298 0.016925406813128707 -3330.2258290711743 -0.0011222822790841747 0.025695976510178298 -0.0011222822790841747 -9999.5357848700623 -3330.2441857848207 -0.041203050955734399 0.047159647347143618 -0.041203050955734399 -3330.2175401199856 -0.035934187366365222 0.047159647347143618 -0.035934187366365222 -9999.4614828377744 -3330.1837979643078 0.0093903595435595871 0.022560537693152583 0.0093903595435595871 -3330.1886933912519 -0.016934148690779693 0.022560537693152583 -0.016934148690779693 -9999.4941869795439 -3330.1661800339316 -0.0072013008262731687 0.047307660004207719 -0.0072013008262731687 -3330.1667564762774 -0.035767921099250088 0.047307660004207719 -0.035767921099250088 -9999.4292854891246 -3330.2059605032628 0.023513673832975354 0.012589125939484802 0.023513673832975354 -3330.2281557405568 0.0032386558614234673 0.012589125939484802 0.0032386558614234673 -9999.5323186825008 -3330.1364725164622 0.27767957862860526 0.12399162849396816 0.27767957862860526 -3329.9120214756313 0.19513361411918595 0.12399162849396816 0.19513361411918595 -9999.199496457597 -3330.1779659613812 -0.037612182511116074 0.045415841037538485 -0.037612182511116074 -3330.1322602819318 0.07034429121267749 0.045415841037538485 0.07034429121267749 -9999.5344225302142 -3330.177682841455 -0.0072013008262730993 0.030749973554065946 -0.0072013008262730993 -3330.1782592838008 0.037791057886352064 0.030749973554065946 0.037791057886352064 -9999.4637939117019 -3330.3628033326559 0.051041817451567134 0.11121696430336669 0.051041817451567134 -3330.1882749348397 0.04609947845347051 0.11121696430336669 0.04609947845347051 -9999.623050070375 -3330.202559426446 0.016925406813128818 0.0086689967793063261 0.016925406813128818 -3330.2062365747088 0.04513788565645882 0.0086689967793063261 0.04513788565645882 -9999.4770073806758 -3330.3953770324779 0.0765855128593671 0.093660246017407189 0.0765855128593671 -3330.4000071111041 -0.0129566062187223 0.093660246017407189 -0.0129566062187223 -9999.6841265393959 -3330.2124329869039 0.0030749285787743386 0.016704280045814812 0.0030749285787743386 -3330.2005311210351 0.072166420316534641 0.016704280045814812 0.072166420316534641 -9999.4780494073711 -3330.1799890603797 -0.019967943345466255 -0.033442933772676042 -0.019967943345466255 -3330.2019318218354 0.063079436527914368 -0.033442933772676042 0.063079436527914368 -9999.47028860094 -3330.1883906923958 -0.013570211639074348 -0.0025052594501175918 -0.013570211639074348 -3330.1940274553708 0.0004346331024862593 -0.0025052594501175918 0.0004346331024862593 -9999.4704129173297 -3330.491520326068 -0.017228715715209231 -0.11740841381015343 -0.017228715715209231 -3329.8371137991271 0.21072632244249689 -0.11740841381015343 0.21072632244249689 -9999.4040546055039 -3330.2010513034875 -0.016387689642204328 0.0068153355459799059 -0.016387689642204328 -3330.2534062608283 -0.025367921829456463 0.0068153355459799059 -0.025367921829456463 -9999.5186638888772 -3330.2004871393601 -0.013570211639074348 0.028921546643687179 -0.013570211639074348 -3330.2061239023351 -0.070130150366821908 0.028921546643687179 -0.070130150366821908 -9999.5067022582225 -3330.2016817827644 0.0037144688996511022 0.014074951777729439 0.0037144688996511022 -3330.1893781598119 -0.026466216979315504 0.014074951777729439 -0.026466216979315504 -9999.4988291262998 -3330.1978026753022 0.001520876720715103 0.0035767986300925259 0.001520876720715103 -3330.1818323376865 -0.0052088098063904908 0.0035767986300925259 -0.0052088098063904908 -9999.4959728939029 -3330.1995908056178 -6.4338479008774208e-05 0.018016844791418407 -6.4338479008774208e-05 -3330.1831500917815 -0.0025921845626726281 0.018016844791418407 -0.0025921845626726281 -9999.4967493650038 -3330.1942720817096 0.0087159741465315799 0.014545902304234914 0.0087159741465315799 -3330.1904933021633 -0.01426750280734268 0.014545902304234914 -0.01426750280734268 -9999.4972554866217 -3330.2288695090265 0.003192738570232001 0.037974640018546779 0.003192738570232001 -3330.1943181554379 -0.013603017057903344 0.037974640018546779 -0.013603017057903344 -9999.5411341303843 -3330.239699110818 -0.0015353115223416536 0.042443406920938287 -0.0015353115223416536 -3330.2219247204175 0.0014287145168054849 0.042443406920938287 0.0014287145168054849 -9999.5507431720762 -3330.2082327395947 0.0030749285787741165 0.051009892513320665 0.0030749285787741165 -3330.1963308737249 0.014037488957001187 0.051009892513320665 0.014037488957001187 -9999.4654486654399 -3330.1757888130705 -0.019967943345466477 0.00086267869392031571 -0.019967943345466477 -3330.1977315745262 0.0049505051665619249 0.00086267869392031571 0.0049505051665619249 -9999.4576878590087 -3330.1808489828691 -0.0049704543645043842 0.042876961419096915 -0.0049704543645043842 -3330.1915330987176 0.0221704200575914 0.042876961419096915 0.0221704200575914 -9999.4574032825076 -3330.2399144958763 -0.21935965131786195 -0.073441808513962314 -0.21935965131786195 -3329.9264315192249 0.21251856363414845 -0.073441808513962314 0.21251856363414845 -9999.2589607250993 -3329.825363214778 0.11334523458811241 0.12079952661588322 0.11334523458811241 -3330.0117835226774 0.025693259327454143 0.12079952661588322 0.025693259327454143 -9999.4445671878639 -3330.2409545030805 -0.0088697791209227383 0.068913263024114713 -0.0088697791209227383 -3330.2126084725214 0.011790376798671787 0.068913263024114713 0.011790376798671787 -9999.5986712474005 -3330.1881556953786 0.010579982349842698 -0.010272063074808102 0.010579982349842698 -3330.212267435626 -0.03105084633534716 -0.010272063074808102 -0.03105084633534716 -9999.6811602896087 -3330.2248094694514 -0.010582084069847175 0.0024635552908875979 -0.010582084069847175 -3330.2080051854591 -0.0089921081894885901 0.0024635552908875979 -0.0089921081894885901 -9999.689258170587 -3330.2171917467731 0.024427655911251511 0.0053363151018857025 0.024427655911251511 -3330.2335617722147 -0.045358367279732192 0.0053363151018857025 -0.045358367279732192 -9999.7348615889641 -3330.1998741925399 0.013310262417013052 0.0027858902722073253 0.013310262417013052 -3330.2274028199672 -0.040438480358716333 0.0027858902722073253 -0.040438480358716333 -9999.7289924623437 -3330.2100702553416 0.025016295463196059 -0.076006948536814889 0.025016295463196059 -3330.1900959259301 -0.098329601165914937 -0.076006948536814889 -0.098329601165914937 -9999.6882548336143 -3330.1947751694433 -0.001059609837031239 -0.065884651059604948 -0.001059609837031239 -3330.2974901318739 -0.051954685339296702 -0.065884651059604948 -0.051954685339296702 -9999.7452395345463 -3330.2255134765037 0.014791430984746778 -0.048140646054889658 0.014791430984746778 -3330.2269644739827 -0.05972501058204216 -0.048140646054889658 -0.05972501058204216 -9999.7013327759159 -3330.0768920134633 0.060098536008894143 -0.056607652077218518 0.060098536008894143 -3330.1892704261518 -0.039102791986806551 -0.056607652077218518 -0.039102791986806551 -9999.6887138191232 -3329.8826456423358 -0.38821039951206338 -0.23713835960006691 -0.38821039951206338 -3330.0611752784625 0.10714498956440366 -0.23713835960006691 0.10714498956440366 -9999.418111972529 -3330.2509015834521 0.0040890075575017448 -0.025194532223395072 0.0040890075575017448 -3330.2010247375028 -0.022435354756453307 -0.025194532223395072 -0.022435354756453307 -9999.6940360870976 -3330.2335973169884 0.015732880199553545 -0.043850409863807727 0.015732880199553545 -3330.1664888706582 -0.066334859271137248 -0.043850409863807727 -0.066334859271137248 -9999.6882348352083 -3330.1637265186537 0.054419554560974803 -0.033790216028137365 0.054419554560974803 -3330.0229344896052 -0.037323515969546861 -0.033790216028137365 -0.037323515969546861 -9999.6277197589225 -3330.1993898856017 -0.0075411212284813844 0.0068093593527009944 -0.0075411212284813844 -3330.1918137242465 -0.0047676012218289543 0.0068093593527009944 -0.0047676012218289543 -9999.5544172849623 -3330.1823835347877 0.015732880199553545 0.016125787729833974 0.015732880199553545 -3330.1152750884576 2.3192459138954291e-05 0.016125787729833974 2.3192459138954291e-05 -9999.5345934886027 -3330.1663164840156 0.011553816223456748 0.0016234676240856061 0.011553816223456748 -3330.1747060120233 -0.013749829249718459 0.0016234676240856061 -0.013749829249718459 -9999.5418720065063 -3330.1892979171444 -0.0013867276341739121 -0.005239015408733394 -0.0013867276341739121 -3330.1883298336907 -0.01593125619001512 -0.005239015408733394 -0.01593125619001512 -9999.5524427048294 -3330.2025513138251 0.0040890075575019669 0.027826196574096684 0.0040890075575019669 -3330.1526744678758 0.02028889522262034 0.027826196574096684 0.02028889522262034 -9999.5489852782157 -3330.2166786541784 0.026549227697986844 0.018141632524930174 0.026549227697986844 -3330.1829299610654 0.013050181178186904 0.018141632524930174 0.013050181178186904 -9999.5384641135061 -3330.2012336280568 0.0016530855983507564 -0.0098452035217633238 0.0016530855983507564 -3330.1944983165486 -0.014646553714555921 -0.0098452035217633238 -0.014646553714555921 -9999.5603079311986 -3330.1959873557043 0.0048552614352364021 -0.019547448628145503 0.0048552614352364021 -3330.1847560478654 -0.028087561906431802 -0.019547448628145503 -0.028087561906431802 -9999.5565607959397 -3330.1465371107679 0.025016295463195837 -0.041917011021723738 0.025016295463195837 -3330.1265627813573 -0.05730221214616904 -0.041917011021723738 -0.05730221214616904 -9999.4976553998968 -3330.1964415351158 0.0057197128280901399 -0.018202740106062265 0.0057197128280901399 -3330.1891829830893 -0.029695667345549737 -0.018202740106062265 -0.029695667345549737 -9999.5544418966711 -3330.1995946200332 0.0039743370245191034 -0.0066726641362038208 0.0039743370245191034 -3330.193200898595 -0.013722473104280652 -0.0066726641362038208 -0.013722473104280652 -9999.5562346467777 -3330.172874714186 0.014791430984747 -0.0012392901753628394 0.014791430984747 -3330.1743257116668 -0.0093392571761796717 -0.0012392901753628394 -0.0093392571761796717 -9999.543416488963 -3330.1944931388261 0.010936527815931685 0.0018860758900700603 0.010936527815931685 -3330.1931936747951 -0.014024929547304055 0.0018860758900700603 -0.014024929547304055 -9999.5582966484508 -3330.1424573487948 0.024427655911251289 0.034008209291641833 0.024427655911251289 -3330.1588273742364 -0.017344261589641974 0.034008209291641833 -0.017344261589641974 -9999.5106583950255 -3330.1859230799182 0.0054588908962180938 0.0023504974724346539 0.0054588908962180938 -3330.1896299574819 -0.014920820172847016 0.0023504974724346539 -0.014920820172847016 -9999.5552632043982 -3330.1251397945634 0.013310262417013385 0.031457784463782446 0.013310262417013385 -3330.1526684219898 -0.012424374672264094 0.031457784463782446 -0.012424374672264094 -9999.5047892684088 -3330.1620801523095 0.018125668650669891 0.010500287033210043 0.018125668650669891 -3330.1709323661235 -0.0096032659567981682 0.010500287033210043 -0.0096032659567981682 -9999.5398695121075 -3330.2027753691491 -0.0053697258050702246 0.011671459367789794 -0.0053697258050702246 -3330.1955746914427 -0.0075747359733213671 0.011671459367789794 -0.0075747359733213671 -9999.5562038976495 -3330.1311586765114 0.010579982349842698 0.045339158685237635 0.010579982349842698 -3330.1552704167607 -0.0026523178730712971 0.045339158685237635 -0.0026523178730712971 -9999.5101692330136 -3330.1617976451271 -0.0078541575210149261 0.035783988032562775 -0.0078541575210149261 -3330.1801825007569 -0.0049311702605336905 0.035783988032562775 -0.0049311702605336905 -9999.5208322507387 -3330.222267085559 -0.0088697791209226828 0.079236922062136728 -0.0088697791209226828 -3330.193921054999 0.0064305605174013181 0.079236922062136728 0.0064305605174013181 -9999.5426089948342 -3330.2010370179887 -0.0051632318863759075 0.03067243085388327 -0.0051632318863759075 -3330.1887267646889 -0.0063008078850543825 0.03067243085388327 -0.0063008078850543825 -9999.5327781599372 -3330.1858702037716 -0.0053697258050702246 -0.00020497951118159108 -0.0053697258050702246 -3330.1786695260653 -0.005423806571343448 -0.00020497951118159108 -0.005423806571343448 -9999.505488401519 -3330.1926435199057 -0.0051632318863761295 0.013743048140895553 -0.0051632318863761295 -3330.1803332666059 -0.0016864437984622782 0.013743048140895553 -0.0016864437984622782 -9999.5075976656881 -3330.1661390566842 0.0054588908962184268 0.002237265191070037 0.0054588908962184268 -3330.1698459342479 -0.0095569929690100253 0.002237265191070037 -0.0095569929690100253 -9999.495911134698 -3330.1747091155921 0.010936527815931685 0.0017728436068864539 0.010936527815931685 -3330.1734096515611 -0.0086611023434670642 0.0017728436068864539 -0.0086611023434670642 -9999.4989445787505 -3330.1744790984976 0.0057197128280901399 -0.020867168626864441 0.0057197128280901399 -3330.1672205464693 -0.024965437370155996 -0.020867168626864441 -0.024965437370155996 -9999.4885545868165 -3330.1830099570852 0.0039743370245195475 -0.0081831696825247491 0.0039743370245195475 -3330.1766162356471 -0.0089639323232404422 -0.0081831696825247491 -0.0089639323232404422 -9999.5064806579321 -3330.1737518308855 -0.0013867276341739121 -0.011535484260093654 -0.0013867276341739121 -3330.1727837474318 -0.013304681715453626 -0.011535484260093654 -0.013304681715453626 -9999.5058044460457 -3330.1844115531876 -0.0075411212284813844 -0.0057340130533702904 -0.0075411212284813844 -3330.1768353918324 -0.0032562387386860792 -0.0057340130533702904 -0.0032562387386860792 -9999.5094822877218 -3330.1839627193494 0.0032424309952964192 -0.0072914343836600892 0.0032424309952964192 -3330.1646508302783 -0.0075513846350077074 -0.0072914343836600892 -0.0075513846350077074 -9999.5014276612346 -3330.1838058958456 0.0038640974532679895 -0.0077899184798297938 0.0038640974532679895 -3330.1666682635732 -0.0095698036238900386 -0.0077899184798297938 -0.0095698036238900386 -9999.5041926496051 -3330.1897615721573 0.00042558609707765704 -0.0031504574380960548 0.00042558609707765704 -3330.1676169470356 -0.0015340213067247532 -0.0031504574380960548 -0.0015340213067247532 -9999.5059187395527 -3330.1848008884481 -0.0079024312870421554 -0.0078024409704084974 -0.0079024312870421554 -3330.1742827514918 -0.0010374101548222825 -0.0078024409704084974 -0.0010374101548222825 -9999.5041243790474 -3330.1858863210782 0.0047328148801928371 -0.0067117482030880637 0.0047328148801928371 -3330.1751806936045 -0.0084444911553873681 -0.0067117482030880637 -0.0084444911553873681 -9999.5045410274979 -3330.1811462587884 0.0049334158278729889 -0.0077030639440636151 0.0049334158278729889 -3330.1741218948118 -0.0083010549133177847 -0.0077030639440636151 -0.0083010549133177847 -9999.5049915005147 -3330.1870955986233 0.0041538318984382094 -0.013011127237405162 0.0041538318984382094 -3330.1757945988793 -0.017171337807667442 -0.013011127237405162 -0.017171337807667442 -9999.5049968232051 -3330.1857752439137 0.0027242486761765994 -0.012962299897480989 0.0027242486761765994 -3330.1763988712555 -0.01558693902916275 -0.012962299897480989 -0.01558693902916275 -9999.5067179909092 -3330.1755674675569 0.0062423454141617984 -0.0025917071179719642 0.0062423454141617984 -3330.1742747877342 -0.0090896775051305667 -0.0025917071179719642 -0.0090896775051305667 -9999.5040346735768 -3330.1739074247307 0.0071084769189195818 -0.0021499089125427417 0.0071084769189195818 -3330.1718426654879 -0.0084259386030680616 -0.0021499089125427417 -0.0084259386030680616 -9999.5026119846661 -3330.1797745959284 0.010759823543258662 -0.0031016491011541802 0.010759823543258662 -3330.1763946598694 -0.0065899879282369511 -0.0031016491011541802 -0.0065899879282369511 -9999.5052167760659 -3330.1886179455541 0.0018508332329689736 0.0097532639774726704 0.0018508332329689736 -3330.1745897541168 -0.0019460847943264525 0.0097532639774726704 -0.0019460847943264525 -9999.5027168118831 -3330.169889329125 0.0032936700830390464 0.0060600888737099012 0.0032936700830390464 -3330.1685152065984 -0.0029356680934142787 0.0060600888737099012 -0.0029356680934142787 -9999.4965160208958 -3330.1805653859828 0.003356795850759875 0.0005403003979154164 0.003356795850759875 -3330.1726939512555 -0.0036648813329520635 0.0005403003979154164 -0.0036648813329520635 -9999.5048889440659 -3330.1879694970448 -0.0042321426325583889 0.0076146555502418778 -0.0042321426325583889 -3330.1735814007334 0.0055396985408151522 0.0076146555502418778 0.0055396985408151522 -9999.4858033863347 -3330.1973314141105 -6.4338479008774208e-05 0.0082107753187301569 -6.4338479008774208e-05 -3330.1808907002778 0.004943578769598389 0.0082107753187301569 0.004943578769598389 -9999.4899711904873 -3330.1955432837967 0.001520876720715103 -0.0062292708425957244 0.001520876720715103 -3330.179572946181 0.0023269535276995157 -0.0062292708425957244 0.0023269535276995157 -9999.4891947193828 -3330.1976223326546 0.0059198581948136653 0.010156417771213455 0.0059198581948136653 -3330.1818614668609 -0.0023492385807912797 0.010156417771213455 -0.0023492385807912797 -9999.506785836842 -3330.1874474008109 0.0035920012303974902 0.0047524489600618836 0.0035920012303974902 -3330.1768288184794 0.00051435511704767123 0.0047524489600618836 0.00051435511704767123 -9999.4956137513072 -3330.2005948456172 0.0055817486353486601 0.0099046230570820626 0.0055817486353486601 -3330.1925447513859 -0.003196208352164831 0.0099046230570820626 -0.003196208352164831 -9999.5101997862148 -3330.1859808159552 0.0080382844427459021 0.0027932739540119655 0.0080382844427459021 -3330.1854080390021 -0.0060757833634852432 0.0027932739540119655 -0.0060757833634852432 -9999.4973919102267 -3330.1903208121785 0.0074894545781765132 0.0033913327097252477 0.0074894545781765132 -3330.1862411493748 -0.011404389631934464 0.0033913327097252477 -0.011404389631934464 -9999.4986851868744 -3330.1864318772878 0.0055000254664763215 -0.0018995527061633766 0.0055000254664763215 -3330.1755880873279 -0.00069102853012736887 -0.0018995527061633766 -0.00069102853012736887 -9999.4950496876409 -3330.1983788284651 0.00089940583941050534 -0.0046085507674433757 0.00089940583941050534 -3330.1823894926911 -0.0016379606531700119 -0.0046085507674433757 -0.0016379606531700119 -9999.5001691243306 -3330.2032469441256 0.0037144688996511022 0.0038170103944139555 0.0037144688996511022 -3330.1909433211695 -0.018698636147746583 0.0038170103944139555 -0.018698636147746583 -9999.5035246103653 
</DataArray>
</CellData>
</Piece>
</UnstructuredGrid>
</VTKFile>
